LAMMPS data file via write_data, version 4 Jul 2026, timestep = 50000, units = metal

720 atoms
2 atom types

-20.840065439031168 20.840065439031168 xlo xhi
-8.410574333055173 8.410574333055173 ylo yhi
-8.398119740485969 8.398119740485969 zlo zhi

Atom Type Labels

1 Si
2 O

Masses

1 28.0855
2 15.9994

Atoms # full

585 0 2 0 -19.709541591683095 -7.117444974048368 -6.05448852702208 0 0 1
634 0 2 0 -19.21572171600487 -4.9264912740402655 -7.261506327648551 0 0 0
485 0 2 0 -15.955977419947459 -5.228532844018166 -5.059104828655502 0 1 0
681 0 2 0 -19.131268573716476 -6.9368111072303185 -3.2653968547219225 1 0 0
190 0 1 0 -16.42342542699525 -3.684603750868229 -5.055268641287858 1 1 0
566 0 2 0 -17.982389239070802 -3.383065122000474 -5.460283845457439 1 1 1
509 0 2 0 -17.06605505156643 -6.376987833360569 -7.973656518231125 0 1 1
596 0 2 0 -17.148467177078107 -8.249515709837095 -5.776831365790195 1 0 0
147 0 1 0 -20.290683396115245 -5.605198148056579 -6.220667531266751 0 1 0
327 0 2 0 -15.675720511233614 -2.901592433842767 -6.208308266353455 0 0 0
472 0 2 0 -20.488954673000652 -4.886655862453068 -4.727068145300754 0 1 0
527 0 2 0 -16.325722453172105 -3.0426230091626536 -3.6022840397799083 1 0 0
539 0 2 0 -16.898007210910166 -3.851191374386371 -8.359211175436828 0 1 0
27 0 1 0 -17.986247566931667 -5.0604482049868 -8.30323203124483 0 1 1
283 0 2 0 -15.68063120660726 -6.730462162312623 -2.9898793741830954 0 1 -1
135 0 1 0 -14.859930957980144 -6.084910276603104 -4.216727312577384 0 1 0
80 0 1 0 -19.740504164549286 8.390862936237966 -3.1590817203055988 1 0 0
314 0 2 0 -14.133034744161133 -7.3964434919406346 -5.04053123935413 0 0 0
170 0 1 0 -12.017088193879275 -4.834308450654013 -7.009949219969264 0 0 0
388 0 2 0 -11.481174699504875 -4.476641321071819 -5.557292086453732 1 0 0
476 0 2 0 -11.444915714233252 -7.774437782801604 -5.313411628063435 0 1 0
66 0 1 0 -10.789569467622877 -7.850449875036762 -3.8528758382643007 1 1 0
470 0 2 0 -13.641535812937004 -5.228184098138523 -3.7321053919064466 1 0 0
386 0 2 0 -12.863202376109836 -6.196215921924902 -6.925113750353287 0 0 0
74 0 1 0 -12.815681526330021 -7.553273232414777 -6.062423287647616 0 0 0
533 0 2 0 -10.578115706801778 -5.182103056816934 -7.818436339807761 0 0 1
416 0 2 0 -11.513129159316332 -6.618926572187341 -3.14741318066606 0 0 0
82 0 1 0 -9.426050191364 -4.109018640831004 -7.50568670853105 0 1 1
625 0 2 0 -9.184214191527902 -7.786333474056893 -4.046999347351309 0 0 0
279 0 2 0 -9.474687532644015 -2.8346168700769603 -6.521924658490145 0 0 0
446 0 2 0 -8.361702245284052 -5.031059237461126 -6.706107806238976 0 0 0
359 0 2 0 -6.990050410696384 -6.7097947983971435 -3.4078260882031692 0 0 0
2 0 1 0 -6.149459931057722 -8.059510052032337 -6.142344396029346 0 0 0
577 0 2 0 -6.208159141672144 -3.8615095384207994 -6.79770548461373 0 -1 0
293 0 2 0 -6.308816415171314 -6.413087601564711 -6.122410094720552 0 0 0
89 0 1 0 -5.702143937215249 -3.3459165334335985 -8.262275786590022 0 0 1
595 0 2 0 -7.140003456019183 -4.529920419628577 -4.319206208753622 0 0 0
113 0 1 0 -6.95475169120278 -4.935884404115557 -5.919049098468367 0 0 0
545 0 2 0 -4.120068451002485 -3.772166881378574 -8.313257500771126 0 0 0
477 0 2 0 -4.55996311491657 -8.263598381351047 -5.777429034946248 0 1 1
16 0 1 0 -7.6563226723817 -8.176771683505406 -3.687607368145649 0 0 1
432 0 2 0 -3.0065003153847947 -4.902052674922722 -6.073271427454609 0 0 1
211 0 1 0 -2.936527864332522 -3.7040350980968224 -7.271542566479616 0 0 1
274 0 2 0 -2.339829086220604 -7.174400545694286 -4.779628474685125 0 1 1
674 0 2 0 -1.300761609046603 -4.770280185812068 -3.942836833845501 0 0 0
148 0 1 0 -1.8666673133716216 -5.665328502909294 -5.214960374094469 0 0 1
33 0 1 0 -0.24054698745879222 -4.99332943604582 -7.6899726064510245 0 0 1
352 0 2 0 -0.6320452864995687 -5.629807588748322 -6.265484867696316 0 0 1
402 0 2 0 1.0430301893146066 -3.9586873349379577 -7.487794580673984 0 -1 0
311 0 2 0 2.494753415731335 -3.0643243085181524 -4.039271367598208 0 0 1
394 0 2 0 -1.4864473208556852 -3.9520657715699743 -7.967280789497957 0 0 0
109 0 1 0 2.049118596698392 -2.797985801325849 -8.124435069985276 0 0 0
628 0 2 0 8.322178863840207 -7.218210071463889 -3.058531972318926 0 0 0
161 0 1 0 7.469129388545799 -6.805943932411289 -4.36180319861722 0 0 1
519 0 2 0 8.547146632428646 -6.106047891990268 -5.355140325986581 0 0 0
482 0 2 0 6.1795907923148015 -5.72392078436346 -3.8148707536199638 0 0 1
704 0 2 0 6.9161122380636435 -8.040453062382133 -5.153429199111571 0 -1 0
546 0 2 0 11.028896893323548 -5.05933501762483 -5.968502879469264 0 0 1
69 0 1 0 10.011046552611209 -6.362118239415064 -5.91243071325033 0 1 0
493 0 2 0 10.364895996751876 -6.897922063890604 -7.506200327354484 0 0 1
67 0 1 0 13.13806724192084 -5.1619109075805 -3.218471064236496 0 0 1
144 0 1 0 12.639412980160625 -4.883709423614754 -6.1600947516502025 0 0 0
647 0 2 0 12.905262235328966 -5.931133584864171 -7.399376467492561 0 -1 0
364 0 2 0 13.347435488241953 -5.301009230793876 -4.786847205093878 0 0 1
520 0 2 0 10.756131892341237 -7.59468799098069 -5.135446414289696 0 0 1
604 0 2 0 13.116022116556724 -3.4318626283189504 -6.776110107097572 0 -1 0
582 0 2 0 12.170865016232174 -3.846967121428783 -3.0851086859423162 0 0 1
406 0 2 0 13.161435693824732 -8.264708891378152 -5.799620428607464 0 0 0
155 0 1 0 11.793412316774631 -6.823948258634398 -8.191069013885128 0 1 2
607 0 2 0 15.583516607082874 -7.407886136589499 -5.111236245668616 0 1 1
60 0 1 0 20.66867806276341 -4.2733374069783645 -3.271143549781243 0 1 0
126 0 1 0 18.360878207794453 -4.775223330019712 -7.056692861677248 0 0 0
288 0 2 0 19.875533660042382 -5.3888273109178035 -6.823643371186174 0 0 0
231 0 1 0 17.028456927568687 -6.629963635743683 -4.9980338034590135 0 0 1
531 0 2 0 17.061690693537354 -5.839168888669155 -3.6328060353331777 0 0 0
272 0 2 0 18.136212789846606 -3.2847560204635275 -6.350954320811408 0 0 1
666 0 2 0 19.076712032861284 -4.427100728217015 -3.0060271597347397 0 0 1
354 0 2 0 17.21488848937565 -5.606051416673445 -6.236561726048937 0 0 0
334 0 2 0 18.301037034563937 -7.601229425522649 -5.095127267597554 0 1 2
95 0 1 0 -16.271692926892896 -2.5476249453989572 -7.633712617834789 1 1 0
588 0 2 0 -17.60656369294258 -1.6514376380079856 -7.324920598093685 0 0 0
92 0 1 0 -18.715328568283002 -2.1299579253051792 -6.274610423980336 1 0 0
563 0 2 0 -19.02403970513483 1.356869369915941 -4.0141840321971385 0 1 0
641 0 2 0 -18.83195705624737 -1.058881944969409 -5.095605054748287 0 1 1
195 0 1 0 -18.25267008044124 0.35172621257527226 -5.0667532284431624 0 0 0
549 0 2 0 -16.615521755178843 0.14894063050832607 -4.924526882924628 0 0 0
587 0 2 0 -18.598619917266358 0.9447568160011031 -6.515977870067328 0 0 1
381 0 2 0 -16.365248580200788 1.142455135741839 -7.878914702580808 0 0 0
157 0 1 0 -17.705664115822263 1.8673369653764205 -7.383267055908191 1 0 1
260 0 2 0 -20.123755206373684 -2.1321176924459646 -7.070922995223338 0 0 0
163 0 1 0 -15.019320223039735 0.43399766165217635 -4.6586755444966235 0 0 0
338 0 2 0 -15.008981482394253 0.899192842808354 -3.1380504778418032 0 -1 0
418 0 2 0 -20.549462069248474 -2.7195487954381132 -3.1904272080100347 0 1 1
611 0 2 0 -15.053633833657397 -1.7717923412905758 8.37229107150864 0 0 -1
699 0 2 0 -14.584963453643754 1.3938184913032412 -5.952124665740317 0 1 0
115 0 1 0 -14.929529502728204 1.5476478902444804 -7.475371281321507 0 -1 0
197 0 1 0 -11.807508435856974 1.9081292915994261 -6.1360130776199355 0 1 0
529 0 2 0 -11.325363221786882 -1.2938291978077627 -5.717656635905743 0 1 0
31 0 1 0 -9.753505237331272 -1.4566642813883552 -5.7757184760860945 0 0 0
297 0 2 0 -11.78696539859868 0.9522895151470916 -4.905050615059662 0 0 0
644 0 2 0 -13.816732449685517 -0.6628351832155399 -4.813084667443109 0 0 0
173 0 1 0 -12.229350868838322 -0.6858053109582221 -4.511848990778466 0 1 1
627 0 2 0 -12.108515711014574 1.274255246149517 -7.576536749751772 1 0 1
276 0 2 0 -9.322952215140477 -1.3001935395704756 -4.2626992964691635 0 1 0
346 0 2 0 -11.860685755691696 -0.8936140292370638 -2.9586555886964225 0 0 0
372 0 2 0 -8.924347936824615 2.1179605390412792 -7.551808509356013 0 0 1
310 0 2 0 -8.853224017344667 -0.34482656567663383 -6.663462440662208 0 0 1
36 0 1 0 -8.814880201626181 0.5188020725519369 -7.9885214926329695 0 0 1
234 0 1 0 -8.152888331963272 -1.6517803538261582 -3.244951521672533 0 1 0
405 0 2 0 -6.701970479723654 1.081064588742933 -3.8780934347584237 0 0 1
245 0 2 0 -6.88900289810962 -1.551768049587059 -4.358897143699869 0 1 1
511 0 2 0 -4.145597235088712 2.5728960855450804 -6.186118560050643 0 0 0
137 0 1 0 -6.018079312735486 -0.19197975716090987 -4.6985033666419955 1 -1 1
668 0 2 0 -4.578875089428458 -0.5367296704217193 -4.0812239446328045 0 1 0
690 0 2 0 -5.7415318708170044 0.4896226646252462 -6.256918953054232 0 0 0
43 0 1 0 -4.567793759603255 1.284428013022989 -7.0966950378761995 0 0 0
710 0 2 0 -3.498180477141201 1.7752849876086003 -3.749492067820821 0 -1 -1
685 0 2 0 -3.3196468336213023 0.2869366911304887 -7.197227898451211 0 0 0
673 0 2 0 -5.9275518346259535 -1.7612300473687874 -8.37417077156838 0 0 0
77 0 1 0 -3.179607579514343 0.08663958645087178 -3.62904874130753 0 0 0
319 0 2 0 -2.917848789090389 -2.2697364650724694 -6.458475687246768 0 0 0
411 0 2 0 -2.1597913483311046 -0.14930735440821685 -4.918377730268468 0 0 0
49 0 1 0 -2.3374342442477563 -0.746131188465692 -6.429257300804517 0 0 0
420 0 2 0 -0.8664771571585703 -0.6476112889458827 -7.222189969238871 0 0 0
230 0 1 0 0.2444455828319434 -0.19842199245344005 -8.252733397886965 0 0 0
216 0 1 0 1.3459787618536403 2.526306322529157 -7.13540262500063 0 0 0
655 0 2 0 1.208207691398922 0.990097566210693 -7.684701512864119 0 0 1
392 0 2 0 0.9240702471226285 2.535976207105847 -5.501113084241949 0 -1 0
514 0 2 0 -0.18520874888175953 2.880489928411208 -3.0147348128983005 0 0 0
501 0 2 0 2.9576885475195382 3.026497385271224 -7.232049940850368 0 0 0
705 0 2 0 0.1596845682639021 -0.838176805346464 -2.636782621167961 0 0 1
309 0 2 0 3.0561265008580136 -2.4134480176752753 -6.65470782316005 0 0 0
684 0 2 0 4.511721107344879 -1.5663236523454298 -4.247662862905197 0 0 0
559 0 2 0 7.194415030068573 -1.2589417035880341 -4.125399629423236 0 -1 0
225 0 1 0 3.3595964934458387 -2.2960853960178165 -5.100826514412166 0 0 0
116 0 1 0 5.918690887824781 -1.6928726681243074 -3.3151206906904767 0 0 0
47 0 1 0 4.475185906829804 2.4483305540842863 -7.183353040160682 0 0 1
349 0 2 0 4.570957073873906 0.9509751251913805 -6.751873077312423 0 0 1
557 0 2 0 6.02956783356505 2.9621688831124686 -7.461122708367725 1 0 0
253 0 2 0 8.703586324129848 2.775850585343388 -6.530705712199475 0 0 0
14 0 1 0 7.578133877749487 2.871371223437208 -7.674916205493516 0 0 1
498 0 2 0 10.455403856105377 1.0555851750175549 -5.22469781712698 0 -1 1
410 0 2 0 10.613049540494917 -1.0763209519745516 -6.793355632509526 -1 0 0
107 0 1 0 11.279817230429881 -0.447980107932608 -5.49206804027981 0 0 0
108 0 1 0 12.374335148471278 -2.255744069786912 -3.102408840098297 0 0 1
97 0 1 0 14.218164678581086 -2.410473764065264 -7.332746792868106 0 0 -1
428 0 2 0 11.407416651380377 -1.535340181137391 -4.295750677808446 0 0 0
361 0 2 0 13.998566058010422 -2.0146430221744396 -3.262321393792365 0 1 0
425 0 2 0 13.753256852473232 2.243874889581713 -5.2635660004936575 0 1 -1
601 0 2 0 12.815700008286296 -0.08913513446536037 -5.735162161066517 -1 -1 1
648 0 2 0 14.941151940744103 0.12927696982156256 -4.300349096604104 -1 0 0
200 0 1 0 13.522455398672871 0.8140641289318644 -4.597120944428961 0 -1 0
541 0 2 0 12.559634782937916 0.893733495093322 -3.3122924385490133 0 -1 0
465 0 2 0 11.204065348970719 2.3707022818887573 -7.312157881672678 0 -1 0
217 0 1 0 10.339188811453173 2.491451251440818 -5.966830664687766 0 0 1
71 0 1 0 15.377437184015829 -1.26330794457422 -3.52230539303914 0 0 -1
542 0 2 0 15.588497715749678 -2.513525108207788 -6.649755108298635 0 0 0
515 0 2 0 16.422888234111728 -2.230184395493417 -4.276119618195635 0 0 1
103 0 1 0 16.9857517513154 -2.240508220940158 -5.787855194949 0 -1 0
569 0 2 0 16.199811855917535 1.852127092577451 -6.104823419778136 0 -1 1
458 0 2 0 17.38463325512218 -0.6577612919154081 -6.035891512131578 0 0 0
570 0 2 0 18.215678811865263 1.2162265894554434 -7.587589031812765 -1 0 0
59 0 1 0 17.571223878342696 0.9550283679146627 -6.149428119824218 -1 1 0
480 0 2 0 18.625322435614596 1.5891281203855954 -5.096000019638616 0 0 0
584 0 2 0 20.33678481938534 2.6681147003877026 -7.67481658336449 -1 0 1
399 0 2 0 17.843830674107064 2.628750233632168 -2.9097765902619326 0 0 0
424 0 2 0 20.5021005198514 0.035164373252356995 -8.13386506624888 0 0 0
38 0 1 0 19.673641230013505 1.352550932461293 -8.242765928102827 0 0 0
209 0 1 0 -18.778980298805628 8.39838831750913 -5.846811787766709 0 0 0
256 0 2 0 -16.00977802784245 3.152490426593591 -3.206889459439757 0 0 0
553 0 2 0 -17.184415928069484 3.040140079026335 -6.451040770650002 1 0 0
698 0 2 0 -15.227850905989062 4.284750627035317 -5.297932653177389 1 0 0
676 0 2 0 -16.007102101065563 4.834379539040771 -7.81141097650361 0 0 0
196 0 1 0 -16.379662569805536 4.470102837015553 -6.356415651725803 1 0 0
461 0 2 0 -15.920751239789775 7.800226840668049 -3.6766988589308776 0 1 0
387 0 2 0 -19.653592463415986 4.724135374277115 -7.375926638917802 0 0 0
568 0 2 0 -17.556581099709977 5.485530846337472 -5.860670857396637 0 0 -1
254 0 2 0 -19.125345969879277 7.166789320488656 -6.9784937093388315 0 -1 1
122 0 1 0 -15.854088866696465 7.823401628065426 -5.21865065144987 0 0 -1
21 0 1 0 -19.094980008058336 5.6285615964732365 -6.182128845856993 0 0 1
679 0 2 0 -19.175875273150467 7.717288622350978 -4.495292241397981 1 0 1
469 0 2 0 -20.089460431910872 5.131433037394622 -4.997944309318411 0 0 0
76 0 1 0 -20.599230423001316 4.759899193124443 -3.4715954056869274 0 0 0
453 0 2 0 -15.76643792360441 8.08819747088225 -8.122995993191056 1 0 1
378 0 2 0 -14.99182959075511 6.720335200600083 -5.907548176897134 1 0 0
28 0 1 0 -14.88585807880572 4.130514398397221 -3.718009269656373 0 0 0
287 0 2 0 -14.517617472297651 2.8879819830843534 -8.236267780287191 0 0 1
337 0 2 0 -11.657174440995718 3.3976913592929545 -5.819183421686831 0 0 0
412 0 2 0 -12.973472836754347 7.864437031656699 -6.764183361821026 0 0 0
35 0 1 0 -13.399642878650297 6.398762742709785 -6.270600531978055 0 0 1
219 0 1 0 -12.086398706054494 4.2444374147961845 -4.482489622475366 0 0 0
345 0 2 0 -12.635125964616988 5.744861410948452 -4.958343439902697 0 0 0
241 0 2 0 -13.341440877694836 3.4802117388447 -3.773643466006476 0 0 0
675 0 2 0 -12.818605509197315 5.411300818387204 -7.426975872689085 0 0 1
447 0 2 0 -10.711405493391403 4.510832680674435 -3.6336383228457416 0 -1 1
368 0 2 0 -10.975946372849263 7.6057658332966795 -2.9719557392813325 0 0 0
204 0 1 0 -9.671889432810062 6.145494969428473 -6.813711349107951 0 -1 1
267 0 2 0 -9.534905263848724 6.001744033585258 -5.2725896890333726 0 0 1
224 0 1 0 -9.254007955189783 4.762256289702529 -4.311410442542998 0 0 1
672 0 2 0 -9.234058206729927 4.758632232023773 -7.424921990659303 0 0 1
475 0 2 0 -9.327775689093848 7.5338534234350405 -7.424428467039518 0 -1 1
400 0 2 0 -6.823839226298498 8.200940479988514 -7.568329049395985 0 -1 0
414 0 2 0 -3.5837593810996538 7.830981141993654 -3.314407169506908 0 0 1
193 0 1 0 -3.9470699904711104 3.0574958239876278 -4.65446719457737 0 0 1
370 0 2 0 -8.813919623549502 3.530303326023464 -5.301617607353344 0 0 1
132 0 1 0 -8.379895661316173 3.507060905738717 -6.886183150954775 0 0 0
258 0 2 0 -7.91405992858653 4.946883540443945 -3.530078728436857 0 -1 0
510 0 2 0 -6.990739614921118 7.984962901509199 -4.995706799482864 0 0 0
670 0 2 0 -4.36922513275784 5.422009517159097 -6.500998751240616 0 0 1
291 0 2 0 -6.748281861654606 3.866451705084211 -6.881308326691856 0 0 0
278 0 2 0 -5.383653695966487 3.701252558552275 -4.204417188799357 0 -1 0
87 0 1 0 -5.351310492232191 4.476492039683514 -7.320665200908551 0 -1 1
184 0 1 0 -3.265936076017468 8.185786337708933 -4.8671477982312705 0 0 1
227 0 1 0 -6.513250340480301 4.227885223260355 -3.2550486743673597 0 -1 0
282 0 2 0 -2.9376345701131967 4.345108766766462 -4.720756989293907 0 -1 0
145 0 1 0 -8.262990791685729 8.248260668923614 -8.36443696890121 0 0 0
72 0 1 0 -2.8001089064519533 5.495828407764034 -5.896581660562831 0 0 0
688 0 2 0 -2.438181755594183 7.0343609031085315 -5.535542929606676 0 -1 0
640 0 2 0 -1.8659637845726422 4.870162618822331 -7.017814438430289 0 0 1
614 0 2 0 0.15496808210125224 3.3731082133511876 -7.8529616785901775 0 0 1
136 0 1 0 0.3895772801003581 3.4492433791692836 -4.352488535280802 0 -1 1
443 0 2 0 0.41831482439800993 5.005840496452986 -4.566313293673328 0 0 0
179 0 1 0 -1.260431261966204 4.163975194176771 -8.297502599459932 0 -1 1
11 0 1 0 14.745958231999207 8.272555168103878 -5.796305942663873 -1 0 0
427 0 2 0 10.440268720611336 5.644496620628267 -3.2378446013593125 0 0 1
5 0 1 0 11.512447212471994 5.2372106080244905 -4.420376211558801 0 0 0
597 0 2 0 12.978966111063638 5.4706211921410866 -3.7157088278194212 0 -1 1
78 0 1 0 11.798293345182945 8.059126853714417 -5.253215921325875 0 -1 1
63 0 1 0 13.967504244607067 6.734957751773209 -3.3998703069783467 0 -1 0
623 0 2 0 10.762346526775104 3.729025874789105 -5.048006938175586 0 -1 0
328 0 2 0 11.495242934223878 6.548930943458387 -5.436274052817328 0 0 1
435 0 2 0 14.759714106119734 7.022378539751486 -4.7829263528423915 0 -1 1
583 0 2 0 12.775983052074562 7.88449043953198 -3.077470793837139 0 -1 1
191 0 1 0 14.345934357626486 4.4004332048731065 -8.123929504318005 0 -1 0
341 0 2 0 12.73055454852057 4.209408220170001 -8.309484484368094 -1 0 -1
451 0 2 0 14.684108500772329 4.101771265970672 -6.574367105646679 0 0 1
83 0 1 0 18.778673909515536 2.904141083087259 -4.1771132141629135 0 0 0
693 0 2 0 20.36092935270396 8.30305697179135 -3.201162976100691 0 -1 0
10 0 1 0 15.153466164182273 2.990289040930481 -5.518792540165652 0 -1 0
547 0 2 0 15.602901690671079 3.4865969934183276 -4.043983755575355 0 -1 0
350 0 2 0 15.425158339679225 8.032305945346916 -7.266963093867186 0 -1 0
347 0 2 0 20.255419200788925 3.3712797503675596 -3.7617836806296783 0 0 0
433 0 2 0 19.14277582270302 6.639042011836411 -5.121686153224779 0 -1 0
374 0 2 0 19.31681029500999 5.069368067326028 -7.2647104055790725 -1 0 1
594 0 2 0 18.256355175522618 4.143423654949284 -5.105973816641798 -1 -1 0
438 0 2 0 16.980673709250244 6.028097503443233 -6.500640913748644 0 -1 1
99 0 1 0 18.457298429563107 5.470978449889305 -5.980709237873045 0 -1 0
51 0 1 0 19.271489542003923 7.196995696853122 -3.5750971365161064 0 0 0
23 0 1 0 20.567011505240362 4.2471511137267655 -7.8598385546515255 -1 0 1
1 0 1 0 16.143614996301157 6.697860177867804 -7.759705380977654 0 -1 1
340 0 2 0 17.70326929165233 7.294822000563604 -2.962735217442388 -1 0 1
619 0 2 0 19.95824252655741 5.846549359932407 -2.929965509320037 0 0 0
528 0 2 0 14.88460571565987 5.889123318440994 -8.254256332291364 -1 0 0
284 0 2 0 -17.832206379501265 -4.671676661364663 -2.479795385448713 0 0 1
134 0 1 0 -18.93616191952099 -5.7529181214134475 -2.1580565290081744 1 0 0
336 0 2 0 -18.47139944086971 -6.586096225494815 -0.8819869003147378 0 1 0
8 0 1 0 -18.452344759775485 -3.892097527510998 1.92580075378058 0 0 0
521 0 2 0 -17.699674673403745 -5.299583974310172 2.157938311119988 1 1 0
85 0 1 0 -17.104172703241762 -3.245841202918733 -2.240451243632876 1 0 0
562 0 2 0 -15.987673974024592 -3.233903434398945 -1.0968294087459762 0 1 1
492 0 2 0 -19.982097979908566 -4.384716627482014 1.6357411233550447 0 0 1
20 0 1 0 -15.5369373198225 -8.178866370047427 -2.3687137428964666 1 0 0
360 0 2 0 -17.595116412627092 -3.1337222665488103 0.831602710104276 1 1 0
168 0 1 0 -18.083919435562944 -8.147348476937779 -0.7231455409046088 1 1 0
299 0 2 0 -20.295799632194168 -4.995159004773645 -2.0630680690207983 1 0 0
315 0 2 0 -20.347582847754197 -7.022305697162878 1.2348539117372468 0 1 0
180 0 1 0 -16.075432814410885 -2.787688129502695 0.4451250555715678 0 0 0
380 0 2 0 -15.086618595256645 -3.685203781114515 1.430121233804977 0 0 0
706 0 2 0 -16.49653022721209 -7.54448933561645 2.8314599723268064 0 0 0
30 0 1 0 -12.353034052584338 -5.288842550411117 -2.7373738049800256 0 1 0
112 0 1 0 -14.419576705953741 -4.490642441025296 2.711647008443018 0 0 0
552 0 2 0 -13.131441585616916 -5.45220742018645 2.3842494997163275 0 1 0
398 0 2 0 -13.513668133357982 -7.272332152992784 0.6565220932742957 0 1 1
543 0 2 0 -10.180297699577004 -3.636001854834973 -0.2825808113220756 0 0 1
201 0 1 0 -13.051788291799582 -7.321784439111121 -0.8953143058357158 0 1 0
312 0 2 0 -11.281418220254979 -4.1070429001876265 -2.598558054626392 0 1 0
683 0 2 0 -12.933890182174412 -5.803601592735906 -1.310764142709143 1 1 0
24 0 1 0 -12.613759983030986 -6.900798187610382 1.9820146302886688 0 0 0
459 0 2 0 -10.988640429239005 -6.800269345137159 1.6753201439283671 0 1 0
220 0 1 0 -9.556701347730275 -3.370712122125788 1.2147930175013872 0 0 -1
198 0 1 0 -9.676408105638346 -6.135348238450202 2.390437040377524 0 1 0
3 0 1 0 -9.817129960180953 -3.943394191553198 -1.8351025150621778 0 1 1
322 0 2 0 -9.074738119825627 -4.828873307341178 1.6694492472156934 0 1 -1
292 0 2 0 -11.706921443246584 -8.17063813716455 -0.8129681342016166 0 0 1
294 0 2 0 -8.898091343953418 -5.258486439649128 -2.226158398962216 0 0 0
439 0 2 0 -14.059268196552877 -8.122184231685697 -1.8231081954207893 0 1 1
630 0 2 0 -10.235030874220078 -2.941704095871552 2.617518114619063 1 0 0
37 0 1 0 -7.427704780712499 -5.247479295120576 -2.887614714460451 0 0 0
255 0 2 0 -6.40437918947465 -4.860251621493152 -1.7533780319734067 0 0 1
306 0 2 0 -4.14493066877877 -6.042779260177379 -1.4647618018301403 0 0 1
344 0 2 0 -6.457775861985898 -7.321631407334963 -0.6672981576255914 0 1 0
96 0 1 0 -5.654567981025931 -5.857444003639995 -0.7985669630582866 0 1 0
487 0 2 0 -5.384310588494165 -5.44053527095084 0.7679051166694375 0 -1 0
174 0 1 0 -4.186269698439386 -5.517257698611083 1.8481631518417263 0 1 0
652 0 2 0 -4.015681223595589 -4.109206133922933 2.5611937392464217 0 0 0
633 0 2 0 -8.340956676196756 -7.146727722274822 2.475738531371155 0 0 0
638 0 2 0 -1.149288263372533 -2.9818739808638135 -1.972032741036048 0 1 1
221 0 1 0 -0.6819185823242719 -4.534154286705256 -2.477388761261455 0 1 1
631 0 2 0 -1.427566623664493 -5.511354510353014 -1.3844631085737902 0 0 0
600 0 2 0 0.9955796789131597 -4.5696748330643695 -2.464934692194486 1 1 1
104 0 1 0 -2.711867314423724 -6.432456789323063 -0.8345056118292824 0 0 0
639 0 2 0 -2.9336107454805322 -6.017224698222798 0.8012852093967986 0 0 1
129 0 1 0 2.4115963440938586 -3.7246672140718653 -2.507534136918201 0 0 0
356 0 2 0 -2.7036649897015934 -8.062564057494802 -1.121624551099087 0 0 1
316 0 2 0 2.4807204831119343 -2.66900936635267 1.5483007552534183 0 0 0
713 0 2 0 5.990490702706758 -3.3276043752411173 -2.8207921567570278 0 0 0
479 0 2 0 3.804842690946895 -4.685721825456165 -2.499136520939606 0 0 1
84 0 1 0 5.475719085633987 -4.823692645899415 -2.59880885992996 0 0 0
397 0 2 0 6.124957046869785 -6.398087821256868 1.2685979343545117 0 0 0
164 0 1 0 7.131590358674639 -5.952024272390812 -0.013016506127847549 0 1 0
385 0 2 0 6.117051797875799 -5.426006166701699 -1.2313539752474503 0 1 -1
441 0 2 0 8.016686288250028 -4.730763509578145 0.45694955477505417 0 0 -1
138 0 1 0 8.474856679806184 -3.182945559607731 0.4454805250463032 0 -1 -1
473 0 2 0 8.136480244018504 -7.228777643101461 -0.3955255136413225 0 1 0
101 0 1 0 4.918507691517043 -5.749453531498761 2.0796711668425107 0 1 -1
450 0 2 0 5.038796799122238 -4.230173512479614 2.0276780720681185 0 0 0
52 0 1 0 8.89379701908819 -8.035263158276573 -1.7454728471965506 -1 0 0
404 0 2 0 12.431000418818822 -6.4447485956828565 -2.7452191327147446 0 -1 0
516 0 2 0 9.971562221186815 -3.019570698522368 -0.42024390863512195 0 0 0
261 0 2 0 10.585090395291616 -7.957902985442663 -1.710201773803652 0 0 1
534 0 2 0 14.376173063190226 -4.963070984220761 -2.186606971156303 0 0 0
13 0 1 0 12.153906856617287 -7.825515441108633 -2.0105125770037766 0 0 1
440 0 2 0 12.90175024257913 -7.873288516777367 -0.4725720789946708 0 0 1
150 0 1 0 14.326272828894215 -7.782066694680886 0.39725637586879614 0 -1 0
271 0 2 0 13.911215383861478 -7.283413830947878 1.9196231812053437 0 0 0
697 0 2 0 12.703883658220814 -3.044072076308124 0.3421256465569158 0 0 -1
437 0 2 0 14.855707403957243 -4.4146495769323595 0.3531309685658641 -1 0 0
305 0 2 0 15.256830052959838 -6.834231330051401 -0.4837432144255267 0 0 0
62 0 1 0 15.39577548786006 -5.247407368660428 -0.9029792172362834 0 1 0
41 0 1 0 17.960261054613692 -5.441954701569495 -2.389212876755816 0 0 0
707 0 2 0 18.61877291888059 -6.648334799432028 -1.6349062907946363 -1 0 0
608 0 2 0 16.94026923692415 -4.7736179564355306 -1.22134785638473 0 0 0
70 0 1 0 17.923356641388946 -6.586298129950322 1.833198476763263 -1 0 0
538 0 2 0 17.552821385146157 -8.015839047280375 1.1029021607854101 0 0 0
564 0 2 0 16.54701627048058 -5.715186532200221 1.7728792018638728 0 0 -1
183 0 1 0 20.822743405801386 -5.680795978556064 1.9489656600561123 0 0 0
243 0 2 0 19.227439248142627 -5.744807680302872 1.4493993687741078 -1 0 -1
160 0 1 0 -19.08378214689351 1.161408133665459 -2.400601669393298 1 0 0
281 0 2 0 -18.367449927379152 -2.2054336805240915 -1.8871985583883433 0 0 0
181 0 1 0 -16.078655018067266 1.8484327004880168 -2.2480590218586585 1 0 0
602 0 2 0 -17.461969232576763 1.1250963022016958 -2.1018696732343845 0 0 0
242 0 2 0 -16.041603073503907 1.3709291488802577 1.46960406456237 0 0 0
558 0 2 0 -19.826837528479043 2.29117901887928 -1.4775194736870922 0 0 0
149 0 1 0 -15.55674696932785 -0.1814570172720522 1.72337587698458 0 0 0
489 0 2 0 -15.607249425459564 -1.2348708232390901 0.48716536170451086 0 0 0
581 0 2 0 -19.808751014893215 -0.26417816187936083 -2.1241447207448516 0 0 -1
540 0 2 0 -16.733078823957385 -0.8204978179045828 2.5769284903047396 0 0 0
139 0 1 0 -19.895186303277512 -1.8550293007402 -2.016400309755909 1 1 0
444 0 2 0 -15.798249226477012 2.395317623307994 -0.7914534110671685 0 0 0
102 0 1 0 -16.603485041886 2.7456347721686143 0.5902450411830493 0 0 0
682 0 2 0 -14.021281743626147 0.04357444621855855 2.2439462776875967 1 0 0
46 0 1 0 -12.85302692813153 1.270092066064974 2.2508358016956524 0 0 0
536 0 2 0 -10.96621509245352 2.184829286993855 -1.093069049579718 1 0 0
537 0 2 0 -12.71644872567797 1.9277901720609396 0.7615037767265829 0 0 0
199 0 1 0 -9.540327056379626 1.6510297276049748 -0.5966798237990227 0 0 0
720 0 2 0 -9.381376033649543 0.07283400422721087 -0.07220068026589566 0 0 0
454 0 2 0 -9.259704567375483 2.569873496763634 0.7173329676210827 0 -1 0
667 0 2 0 -11.246888319317442 0.9239568168189383 2.813331125938733 0 1 0
423 0 2 0 -8.788849686358619 -2.799608427507561 -2.3378918563006046 0 0 -1
598 0 2 0 -5.329529531245415 -2.0692484776213007 1.7859253050586563 0 0 1
695 0 2 0 -7.710062630867933 -0.4455277740894603 -2.2026829812358635 0 0 0
632 0 2 0 -8.387834168154962 1.9656327991937612 -1.7361867752888749 0 0 -1
266 0 2 0 -8.688226600151042 -0.02273221570727557 2.320631319507809 0 0 -1
643 0 2 0 -8.453508312421901 -2.2204156879227996 0.9152269098496273 0 1 0
40 0 1 0 -8.28712200713985 -0.635503651563508 0.9142025429506688 0 0 0
202 0 1 0 -7.148364005638715 1.0633263079839566 -2.2463615086667286 0 -1 0
686 0 2 0 -5.261154288661265 -2.1585932509450796 -0.8532739306697854 0 -1 0
671 0 2 0 -6.739103187830926 -0.3345357619601099 0.5325719470390098 0 0 0
192 0 1 0 -5.356011306837475 -1.1923346377062147 0.43553882009775435 0 1 0
395 0 2 0 -5.767025988362411 1.5616609847208611 -1.5637657741907312 1 0 1
393 0 2 0 -3.971009213550804 -0.27262246199192397 0.41277496930926283 0 0 0
486 0 2 0 -5.401424798442491 2.933226534331622 0.6864757343363159 0 0 -1
233 0 1 0 -1.1363010172021468 -1.4052646014845234 -1.9404057200927882 0 1 0
365 0 2 0 -2.342485727125215 0.8004631560412907 2.2725308211482744 0 0 0
599 0 2 0 2.56494476574942 -2.7011033836569913 -1.2336827354289488 0 0 0
106 0 1 0 -2.574731214481762 -0.46590761657685853 1.204694160134526 0 0 0
530 0 2 0 -2.439290612492684 -0.5233413451319642 -2.326227051126705 0 0 -1
329 0 2 0 -1.1163822276512683 -0.4952815471142067 0.3248973244907951 0 0 -1
19 0 1 0 2.8343325736739438 -1.8430663681171993 0.2330911450824491 0 0 -1
64 0 1 0 0.22725228651184182 0.38247423789834656 0.5007366463869332 0 0 0
455 0 2 0 0.04916467792356727 1.5471097059870207 -0.6404186524915483 0 0 0
696 0 2 0 1.6242530651755516 -0.5275146383594347 0.2931557731994445 0 0 0
659 0 2 0 0.12907587269669918 1.1781057151751178 1.976164769111108 0 -1 0
591 0 2 0 -2.780372488089114 -1.7560349730278197 2.1448299359566523 -1 0 0
484 0 2 0 7.204535182964186 -2.278054777197675 -0.1117257371409277 0 0 0
689 0 2 0 5.829658593442794 -0.8490634995702147 -1.9038505694546242 0 0 0
127 0 1 0 5.992725359211477 -1.0784833391323119 -0.3576055054340923 0 0 0
331 0 2 0 4.358880777799218 -1.244053760486132 0.12655656677608995 0 0 -1
658 0 2 0 6.648965802854075 0.2310102599224262 0.513274092353754 0 0 0
131 0 1 0 7.854506256808072 1.1273971363532649 1.1193673383137295 0 0 0
660 0 2 0 7.491880464665428 2.0578741481210994 2.4988739525078145 0 -1 1
532 0 2 0 8.551690133810187 2.0993531719887937 -0.04159447112327719 0 0 -1
285 0 2 0 9.015736689023747 0.16035467636407397 1.636488530885412 0 -1 -1
264 0 2 0 9.076391645926684 -2.4770359314907466 1.8381663364066583 0 1 1
48 0 1 0 14.32019413423198 -2.852625785947679 0.6642964713356552 0 0 0
167 0 1 0 9.94568842346332 -1.1175691958247898 1.964144234264257 0 0 -1
379 0 2 0 10.530337794275514 2.110436092168138 -1.8716689820833494 0 0 1
228 0 1 0 12.10280924179838 1.7651925080980142 -1.967826173952206 0 0 0
44 0 1 0 11.396724700010676 -2.243443286414718 -0.24498449873280315 0 0 0
421 0 2 0 11.802780211679906 -1.7612015246946529 -1.6743554416265303 0 0 0
235 0 1 0 12.244596238756646 0.3031172138289673 0.7886602015883852 0 0 0
413 0 2 0 12.384185900092543 0.7802322594651425 -0.7254038968113345 0 0 0
445 0 2 0 13.645889793566521 -0.08199918642193182 1.3459890185699823 0 0 0
646 0 2 0 11.637373565677965 1.4901169470768902 1.6596785187703063 0 0 0
620 0 2 0 11.171420600399632 -0.9851097172807117 0.7820338955135195 0 0 -1
504 0 2 0 14.728216766810203 -2.097707952025993 2.038022655788586 0 1 0
75 0 1 0 14.429241459309456 -0.6004175825842584 2.669130587245972 0 -1 0
419 0 2 0 -20.768777275733935 0.34455798773776003 2.1759564459959275 1 0 -1
265 0 2 0 15.2124284267823 -2.091137548586577 -0.4567331624618305 0 0 0
592 0 2 0 16.174804712038995 -0.5843553769430407 -2.1584681730023325 0 0 0
650 0 2 0 16.039988908577588 2.510329250571253 1.0731989986577073 -1 0 0
466 0 2 0 20.77936755626433 -2.2277066828610117 -0.7332266341801805 -1 0 0
502 0 2 0 19.215696446257933 -2.264389819002578 1.4163442140642815 -1 1 0
65 0 1 0 19.45461100377469 -1.5779628555490008 -0.02020105582776388 -1 0 0
523 0 2 0 19.662709882107148 0.01029890250533505 0.029663378733829404 0 1 0
508 0 2 0 18.409765950684513 1.3208828931928895 1.721179155410825 0 0 0
57 0 1 0 16.528656995574966 -1.1022098955512014 -0.6938778966860655 0 0 0
589 0 2 0 17.998600180882416 -1.7585634436329531 -0.7462592174725122 0 1 0
73 0 1 0 19.93570985958718 1.167975296775296 1.1853272147255787 -1 0 -1
517 0 2 0 16.485407026259974 -0.08634815099698301 0.5590266887680571 0 0 0
158 0 1 0 16.914127348134283 1.278162238438707 1.3393328661966883 0 0 0
474 0 2 0 20.692253271283146 2.49752492309209 0.8061437851674604 -1 0 0
635 0 2 0 -19.193950223337218 4.686443567331883 -2.745439348609022 1 -1 0
624 0 2 0 -18.19563772918132 2.864020781720594 0.3906680172944217 0 0 -1
320 0 2 0 -16.54713570316748 -8.32128892222442 -1.1762875688440566 1 1 -1
166 0 1 0 -19.96584773953959 8.271708181484684 1.4032524720561703 1 0 0
295 0 2 0 -18.99265780958333 7.895105478569942 -1.8622300492712789 1 -1 0
263 0 2 0 -16.269599539541353 6.622365035517646 2.3235400797361354 0 0 0
430 0 2 0 -18.544125821689203 8.030249183276766 0.7089842695694557 1 0 -1
172 0 1 0 -15.200413320457471 5.696689530870543 1.3631813773393784 0 0 0
642 0 2 0 -15.903424516344622 4.239858778943837 1.2108348593223415 0 0 1
32 0 1 0 -19.70965699339641 3.1349552525669893 -0.1029501434935387 0 0 0
376 0 2 0 -20.14469451901115 4.7087794845667705 -0.007329990697616751 0 0 0
573 0 2 0 -20.56468739624106 5.051937489822155 2.503877557500436 1 -1 -1
42 0 1 0 -12.10845995173637 3.0485413520187574 -0.2399138737277262 0 0 0
383 0 2 0 -14.754406023670928 6.018291328708811 -0.15910043321282252 0 0 0
391 0 2 0 -14.584874216271299 5.327168896725734 -2.704989790698713 1 0 0
617 0 2 0 -12.402613265683257 6.2371939618696715 -1.391246866596254 0 -1 0
162 0 1 0 -13.775168557215247 5.388313493356247 -1.3359391874611148 0 0 0
500 0 2 0 -13.80366022633913 6.046519608199464 2.1999461470896833 0 0 0
81 0 1 0 -9.744295233173213 4.058369596628751 1.2011358602222764 0 0 0
7 0 1 0 -11.22142809297993 7.273039272029957 -1.402645402990716 1 0 0
269 0 2 0 -11.17201470699811 4.178643691509336 0.4663430696293851 0 -1 0
422 0 2 0 -13.293118308758164 3.8887012147079645 -0.8653295601582522 0 0 -1
524 0 2 0 -9.844377946398598 6.990992552649292 -0.49094512740473295 0 0 0
657 0 2 0 -10.142263399018567 4.588087043884144 2.6945998354272884 0 -1 0
9 0 1 0 -5.292718363351851 2.970736374370718 -0.9422712984147505 0 0 0
120 0 1 0 -4.572597056028702 3.6170950210994484 1.7782314641626158 0 0 -1
429 0 2 0 -8.635867880741824 4.98676820315622 0.6076459788031521 0 0 0
318 0 2 0 -3.747490342168689 3.4004750488300566 -1.2247655243359459 0 0 -1
467 0 2 0 -7.310464880900428 7.731170131566763 -2.4346270525810842 1 0 1
629 0 2 0 -8.654980383138208 7.18390994242869 2.0886547139903673 0 0 1
100 0 1 0 -8.624205312991265 6.570567785585407 0.527241419925744 0 -1 0
205 0 1 0 -6.4555518446366715 7.934635166297788 -1.0617583337985206 0 0 0
377 0 2 0 -6.216263576139443 4.098644146651635 -1.7208635294343697 0 0 1
275 0 2 0 -4.974190194469836 7.364376134773767 -1.2029674128039112 0 -1 0
494 0 2 0 -7.187475859336315 6.985645748796976 0.013735209915484603 0 0 0
86 0 1 0 -3.433037161826217 7.478451095960271 -1.7129151308453103 0 0 1
513 0 2 0 -3.3831314731806437 4.433864702868277 0.9758812496597269 0 -1 -1
550 0 2 0 -6.156477332940549 8.097107792858967 2.658133793771695 0 -1 1
317 0 2 0 -3.326422611819197 7.769027454948123 2.0571272971157697 0 0 0
91 0 1 0 -0.013784882224111783 2.9865300670967247 -1.3920778311150697 0 0 0
250 0 2 0 -0.8199042732856903 8.14398544537827 0.9693755303970821 0 -1 0
575 0 2 0 -2.796615560415667 6.014971609775223 -1.3722057430042804 0 -1 1
18 0 1 0 -2.7808624762322047 4.54259973148752 -0.6030485551783249 0 0 0
401 0 2 0 -1.2719308304800236 3.8631925348119527 -0.6332422219159382 0 0 0
507 0 2 0 1.410622024527342 3.6947249087212484 -1.2022016774970314 0 0 0
15 0 1 0 -1.70120279067487 7.595202478320157 2.1160288153039737 0 -1 0
715 0 2 0 -1.3763141628172555 6.005767553552378 2.352425257113664 0 -1 0
653 0 2 0 8.673332728605114 7.122436465154546 -1.7998966271649346 0 -1 0
669 0 2 0 9.096397142399894 4.402233890372893 -1.2818494107262115 0 0 0
188 0 1 0 12.038594061604915 3.0123325262960563 1.3435334697937904 -1 0 0
25 0 1 0 9.435465504483304 5.71031699069788 -2.0157019726202794 0 0 1
237 0 1 0 9.728948224022744 3.034050467831543 -0.7288110017614571 0 0 0
610 0 2 0 12.828160137149727 3.1671301590574856 -2.0522270330023904 0 0 0
609 0 2 0 10.834189302368419 3.499632812777138 0.3816393602460906 0 -1 0
355 0 2 0 12.855752769344836 6.179242431827449 -0.4149801521043024 -1 -1 0
709 0 2 0 13.506873429357125 2.926393703036455 0.6401034151697278 0 0 0
189 0 1 0 14.047093472489646 6.096184491150929 0.6866627935799361 0 0 1
367 0 2 0 12.1709964315185 3.812279017947491 2.6840787642763093 0 -1 0
503 0 2 0 13.280369122344435 6.006007288341976 2.1129531863612403 0 0 0
58 0 1 0 15.019790687381356 3.3116078960279722 0.15654064739729634 0 0 0
353 0 2 0 15.082351210615219 4.926980790997083 0.48287445663110695 0 -1 0
382 0 2 0 15.02924788187283 7.55432178692768 0.6843100584859485 0 0 0
491 0 2 0 15.140761010378764 6.9454457263775105 -2.217315037122904 -1 0 0
351 0 2 0 15.531323233132394 2.8184771858398125 -1.3665145600555704 0 -1 0
238 0 1 0 16.445639261307026 3.3926746042738074 -2.6052294377993963 0 -1 0
677 0 2 0 16.78588764807309 4.917637884418397 -2.252485430041345 0 0 0
409 0 2 0 17.163328201069096 6.847621355341907 -0.459962314643926 0 -1 0
206 0 1 0 16.66691400900346 7.427471971385211 0.9682436540392398 0 0 0
268 0 2 0 16.977891830188906 6.5547722865003415 2.178512135546777 0 0 0
207 0 1 0 18.069236814744553 5.417150951934403 2.471723445626017 0 0 0
45 0 1 0 20.601038103408076 5.56986820897637 0.9875597440158632 0 0 0
654 0 2 0 20.692878542129467 7.161004993950687 0.8119250326335639 0 0 0
53 0 1 0 16.67594085546661 6.510057656378381 -1.950311295057725 -1 0 0
718 0 2 0 19.029291788509884 5.265002568313566 1.098127663482554 0 0 0
98 0 1 0 -16.87815952642524 -6.05578164691324 3.3246968361828486 0 0 -1
456 0 2 0 -18.59739531585012 -5.408849688634355 7.045053079952227 1 0 -1
637 0 2 0 -17.14463887115381 -3.8712192903436566 5.587798411051891 0 2 -1
214 0 1 0 -18.37252563997046 -4.8831939944576 5.525174844135764 1 0 -1
301 0 2 0 -17.879575045631256 -6.134414975611315 4.612770840357571 1 1 0
252 0 2 0 -15.531420973530665 -5.268267918404254 3.46430574169597 1 1 0
247 0 2 0 -19.726718570355835 -4.205153131291442 5.050456434411119 1 1 0
151 0 1 0 -16.73505162386058 -7.751973883723991 7.948864349967982 0 0 0
574 0 2 0 -15.928449434108428 -7.394553053333302 6.574234907245247 0 1 -1
457 0 2 0 -18.234399959295445 -8.317238554671347 7.7397666611811875 1 1 0
417 0 2 0 20.805843297479694 -5.853512512367338 3.5645754746902956 0 0 -1
333 0 2 0 -12.705393733581783 -3.632619094012817 -7.785229874794005 0 0 0
375 0 2 0 -13.754043852646014 -3.388775239020929 3.684130002521938 1 0 0
210 0 1 0 -10.299104559578621 -6.39632248330305 7.936056608157964 0 0 0
554 0 2 0 -12.661033465697164 -5.151862621701746 5.221075231604264 0 1 0
483 0 2 0 -10.334405603069179 -5.748228685647751 6.4887911969779335 0 1 0
701 0 2 0 -11.49796011746292 -7.524733988604196 7.865102257423244 0 0 0
651 0 2 0 -10.299566886629473 -5.645416043725882 3.7975970176467246 0 1 0
110 0 1 0 -11.15564312798663 -5.579177328504776 5.118472729235123 0 1 0
226 0 1 0 -13.032666323736429 -3.5439130355335795 5.088668627429659 0 0 -1
290 0 2 0 -13.29819721540633 -8.119124240904021 6.073385471436422 0 1 1
692 0 2 0 -9.160968181380994 -3.430217596027994 7.796188850159615 0 1 -1
56 0 1 0 -14.862669425100052 -8.127249056138336 5.730688928093084 1 1 -1
496 0 2 0 -12.879246391201775 -8.215454109668602 3.0132557434826523 0 1 0
298 0 2 0 -4.388157379086184 -6.745517771087996 2.8493680645551827 0 0 1
481 0 2 0 -8.835983632457657 -7.050584568424832 8.166546047166703 0 1 0
464 0 2 0 -8.870250455577231 -3.312984225677365 5.081885761399159 0 0 0
186 0 1 0 -8.11597179570787 -3.137319011214392 6.550277126719589 0 1 0
403 0 2 0 -6.672970300009476 -3.921630280092213 7.257148403989911 0 1 0
114 0 1 0 -4.550753348131952 -8.345104946905082 2.9258689525814336 0 1 0
194 0 1 0 1.8428566174410186 -3.277701136606776 2.954712708789879 0 0 1
251 0 2 0 0.0038171930328765313 -6.074629320864507 7.9616652091573545 0 1 0
567 0 2 0 -1.8288476407200314 -3.6091765294550093 4.535513277759229 0 1 0
146 0 1 0 0.21181957099549464 8.386891023354416 4.458152016417992 0 0 0
277 0 2 0 0.25662686756786357 -2.8149529136968985 3.115630309801114 0 0 0
717 0 2 0 1.9133706008968652 -4.934160854497892 2.8675017287947266 0 0 -1
560 0 2 0 0.610365472844169 -3.6843362528235035 5.6414148831129864 0 -1 -1
431 0 2 0 1.4812902385560456 -7.474172636217885 4.091943278366717 0 0 -1
169 0 1 0 2.224779848847575 -3.85626535638845 5.789769847743253 0 -1 -1
130 0 1 0 2.4459227209107475 -6.13443067632343 3.830776750645077 0 0 -1
518 0 2 0 2.657707762067062 -5.317204970449919 5.269152517907161 0 0 -1
662 0 2 0 2.5795031668452992 -2.9909512900005133 4.390617558540237 0 0 0
535 0 2 0 2.714336227119894 -3.2898139973938045 7.26876367376712 0 0 -1
490 0 2 0 -1.0585684508597986 8.270744161524899 3.5550897090357374 0 -1 0
218 0 1 0 -0.4471625571642406 -2.9276981191451217 4.6321322548518555 0 0 -1
286 0 2 0 3.94183380020905 -6.426677646284022 3.125037375020666 0 0 0
649 0 2 0 12.633276908092885 -8.251111469116474 8.354140248671433 0 0 -1
613 0 2 0 14.204723049985464 -4.534854277392067 3.1574934045389202 -1 0 -1
93 0 1 0 14.193275276543265 -7.4708629732019 3.557698931271606 0 1 0
308 0 2 0 14.258493537495983 -6.9352034573130785 6.918577895987186 0 0 0
246 0 2 0 13.089478558088746 -7.005765812417389 4.594295744544841 -1 0 0
471 0 2 0 13.613533484606467 -4.703842944357851 5.687860067469959 0 1 1
719 0 2 0 11.851650948078952 -6.299671585050779 7.03090697190556 0 1 0
55 0 1 0 13.137742541315237 -6.1709742861277945 6.045800447462021 -1 0 -1
22 0 1 0 13.788938408284526 -3.6896707150325323 4.467913305821003 0 0 -1
111 0 1 0 14.019796958214823 -8.351351725654272 7.583225767421569 0 1 0
373 0 2 0 15.506055735218762 -6.579844548852836 3.9319537233608592 0 0 0
54 0 1 0 15.693940653746619 -5.151730583927367 3.0038809988831243 0 0 0
384 0 2 0 17.438768477614065 -5.990615226462551 5.815283730465731 0 0 0
17 0 1 0 16.93051247540779 -6.969646962870409 4.721004814431835 0 0 0
622 0 2 0 19.80515135957423 -5.124488885481478 5.976711946439394 -1 0 -1
105 0 1 0 18.660430148270333 -5.798523419325757 6.853614481026964 -1 0 -1
618 0 2 0 19.261492154622882 -7.309278738249258 7.130068092755435 0 0 -1
488 0 2 0 17.946662656041827 -6.992755499882757 3.406495784498219 0 1 -1
249 0 2 0 18.143478114692638 -4.972363688613433 8.149420233542157 0 0 0
505 0 2 0 19.494009536417177 -3.8005617013315316 3.6729457629105777 -1 0 0
140 0 1 0 20.46292855418923 -4.72493376902943 4.6150804189354275 -1 0 -1
463 0 2 0 16.708065849195226 -4.237200758689593 3.8146952811844486 0 -1 0
289 0 2 0 16.444826537475638 -8.30737075608992 5.429860392959471 0 1 0
656 0 2 0 17.532555983107034 -2.8869519012176514 6.014758059227109 -1 0 -1
208 0 1 0 16.684544033453403 -2.8636298811655223 4.608174464310805 0 0 0
357 0 2 0 -18.262224391257117 -2.8613952229673103 3.2007761245967057 0 0 0
61 0 1 0 20.8371753710649 -1.5268780576232093 8.366412632456422 0 0 0
702 0 2 0 -19.008479669047667 -0.4228503038469169 3.933583758790874 1 0 0
436 0 2 0 -18.452988917145593 2.4444068625925937 8.137472878549884 1 0 0
348 0 2 0 -16.784924716417013 -1.0322315690406558 4.9991851189926635 0 0 0
694 0 2 0 -15.444080849448689 1.2568284640213019 4.484437438134682 0 0 0
544 0 2 0 -17.46092056685439 1.2556758603485108 6.072425951164391 0 -1 0
212 0 1 0 -17.739539421107104 -1.4263748953418034 3.7444306017850817 0 0 0
29 0 1 0 -16.227142535229007 0.3479071887777909 5.5836858808954535 1 0 -1
576 0 2 0 -19.796753515685477 -1.4910539530321456 7.159847194541342 0 0 0
4 0 1 0 -17.838799704104538 2.6967657460902785 6.730741187402286 1 1 -1
12 0 1 0 -20.584059819543373 -0.17159842323211194 3.6822524513382486 0 0 0
586 0 2 0 -14.954372672804912 -0.11139034612225984 6.514345055422147 0 0 0
621 0 2 0 -11.462087754918377 -3.0154448602408195 5.025653094401928 0 1 0
324 0 2 0 -13.79810786271481 -2.688097949286897 6.167471430474238 0 1 0
142 0 1 0 -14.483792191649446 2.5670584525710503 4.359221251213993 0 1 0
128 0 1 0 -14.110059219702137 -1.3791766228249243 7.109084111465144 1 0 -1
687 0 2 0 -13.88588832383215 2.869310764507583 5.808404178475175 0 0 0
626 0 2 0 -10.113760180779282 -0.00025165383770975325 8.01056466515738 0 0 0
215 0 1 0 -11.633358415549006 0.5005116781503993 7.8670515100381255 0 0 -1
323 0 2 0 -12.694318599864822 -0.7189349585747014 7.668095902804778 0 1 -1
362 0 2 0 -13.400814878381782 2.379750702806872 3.2429883050869748 0 1 1
240 0 1 0 -10.142237265712263 -2.5795185788684094 4.263633953723687 1 1 0
118 0 1 0 -9.816227406914184 0.3236998680618406 3.42842987101824 0 0 0
700 0 2 0 -10.096928099869046 -0.9983979972692278 4.245932367927811 0 1 0
708 0 2 0 -11.576842280765021 1.6309156525631767 6.67199556373718 0 0 -1
415 0 2 0 -9.00936823736402 1.2703132552589302 4.495301912316757 0 0 1
90 0 1 0 -4.068094919795641 -2.5236218009076685 2.7763265405445576 0 0 0
603 0 2 0 -4.700127076823652 1.786527437856913 8.174991783256507 0 0 -1
468 0 2 0 -7.394894783560714 0.387143492758776 8.022599772316104 0 0 -1
133 0 1 0 -8.26763013388986 2.447466800737349 5.272769112759143 0 0 0
369 0 2 0 -6.672178494445015 2.1565774029063345 5.322816203373472 0 0 0
366 0 2 0 -7.6259290551284025 -1.6401964465924452 6.433393923504722 0 0 -1
176 0 1 0 -6.578011915974237 -0.7811970234318419 7.276497706660205 0 1 0
182 0 1 0 -4.24929994676711 -0.5063499224758354 5.079709787680262 0 0 0
371 0 2 0 -4.39653718529782 -1.82766443609892 4.203419962434809 1 0 0
703 0 2 0 -5.305461171355509 -0.49373605820071287 6.312937686285778 0 0 0
390 0 2 0 -4.704317137969188 0.8031732978784678 4.27251869809894 0 0 -1
213 0 1 0 -5.206637716482524 2.3547805147903116 4.665703018993918 0 0 0
426 0 2 0 -4.184033453791663 2.850751969281289 5.74846557499869 0 -1 0
663 0 2 0 1.2130900721529976 -1.466770966827485 8.348337877107662 0 -1 -1
526 0 2 0 -2.728434298918387 -0.3064407529240363 5.662110127818421 0 1 0
661 0 2 0 -0.4381385718059789 -1.45118345598378 5.139109951958957 0 0 -1
143 0 1 0 -1.1460942636693474 -0.1184207131487458 5.608798359034408 0 -1 -1
452 0 2 0 -0.8909982671428445 1.1108643261461424 4.535727286624333 0 0 0
572 0 2 0 -0.45297477206359815 0.21460366793451868 7.0751695336516445 0 0 -1
229 0 1 0 -1.0984445304750174 1.5980751128414301 2.98318644215375 0 0 0
615 0 2 0 8.703060780249118 2.3810598774105767 5.210295097137964 0 0 0
273 0 2 0 12.440926711674553 -2.898689311656054 4.23768211203625 0 0 0
665 0 2 0 14.367883417340938 -1.8206838075386775 7.960487258820203 0 0 0
561 0 2 0 13.2630492836993 -0.5822435266085408 3.7368015727644757 0 0 0
478 0 2 0 10.716593544401242 -1.1192647487419274 3.363020015634028 0 0 0
691 0 2 0 11.754368920571626 -0.8407037432766487 5.825896447399652 -1 -1 -1
175 0 1 0 14.59088567719559 1.9422068120396556 7.155391401834111 0 -1 0
203 0 1 0 11.999180024727561 -1.4002829992291579 4.370958777789879 0 0 0
495 0 2 0 13.029138525564317 1.9073914249859953 7.489106512614674 0 0 0
171 0 1 0 11.856731059334468 2.8934041870089064 8.06323116810747 0 0 -1
342 0 2 0 15.000344201358313 1.7501959928798971 5.596471418802826 -1 0 -1
280 0 2 0 15.59515975168954 0.34128707887245646 3.3008738793132775 0 0 -1
244 0 2 0 15.208005023221805 0.6658406637671632 7.908419809917332 -1 0 -1
239 0 1 0 19.134574560676565 -2.387415744985865 3.0098022345450914 0 1 0
187 0 1 0 15.527090144089382 -0.8062714655389707 7.364092231635238 0 0 -1
506 0 2 0 15.074830212636474 -2.7467804858745026 4.745876867802016 0 0 -1
407 0 2 0 15.853458714120048 -0.524656153371744 5.805863978231093 -1 0 -1
714 0 2 0 19.50239215092687 -2.3133881217529657 7.8834147360180165 -1 0 0
296 0 2 0 20.338264868700673 -1.5733008274102902 3.6999089448369507 -1 0 0
712 0 2 0 16.923958233898677 -1.3603634361637669 7.935202870655358 0 0 -1
50 0 1 0 18.185171643569863 -1.854792494690261 7.087241597614952 0 0 -1
339 0 2 0 20.231577993551692 0.7936478802093205 4.616976583888805 0 0 -1
185 0 1 0 18.90623307683396 0.8865123322165189 5.5640479487615 0 0 -1
716 0 2 0 19.29777389448184 2.0569016172078474 6.684710992635084 0 -1 -1
605 0 2 0 18.778510518336073 -0.5285933425479534 6.3262328328780075 -1 0 -1
389 0 2 0 17.491292977883393 1.2110711656375024 4.856283713279177 0 0 0
248 0 2 0 17.645359307775852 -1.9026242091818926 3.5817267683807437 0 0 0
125 0 1 0 15.964758547993366 0.7325390664251721 4.801098897809387 0 0 0
321 0 2 0 -20.48652427025814 -8.39715346708868 5.574728859708854 0 1 0
590 0 2 0 -20.068572874182127 7.970054519491203 2.9743387308792197 1 0 0
442 0 2 0 -17.87393741375868 3.182779607665406 3.1617941365817313 0 -1 0
119 0 1 0 -16.866455020926534 4.208657249257184 3.7414169166434643 0 0 0
236 0 1 0 -19.565517099515827 7.672828612358263 4.4653088169326836 0 0 0
154 0 1 0 -16.52703714478974 7.728187575720536 3.4579202337125903 0 0 0
124 0 1 0 -15.183726351516919 4.07959772706584 7.712730519748122 0 0 0
332 0 2 0 -15.366011195964049 3.834680169420542 3.9435839902742753 0 0 -1
606 0 2 0 -15.22894577536578 7.852042058971239 4.492619493476731 0 -1 0
326 0 2 0 -16.457102559685467 3.5280246911689233 6.835780440636146 1 0 0
578 0 2 0 -18.865009209213632 3.673881676220045 5.95933798174581 0 -1 -1
178 0 1 0 -18.702550735071167 5.240958725084491 5.730795254826482 0 0 0
565 0 2 0 -19.89491252375605 6.022699054297089 4.846021967326934 1 0 0
497 0 2 0 -17.982651207764018 7.771406279204456 4.378647855016066 1 0 0
26 0 1 0 -19.19022720718831 7.253242382913182 8.168690185167646 1 -1 -1
525 0 2 0 -17.403515643398315 5.285666345494111 4.739160244878525 1 0 0
548 0 2 0 -18.62276003841209 6.074768050954786 7.187123127444924 0 0 0
363 0 2 0 -20.800956158502306 7.527004468517909 7.988163094100484 1 0 -1
270 0 2 0 -9.220750923257636 2.8395970368717247 6.590023278077725 0 0 0
664 0 2 0 -14.141527344458956 5.254443495438574 7.205359734716184 0 0 0
177 0 1 0 -10.854307413718244 3.075894929486214 6.526642449303285 1 0 -1
259 0 2 0 -12.692933071408484 6.361649206096477 4.575686339696752 0 0 -1
152 0 1 0 -13.188481503630275 7.026208146699222 3.2827548448146118 1 -1 0
121 0 1 0 -12.612428843046711 5.327348252710625 7.804651692010795 0 -1 -1
434 0 2 0 -11.965668167671653 6.791098986439188 7.427732227867642 0 0 0
300 0 2 0 -10.895850712740762 3.8049289128534234 5.075611911161118 0 0 0
448 0 2 0 -10.647127407876859 8.24099305076961 5.686577903478849 0 -1 0
304 0 2 0 -11.641049056610129 4.062883577682712 7.53152526586519 0 0 -1
302 0 2 0 -9.449664275312104 6.016484322646338 4.941777768521202 0 -1 0
159 0 1 0 -11.904600956315454 8.198499694813357 6.716775872209043 0 -1 0
39 0 1 0 -9.825798714331231 4.641355397971655 4.269732669872571 0 0 0
34 0 1 0 -9.185816686555027 7.46716457292284 5.608815822391156 0 0 0
6 0 1 0 -7.780535451906898 8.263597596716437 2.9875307503064565 0 -1 0
88 0 1 0 -3.9783473534486724 2.9687523168849665 7.3690193184932955 0 0 0
307 0 2 0 -5.04319426459964 3.2289046309105185 3.229546819798008 0 0 0
636 0 2 0 -8.537667279803106 7.437093938863004 7.061761243674482 0 -1 -1
303 0 2 0 -8.422972745236704 3.796011175369742 4.407200777098442 0 0 -1
262 0 2 0 -8.188640761883732 8.225765639825486 4.575007743493346 0 -1 0
555 0 2 0 -4.832997092712926 4.219440953072358 8.030098822574606 0 -1 0
330 0 2 0 -5.258308752833532 5.762448102950781 5.495300900720782 0 -1 0
156 0 1 0 -3.8363811713092737 6.36748092867683 4.9882108342267895 0 -1 0
499 0 2 0 -4.1693991679434035 7.809359364794613 4.343348556610543 0 -1 0
616 0 2 0 -3.1673292074799413 5.238606901093428 3.986873725714931 0 -1 0
680 0 2 0 -2.4863607133596304 6.566826289662119 6.000428236671832 0 -1 0
579 0 2 0 -2.3330912078910373 3.1943730899890106 7.76854345096678 0 0 0
551 0 2 0 -0.7310473834855564 5.3644101478133805 7.490455480094166 0 0 -1
449 0 2 0 0.007053267416196718 7.3642562535475555 5.683964849752341 0 -1 0
522 0 2 0 -0.7326227668469656 5.095265530468989 4.766787494252696 0 -1 -1
123 0 1 0 -1.6733057540241667 4.821152487091403 3.4366215901160917 0 0 0
678 0 2 0 -1.383714708338573 3.2644949792274733 2.9553830796388247 0 0 0
141 0 1 0 -0.959225266949467 6.072073274359747 6.060674128136245 0 0 0
117 0 1 0 7.909967877298584 2.996310209453224 3.777800311063155 0 -1 0
460 0 2 0 6.723745148067032 3.737168820878166 4.44665882644216 0 0 0
462 0 2 0 8.125809546978441 3.255077990951243 7.672221307932885 -1 -1 -1
612 0 2 0 9.032687149913205 4.0872533247588585 3.3091266538982644 0 0 0
593 0 2 0 10.63095314064173 3.03213139745902 7.032140987478092 0 -1 0
580 0 2 0 9.379165022888984 4.855832655629225 5.737864874076534 0 0 -1
94 0 1 0 9.159628429761057 3.3832651929887927 6.45029506841729 0 -1 0
556 0 2 0 11.172740427573185 5.767325385294972 3.8841690764731442 0 0 -1
79 0 1 0 12.660831435247214 5.221898165192037 3.3613767658116647 0 0 -1
222 0 1 0 9.846136169746107 5.047818774513356 4.259823958813454 0 -1 0
396 0 2 0 14.726517200225356 7.893146311946989 3.831334018440904 0 -1 0
645 0 2 0 14.316638670506887 7.4557990612245035 6.396940325952036 -1 -1 -1
408 0 2 0 13.619668097180597 5.049882129199744 4.579121906525602 0 -1 0
343 0 2 0 15.118001652204594 3.337628628164378 7.767061597664123 0 0 -1
165 0 1 0 15.375313768606336 7.295669238253893 5.205108959547621 0 -1 0
335 0 2 0 17.548577337549087 3.9713171045414697 2.9300727097940875 -1 0 -1
153 0 1 0 20.03754051024958 8.166522120039446 6.706301540179474 0 0 0
571 0 2 0 20.07697558227417 3.9415016860961494 4.841631087425085 0 0 0
711 0 2 0 17.18419819445536 6.637381864856994 7.851090254184788 -1 -1 0
325 0 2 0 20.491781006260293 4.3495684533602645 7.333085676557934 0 0 0
512 0 2 0 18.18330377886934 4.47990000656478 6.500982575676311 0 -1 0
223 0 1 0 20.5526483290024 5.225255126748435 3.954806946129761 0 0 0
232 0 1 0 19.51575403144015 3.6659930259651823 6.314947509992729 0 0 -1
358 0 2 0 19.151705213193427 5.994977484991075 3.5332731815529215 -1 0 0
257 0 2 0 16.397547821488093 6.102833581696519 5.412944520007654 0 0 -1
313 0 2 0 19.00060655013821 7.054309355260395 6.093569498763555 -1 0 -1
68 0 1 0 17.661265228215964 6.072125067228743 6.399290658628852 0 0 0

Velocities

585 1.3841689043867085 0.09046437841546198 0.24874096843036445
634 -1.1332400942157401 -0.7503534718844697 8.680401264369854
485 11.663120297349804 5.286486578758668 0.3217332200359565
681 1.0651748930859208 -4.085631593684221 9.940866237275143
190 9.648721827720413 -4.107985904829892 -5.840410268071691
566 2.5217821497609587 2.1633587613596013 -3.780469441399025
509 2.3710370987981335 -6.332431258451748 0.6101251601961714
596 6.418934341795432 3.7876582648973427 -3.033709266601123
147 -1.3865440101892705 -3.030634842941277 2.460129041388135
327 -3.2992621818561805 7.092338729113709 -6.012748402699657
472 -3.447422640232124 -3.3807989764186477 4.288239573945089
527 -0.3335655553266976 -0.26356662285804433 -1.4305721183374058
539 -6.324553964524467 1.9834932557167155 2.5916440243182195
27 1.6362080578832507 3.200067717397261 1.3316487138591722
283 1.2170829278877275 4.408282627820074 -3.245619976130391
135 0.7054667604720779 -2.2853707249298245 -2.0873944879829267
80 3.074628046305207 -0.872321324654207 -3.9531258857081712
314 3.6363999107782305 0.6545662087678172 -3.40926079996175
170 -2.7769262016822145 -7.272278845658043 -1.1013132965151524
388 1.9754503321372163 2.360494219776812 -1.3188108461459267
476 3.540482220764409 -0.30583059491091985 -2.332182107742949
66 -3.2859812563190487 0.3050391762565749 0.8969367448927561
470 2.26540215040584 -3.0704761179146782 0.3409274604113419
386 1.2034241464961586 0.6734390182069344 -8.108914088209085
74 3.839303538310806 4.971503528247556 -6.366951645050842
533 -7.69780631776979 -4.8626444533841005 -1.7042905266866062
416 -0.252570592979154 3.2383213537947806 3.883884286716336
82 4.806543656892027 0.11473782626969578 2.8860997159194155
625 3.1470614463876605 -4.815384622333445 -2.253715731890704
279 -4.518737256974207 3.713656197453145 2.508629581930749
446 -1.1093968985941132 2.679711157298649 3.1688514526935303
359 -6.918698022837468 0.8386180069437725 6.301535427689418
2 -1.2555375992900688 0.521611897027014 3.4224092023813646
577 -0.9344367238067601 7.782756439952427 -5.0995977188143975
293 -0.3193204089278971 1.6099769685460614 -3.9970809110394008
89 -1.5008714704456454 1.7559342134028035 3.7297842707299194
595 1.1573959099846407 2.2600701404731924 5.552200415932231
113 -4.479800177801045 -2.2606286488981238 1.049238058546628
545 3.6378231746268064 -1.8803897912603735 -2.0579285013578823
477 -5.7196058553029525 10.739950221730831 -6.303540586426661
16 -0.8908336809754407 -0.21136047433517818 -0.40347112857593587
432 -0.1257726217209879 -0.8483260850440777 6.350451959715489
211 -1.1615751561384893 -1.8256395767477935 4.488559555553024
274 0.6725408359983959 6.884357121584874 5.173965265383056
674 -3.0365239876481613 -0.15135012833304373 -6.299543649718631
148 3.1713199073586296 -4.252136605440176 -3.167355389528129
33 0.11870255638030824 -1.3398323575867308 -1.7706172786192136
352 0.6309881680774047 1.8131561400554128 6.6194936944364615
402 -5.64967915738001 4.109007629388073 -4.65069822156754
311 7.34291712398639 -0.8362676470236226 6.354618883861211
394 4.522008789325577 -0.3430274192786873 -4.2451056912166685
109 -3.386993904237837 -2.093184715056628 -1.905186780284136
628 -9.654951523838054 -1.8602794375017737 9.52411307645374
161 -2.753345183850998 -2.325450558785787 -0.6754056978228932
519 -1.79770112269512 -5.031142569844928 -1.5818784694118135
482 -0.9484086193646406 -4.628074869040829 -0.46064741689494243
704 -7.603778583970457 -5.031875349973146 5.072437185360546
546 -5.782496964470479 0.31612417710905305 2.2617478396074127
69 -4.34863624546176 0.605958297562371 3.825217093758309
493 -0.14503425182603386 0.5233485788097174 -5.850921249689218
67 2.228952950716519 -2.248402124391834 -1.9992664030733178
144 -3.4262321044676494 3.622969803904126 4.143361150303826
647 1.1898649232411362 0.8075050369483966 -1.0467230006561832
364 -1.5194894663012646 1.8869767896168257 1.2375459164905735
520 0.7513105604197468 0.21574035254185836 -2.486487959521143
604 -0.38041093467742876 -0.4812817245295822 4.458274833509182
582 1.867528683975239 -8.344522349471646 7.19707948573408
406 -1.3419935596385684 0.3251921532892498 8.043136608842037
155 -2.2898653154890174 1.8112083842382134 0.752703087012463
607 -1.6588250923071053 0.173790799731929 6.990110155595873
60 -1.542056498013285 -4.27437909904058 -2.4512580814357334
126 1.6169792757032129 -2.3040137185997893 -2.9266621835979496
288 -3.36922087286211 -3.5614401071809474 -3.247816782981695
231 -1.8601791934896605 0.8346031512924079 -2.288786041222015
531 6.1920001017034085 -2.2612038959964798 -1.2082969479102523
272 10.811731047258775 -0.5146543802063901 9.298100394026113
666 1.1091370020392772 -4.397865962588585 3.6668283135199116
354 -1.9392569122829313 -6.8676469544108345 -2.355746735371173
334 1.2074074468768785 -3.207213857841577 -2.3504988372750675
95 -1.3326895509609047 -1.8581048942635159 -1.0896334009003106
588 -2.1490310079899824 -0.18717714545103606 -2.854380086375237
92 -5.1461007134261125 -2.29119693240216 1.9421332254656845
563 -1.3562656266148487 -7.334654256963314 3.568610495614062
641 -5.678279922769869 -4.25547787391829 -7.737826938838615
195 -0.9422964098619311 -5.592975085029956 -0.947829551192933
549 0.07422305522433155 -2.9188413519435423 1.4036452891521205
587 4.012483448488299 8.498093981684177 3.7224050212634507
381 -1.923162644389568 -4.974368823746989 -4.279801038900015
157 -2.7321350353925435 -1.0492331524872338 0.5750334360369412
260 3.449266084206108 -1.2157780265618219 -1.2116774021333088
163 3.565131325742958 2.752436255496815 -3.026298991530648
338 -2.8122261879376476 -2.3448737400866233 3.400079854834946
418 3.8656573025243204 -1.0898237637910897 6.0149925469182595
611 -1.9616951121169508 -5.66243741618608 -4.3639222357758225
699 2.9414396021700258 -2.6140602860763136 -2.729769566400169
115 2.598175916814785 -1.3232226050580218 6.107649156936122
197 -0.5330222339281112 3.6378049639663046 -0.9984002415464128
529 2.208382075754768 -0.20569358526399661 7.2823401549708935
31 3.968729916377609 2.7931603791696387 1.2635352742196582
297 -7.376022380864385 -0.0678873340480856 -1.6323918568023745
644 -1.9974582779053538 -5.822766103989522 2.937543823551728
173 6.223272070632177 1.30068583934859 3.3957430237122814
627 -2.391505648974769 4.2933843264173674 -0.04067446160326547
276 -2.8932107254256874 2.629200263875608 1.230649696000858
346 -3.150008653602458 -3.834463951356541 -2.786383243980593
372 1.3458253699330898 5.465640573959932 0.13656788591584063
310 -5.7818266435439805 5.17410367893509 -2.0437981007160513
36 5.17300807297785 -4.108337615447506 1.2031495496949345
234 4.021695652274727 -2.568955876313047 -1.370242239209505
405 3.4953901751908036 -6.0095842733707405 -1.1080691186983973
245 -0.4554728424277747 5.841591480205895 8.439919742708222
511 0.3187503569278874 -1.8137544656438158 -8.077026785768359
137 -0.39583386118705544 0.10728672306371934 0.14408338568247606
668 -4.224931519622421 5.042344912370597 0.740072193548102
690 1.9570908067978567 1.3692001580408564 -1.3711723911470033
43 6.109333555985837 1.6465600828772704 -5.5042194388971435
710 -3.190242890901417 0.6283710211625245 -2.313373705641202
685 1.8724296951944472 -0.041142054867454314 0.0026782279669051575
673 8.196742854419504 4.2391583292938115 -1.275664122598977
77 -0.6323172615995892 -0.841158558699207 1.5689540446847505
319 6.875099977688117 -7.152965608940455 4.276016752789977
411 0.5314293919667156 -0.42165455206340763 0.16320254808334927
49 -0.41043504922374047 -0.6113634388517342 5.120561143830609
420 0.08626736360808111 -0.4560358336536214 -0.6658599092463212
230 -2.882920239046108 8.558480365497857 1.1086131516097217
216 -4.547932922481967 -1.8044247960811832 1.7713672361299049
655 0.6666126603274684 -2.19368675877268 0.8007983760925281
392 2.7621570062845113 7.157564942527206 1.884440030087877
514 9.485261637093691 5.655906320389955 -0.4786683206058433
501 0.592076255693635 -5.142232024707208 -1.4296004214110591
705 1.7750736508621385 5.271988804253689 2.645409200877964
309 3.1020379499132362 6.264996080572811 -0.5661858979317955
684 -0.14675443041801273 3.561320050328985 10.354313744399303
559 -1.8009523522526265 2.2885692363503862 5.052428072967901
225 0.5796079869078611 4.387550950365952 2.855284498001891
116 -2.715071610870598 -1.8127361490564313 -4.413063189999138
47 5.313487149473615 3.5144084995844636 -2.4710722882822913
349 -4.075726832447889 -3.114252958777653 5.171418486671493
557 -1.6382272902126354 2.2459822463526726 -2.70260198558057
253 5.731734615867866 2.3708484325795833 -2.9733847423573607
14 -0.30757036609170413 1.5473386292788969 -2.0018665998272676
498 0.06849278442172968 0.8288390465108533 -5.401698949347566
410 -0.35183685785728097 -3.022127113101372 -1.726834888234269
107 -0.9274776564493276 -0.2754196389327275 -2.1455408173743247
108 -3.3378047358962073 2.310134811306643 -0.8601196275597032
97 0.3847532514928326 -2.4311751009834324 -3.0015106739014183
428 -1.4712812604761973 -2.635827749891506 -1.195205826912761
361 -1.6842395419775713 2.3866233073507064 -1.0529645478239027
425 -3.7859114097085174 3.147987192143425 -2.197183707347024
601 -1.2207349802122984 -3.3886558307088928 -3.586037710048203
648 -5.11560202609145 3.0895190099308563 -2.4494541100136806
200 -4.152888665912747 -4.017851689452193 -1.8985672975041352
541 0.27453545355797754 -0.7767923273065848 -3.7346802607854372
465 2.6551023886307403 3.0679393630453364 0.9253471240809575
217 -3.4281006868272383 2.8234632864015206 -2.541156508927761
71 -0.9770652589600036 0.9477820104847069 -1.022670010630882
542 -3.2087645778962504 -0.17517532450421563 -0.01696698932431583
515 -2.6497884577452813 2.2573409470267407 3.6448911518348295
103 2.7555913338538303 3.085316225598683 3.855723539715985
569 3.0504949916847295 2.554856040678882 1.6324742888712345
458 0.30746247960870676 6.899297393914719 -2.3574133970902453
570 -3.5668438425366076 2.0121244059499865 -2.054060087120894
59 4.8539038969761625 4.388170199195134 2.358459438341692
480 -3.689472683265489 -1.1788973318230214 -2.7685295088504107
584 3.5257481040033603 -0.24488328229280001 -2.589222200892347
399 -5.475895482063982 -4.537954809212419 -2.7256330319197843
424 2.0782020480154717 -4.506120418683155 0.15930221302610648
38 6.5032644150213486 0.8087413178282856 -3.0367511747775593
209 -3.9936047131119734 -2.531160607113222 0.25620252987744835
256 -0.534235522099596 -1.5230500445153536 -3.4226552853442556
553 -3.7016458726135193 3.1530628397511666 3.3328969805642394
698 0.12732202943732135 -1.22709734551412 0.10343044902030507
676 -2.8450396512816196 -5.93710529715466 -5.06825365280534
196 -4.039843113553374 -1.3711871378132303 -0.33830685730643356
461 -3.255058038143725 -1.3390219213681558 -0.04919892081278714
387 -3.7916732489345435 -0.555416817745224 -1.4038324434009868
568 3.0687521951754957 -3.1852934176126664 7.0710503424423985
254 0.6497709282578134 -10.45542606581987 -0.9586794762499422
122 1.5074109024613576 -4.696134339649603 1.5787638230327785
21 -0.8183873980720465 -2.9360940728777494 -4.042256248860542
679 0.2301663351931051 0.8845260865623228 -5.93667501865177
469 11.217106739595428 2.8730075132324453 -3.4925126357296525
76 2.711344422343528 2.1777754164615666 1.6472061504994584
453 0.026528802124877682 2.323434045216942 1.8609042205343553
378 -0.6046904901289709 1.9683907554792128 0.8763209703641123
28 -1.6569829088514039 -2.32335715117332 0.5760926171166766
287 4.108044803475184 2.399121642606082 9.734412785499062
337 -1.2163898821800092 -0.8146001306244559 3.488801339047061
412 -0.5365319282501361 4.629270290113975 -8.182661988862098
35 2.7106763904829614 9.367346057341544 -0.2103474756810572
219 -1.1900163269448405 -2.6568596879624296 -2.659895557644216
345 0.21747324970344123 2.2158334555163064 1.6986959077793422
241 8.384638096755477 0.34130861684887576 -2.942895130527574
675 3.592391663295791 -4.10120219713151 2.991039508263091
447 0.8041430654834675 -6.386120532291197 5.384892041981032
368 7.130129612969451 0.7505363404082489 -4.801593889186074
204 -2.5195584430890916 -0.05309086894274002 -0.3116865019528114
267 -1.240965300431123 -0.8754774128153511 4.045229669155703
224 -3.878442493652789 -0.4817671324798588 2.47995743497979
672 -0.7310715431028089 -3.9862237299888297 1.4168609183071321
475 -0.4987450863604516 4.973432097347886 -4.429120563823833
400 -0.7638834528670468 0.4447169157930017 -0.8857473129341529
414 5.764721196213763 3.087725887652254 3.4094684509849866
193 0.8596927958579668 1.834369530310393 -2.098174803271774
370 -10.378989393228778 5.229894123830519 -3.2284663444196764
132 -0.14256930005071844 2.561121896169998 -5.760440273774538
258 -4.44836988045086 5.055279599313305 2.9279243111339857
510 1.401244188642005 -3.114265812061163 -9.061183277657822
670 8.860889585760757 -3.009091834650077 -0.4420739010172002
291 6.713231491519258 -0.5068920422911355 -3.6321273908409424
278 5.675824078180717 -1.844316803829138 -2.9263223473104047
87 -2.363751240839141 -1.6186333908724906 0.7112254124583688
184 -0.7770867599225523 2.9195478326903683 -4.564927653663053
227 -1.8385968703592863 -1.3450494457665543 -5.737024862791809
282 2.2939152658260342 0.6234765643503549 -0.13776205793179078
145 -1.4792097505755804 2.225916552493326 -1.8027780144010677
72 1.4446605708521614 1.3937124905241725 8.737538008005549
688 1.9693677961128508 -3.229543947872721 0.8587083397232886
640 -1.9729204096607806 -5.605016441956755 0.07508879655569743
614 5.027582209380961 9.397065432629827 -8.57980806203685
136 1.916186509401616 2.5772265779829264 -0.1764438863092389
443 2.0893136391030227 -5.464128998520068 -0.48954491946953554
179 -5.655373241165766 2.9417361612933512 6.45422001952162
11 0.3426565135759292 -1.1030897877578416 0.5329753804010731
427 4.167705528269095 1.7483732830710024 -4.453677502760116
5 -1.7295451045286065 0.7618324572831169 1.133441977693531
597 4.416796508009671 3.5925434276216066 1.8940713484199203
78 1.8478625436625904 -3.1758371028077477 -2.742295190895092
63 -1.3146131257156395 -1.9639076094254244 0.16651030328021518
623 13.744350335867995 0.8836797186341374 -4.485928096238008
328 -0.07367037415149413 -1.3054090656540311 -6.862813476908942
435 -1.70656337847643 -2.3313031432243965 1.8152109367546991
583 0.1961191157639957 1.1202743318170716 0.160223546718655
191 -1.4407955835658672 2.8515141561214294 -4.273103780964613
341 5.456378898104337 3.3208811261327895 -3.2220344677977653
451 0.11920971174298194 -3.1367388715856905 -1.6127842042601819
83 3.6508258947355916 2.9713221839761617 2.837014336405773
693 2.7472115856051227 -4.350602666468597 2.27147703401396
10 3.5410001315428983 -1.365733204540231 0.7804977105956332
547 -3.157784602231559 -7.470057334608538 -1.8179020116081672
350 -1.5093743266474628 -3.005641677071587 3.26360701614705
347 10.668650218540453 -0.9489501823850768 3.8758645912237006
433 -6.42944710307933 3.102763391144823 -2.3876360348051713
374 -1.9352468453697749 4.216410256016172 2.801870815222868
594 7.2236622946026525 1.3902833062451112 3.768823253684202
438 -1.4105458539780775 2.4959421585610366 3.728747814989747
99 3.7752157616703976 1.3172884220858874 1.6438331258880323
51 6.672310982893921 -2.3168092792634902 -0.39495105096980454
23 1.2242459903206762 -4.7638432742538 0.2711266758197464
1 -0.4017306104609227 0.26920636370494466 -1.5374956494100553
340 5.945064896039019 -2.3839641265210454 1.582189776538749
619 1.9437093655038802 4.686062276571364 -4.000532129301935
528 4.88315488518927 -1.3804796173476641 5.078637759979756
284 3.190763008677539 -2.542450567782452 -2.5274589457056518
134 3.2041287303530246 1.7226614611945077 -5.16747842531403
336 0.18883419351181635 -6.205229427596292 -10.762070096923487
8 4.052266019975255 2.6893496566711685 -2.238991849343622
521 1.646425836611021 -6.223193432734627 -4.885229458163158
85 1.3406371554402547 -0.7869413618172736 -1.4813001732307969
562 -1.0309654391751963 0.7236322637704813 3.6461784507893436
492 -5.450823183990908 2.4540308065031446 -1.415165367887911
20 -3.1213569626350814 0.7938278692735591 3.313328317491334
360 3.316202555370645 -2.6441173265643756 5.382946727710822
168 -4.264061094616982 -0.5425703264022673 3.4901960848995093
299 4.308031550160562 -2.6893894534968594 -5.154545730866421
315 5.281638445108103 4.061062919241811 9.038146842427604
180 4.303278609907939 0.1348083208157439 -2.8149143645192507
380 -0.9114263956312975 2.508388622693323 -2.889515226949439
706 5.705576926123468 0.6548354347465001 10.232957676488732
30 5.287801179299082 1.2641815363045987 -0.5735051952812474
112 1.2609336092305774 -1.3240585606446622 -1.6628867053625016
552 2.057152270711627 -2.1881817270855994 -7.3805904732096685
398 0.5395817551019264 -2.9009224108204448 -5.540893232904547
543 5.223923349226172 -1.6769248220635415 -2.9933966479543517
201 -1.2972668215910648 -1.284360711422176 -3.3380148174706923
312 6.313130028372115 -3.1094341083303365 -2.8948676509939153
683 1.8735842981286854 -3.8801414897333713 -7.072750565496573
24 2.6700098820857057 2.173127570944538 2.9756248011108566
459 -3.694623978998172 4.731442293165877 -2.026119395743512
220 0.4326166464289122 0.007068472629029715 6.1648279808091475
198 -2.0932911371215392 1.1319123770741337 -4.424381692422398
3 -1.7282816738456717 1.9001228400665726 -2.6567940397623477
322 -4.0505619961520765 -4.370777547855691 -0.08018978457380797
292 -0.5176946134712707 5.313579505516399 4.586703382121989
294 -1.883249039770288 8.630112382015044 1.2899758219715107
439 -0.7124199590242598 -4.187583646485779 3.405183168233728
630 -4.185992355426615 -7.376205284486585 -3.7529161691396817
37 0.6515053723969598 1.2976804240406152 0.1704225423657099
255 6.261375687427271 -3.333622399499224 2.488021579186267
306 -1.1168017499819578 -0.306132416225779 9.339090357754356
344 2.556519915219103 0.6795581967198875 -3.3229379219371245
96 0.6540164354378984 1.3964516900728015 7.533370573854147
487 -2.5650468351531326 -5.211777132614716 0.37573992585175464
174 -4.131134916388365 1.383012444126199 -2.03648438212325
652 -7.089823506214883 -10.096596325157606 2.1469208033609397
633 -6.065777062008676 3.5203944014104334 1.0596523494191057
638 -6.465274280931161 3.0306087567245177 -3.8677257079083787
221 0.31161410840320575 -0.6003143912913121 0.6658973217266234
631 2.476760076725151 -7.549352360280396 -4.6341049650349335
600 5.643085707249203 2.2401470156918046 -4.356800082714194
104 0.2915309968102992 -1.387456470909854 1.4959245148228826
639 -0.08847611946221301 -0.5876403961268636 6.530344462744419
129 1.789277739643943 -5.786221192537144 -4.484917521976708
356 -5.544417283614115 3.9366178137411514 8.671796007025044
316 -3.302965220600724 3.3758083115514563 -1.770484504818007
713 -1.6726714935214677 -2.1044563593815533 0.9640693300563659
479 -5.475149421783545 2.7115704833420664 0.8839599821396227
84 -0.4668377764340434 1.7057844557244088 7.209629443896742
397 3.467960113071361 6.033891504491407 3.5418808331322094
164 -0.35537203479862495 0.026640771374911585 -0.07767332115626993
385 -2.4707105927353625 1.5646527850749326 0.05803356979937901
441 -1.144590168618793 1.7308828188583893 -1.1293249211554917
138 3.6735090329078255 1.9176425751970922 0.7424919345481727
473 1.5366090503323588 -1.5845532482300926 -0.49509277053776257
101 -3.5465585618852318 -0.6893960770982818 4.4326901121492455
450 -1.380168436417175 -0.14169988970505637 -2.616483481444888
52 -2.126856865135224 2.2665333065421858 0.6412005955681561
404 -2.1687804368331745 4.802663575079396 -3.9252717249048734
516 -0.5364810539204221 0.6666845457255922 -1.7957063988253528
261 -1.0611823668647655 5.298527003307451 11.495396631599798
534 -0.48359886028268523 -1.8883225780505353 -5.374585512005027
13 2.9981661260224057 2.5709362726508127 0.0677934253186814
440 2.5482441996028666 -2.762235762115278 5.028801259858686
150 -3.9384620826013568 4.2882888925344345 1.1330592301666025
271 -1.763853956210684 -2.522428312396484 2.475458621970798
697 3.1583947664168748 10.880952704911202 0.8324600325281548
437 -4.320923275018169 3.0420131773294883 10.851555767811831
305 1.7461082407155433 2.8569140201283503 -4.229116990474692
62 -0.3919132896367518 0.4777352660047457 2.084918674211626
41 -5.277866342502711 -4.706078212510935 3.3929392954810065
707 2.664052309887601 4.513803289137128 8.858667561819882
608 9.068459465609292 1.857942197159645 5.163338782882963
70 -0.5425132681311982 -4.032506300016135 0.8382558950964807
538 3.4510598041106686 -2.0890005440786124 -8.371753906736615
564 -5.276967811227573 -4.424280831613123 2.2118043843808466
183 7.549837523385906 -3.2009862576631463 1.8884727098511116
243 -0.11154901805984593 -3.000181420586914 7.984199643454874
160 -1.4214418341082111 -3.222359536385821 1.2436733552945407
281 -3.76836839796829 0.42277486294721095 -2.017340473733867
181 -2.318399373861676 -2.5944138122516445 -0.5282439454098669
602 0.9419401236976632 -5.723324453865688 -5.359363542364201
242 1.9311587635999077 3.959516362589933 -9.159310589499542
558 -2.8818228607195344 -0.28360230220830124 -6.752830227674845
149 0.40161672680867005 -3.2529345199484347 1.3348479368127866
489 -1.2029912193179273 -1.2835433242673102 0.8119898371654722
581 -2.9748590117342677 0.2953023860564571 2.1939561202108733
540 -3.463537579377414 -0.9625667984281373 -5.916736998087571
139 -1.9310850257812169 2.461880340621621 2.564736487733436
444 2.0088147039428974 6.568879196504291 -1.2082561109079533
102 -2.807265956634783 3.509216108525129 -0.01292205201845335
682 0.7513094068651858 5.17909106570166 -2.648812434738865
46 3.8058794360428756 2.554323290787445 -1.1801457892881206
536 -3.5990679440474853 4.369922134480545 -3.1639948740415536
537 -5.306192123304616 0.863763972832262 0.21762553377221006
199 3.112710963931506 6.26080124039607 -3.489802879269544
720 4.88991025054618 -3.1907915075494517 0.31325699508967986
454 3.8917049173411904 5.617979639376778 0.6444457707733168
667 -3.437133276112062 4.326050921975719 5.58193635887483
423 -2.389497334786399 -0.262570320517946 -6.1651506396979725
598 6.413254973633172 2.5867916991222963 -3.0943363069120955
695 0.5417864168573352 -3.360388996360472 -3.389285975092292
632 9.649077376090487 -4.995475932068733 3.7983670640881253
266 4.23060684284793 -5.405629512048541 7.839695030264553
643 -4.188844335660541 3.5468407519670984 -1.0284900945907698
40 -0.5684136918072062 -4.11740018714359 1.8418830718390073
202 3.893256119892287 1.7551329622854832 0.14917500898225303
686 -5.6633749102295505 -0.4694674815481724 4.286594017926815
671 1.8648089715043619 3.12445510032732 4.976246472364164
192 -0.5853899242894218 -2.803295655251402 -2.94338863148248
395 0.38619325063453086 5.928190716772375 3.8475888710508914
393 -0.7061601188250766 2.7578280961152384 -5.816306633319091
486 2.678746720476482 0.774807829792791 3.056690164759011
233 -2.5430108095891164 0.6702828137594041 4.995365338491327
365 -2.7065209083751207 -1.278305095026288 -6.146366910609314
599 3.847865754071045 6.454934381358043 1.4571612723544216
106 -2.993894479365004 0.560057951337032 -3.1286363309045906
530 -3.8421460937677017 -2.6508063299723026 0.8904342513407132
329 3.897857640123618 -1.229234251142337 -7.854230720136608
19 -3.3873194271756972 -2.385381952733655 2.1897614832162815
64 2.7695991639697266 -4.390599816382164 -0.5579097786098267
455 -0.3037884480451451 2.959350024183467 3.283976430720356
696 -2.2778500485542743 -4.448343006103732 -0.4907891203217759
659 0.49377563621458864 5.235305703335237 -2.5995845469859526
591 -6.794105619149853 5.024438707100628 1.2087016594787476
484 -1.518002401461338 6.023195833482298 7.4186784320619505
689 -4.847780550145036 1.5830159069116492 -3.4568745903764673
127 0.7875049928135637 -0.13232684038159861 -3.1571767225196856
331 3.623886796950911 2.678660284642244 2.996457660299576
658 7.5074797168893035 1.6359666536182211 -2.5820762927262573
131 -3.8654579059159873 -3.8077840122898388 -4.2877461941252095
660 -0.5829914173934048 -2.107293672596413 0.19643068632684815
532 1.615989913056884 0.6159934508367358 -2.189762684359576
285 3.6545393330970355 1.523292742028052 6.7990364031031145
264 -0.06295601023732345 -1.6553799180343545 8.058012683229146
48 7.473845110460277 -1.7108845612484422 -1.9095359493174935
167 0.11114300333876675 -3.341557149730758 8.66493533723865
379 -0.6514456152033685 7.154946458141631 1.582679578679841
228 1.1977733786269746 -4.069865757998017 4.770462759102369
44 0.7581359318426173 1.6501380290139134 -0.9530387350478304
421 5.048118595740505 0.5558775792063685 -2.7717600868573626
235 2.8001800784478736 3.0905542055102053 -1.7783473212581282
413 0.0906396025555663 1.5916867970998678 -2.0540200133366646
445 -1.4279274528545178 -3.4123947633080416 -4.045957856216381
646 -1.7065426312858003 1.2745233557626778 -4.758416896736965
620 -6.796598908897664 -3.5757811715978494 -2.090454695294899
504 -13.235728402991313 -0.2520426046461757 -3.5319578654161132
75 -2.2553764788881714 -2.5613518414506466 -6.118121157075932
419 -2.187086624247466 3.8142253534561323 4.279043874315418
265 -1.021006392272612 2.4551519647504696 -7.406642690612753
592 -4.4103063183137765 -1.7908775036343652 -7.160242189732423
650 -6.734249824661354 3.3271372747950987 -0.6267538101525956
466 -0.47319176514905326 2.2230068313552933 -2.7419550612213768
502 -0.8710829951732271 0.987953256342388 3.361578891587309
65 -1.2828371149581577 4.017245114404094 2.3937760564946546
523 -3.559643116811102 -6.894126438833536 -2.703935449968044
508 -0.5046812507257473 -0.21758951094596723 -5.724060548859062
57 -0.9438759801705089 -1.2087418849427993 3.9739662289996747
589 2.804477925583935 -4.75509759510019 -2.601921830671523
73 -2.2744876997227723 7.299955714224662 3.696690784819404
517 3.9953234484100513 8.9615888134131 -0.4154587427327177
158 2.6288073957526445 -9.035817032296045 1.6371586532737132
474 4.462286842859267 5.720204395799881 1.1771557852056702
635 -6.911437643601515 1.6008948637130571 8.875135907823205
624 3.188027591579556 -0.042142401805558664 -2.3287921383650843
320 -0.4148393980170964 -1.6566638341227566 -1.2793353903805018
166 2.112720215248183 -0.08561176560813415 -3.680843688703015
295 -3.347975218395699 2.084333310381727 1.1861492486509781
263 -1.841038666699314 1.305549670096899 -0.7482646644935343
430 1.381257843302752 3.309790215110531 0.8427812011047646
172 1.4567542537058196 -2.189931143880414 -4.199442694664821
642 0.5108922427180476 -4.84970822285139 7.429556173566436
32 -5.551542533939563 0.23565813445341358 -1.4198815973012857
376 -0.21994554992826404 -1.6542684922583486 -1.9959240703870278
573 3.1703948961146087 1.8272880340098911 5.989865178077876
42 -3.2193522052648027 -0.05390348605546559 0.42346821542987106
383 -0.3072571172772449 4.451005017553055 5.513437673732943
391 -0.9789526328478575 0.909252947266051 -1.5522562734089849
617 2.619489305808617 4.144760591120137 7.428834295133026
162 4.593212226318562 0.2922602046752414 -2.7580339212342406
500 -2.5765971470168223 0.21539054911058678 -5.479361183214464
81 1.094998872443552 -4.03626259059977 1.0665147038783052
7 2.1056658536806174 -1.8238306434771407 -1.5558578394198552
269 -0.3618410194242892 0.03141809073506201 -2.119718770090698
422 -8.039340451207616 1.8741132903433366 6.517786562242541
524 2.302566352939129 -2.285201500150613 1.0089109279117676
657 3.0792643434904687 -6.653179185241946 -3.909353379768802
9 -4.771048184820747 1.3001235962935593 -3.430248778992634
120 -0.19334332738768148 -1.569295348980214 2.1245983252595657
429 -3.262747543318705 7.256781920513741 -1.7107859854376442
318 -2.305518227070777 0.18171211190736594 -0.7796300543138023
467 -3.0899735787061773 0.8454147220910536 5.9284469509934485
629 3.9694828622007448 -2.549258708764886 -3.8053587601445216
100 -4.560045346035149 1.589470893553711 1.7490659884985906
205 0.17223287818055374 -4.509747383791362 -0.026940236322075723
377 -1.9988952258538992 0.1543721460527493 -2.9632637571173195
275 2.190863576316728 4.617382212931195 -2.0579857563796695
494 -0.5024064536088001 -1.3956631724893604 4.843877593366815
86 -1.3340467924151902 1.3035402689355917 4.383711622893685
513 8.225256464909913 4.031184486201186 -0.12181252033376659
550 -2.650998337019595 -4.11808951699575 2.0249367376077543
317 -0.7404913063540629 1.9264766218165388 -6.383518502720686
91 -2.8353855116063484 -0.894708560779995 0.22248495770475585
250 2.7023449997352422 -2.422313633954032 -1.4757934094974523
575 1.1638182422220495 -7.681912598974363 0.12181445840360242
18 0.20175121643682803 -3.52381236278778 1.0756471589474694
401 -3.4953781041063436 6.053274160895008 0.5242891476373241
507 -2.636159844480981 1.0734551624270259 0.6795505141494131
15 -2.804304192197659 1.4644623374531158 1.7498202235957265
715 -0.8873544138033759 1.9567519795880308 -2.773568115426318
653 -3.1421065671924007 0.48722264134302673 3.3866924481752467
669 -7.537739157524554 5.955275992479804 -1.6859725511012789
188 1.93696038382614 -2.2100233707553696 3.388656535268319
25 -3.4942229713703954 -1.5258185683244874 -5.943626699030126
237 3.874254168368224 -0.3401765449796744 -1.7603599673513464
610 2.221868625332432 -5.390005708712057 -4.065373622008541
609 -4.518776449366569 -5.028164887563999 1.3178129380967971
355 2.5549082910832976 -1.50274514880875 -4.8688453246068315
709 -0.8392073241143997 -6.977133601673102 3.324544503035572
189 -2.490862595614176 2.272357358087589 -7.1188490071109225
367 -0.8241532142633528 -0.10135711884224526 -4.936437822997545
503 3.1251700693407716 2.473706572745079 0.05923484154648984
58 -1.4766095437743838 1.3235358340256977 -2.8481148988632685
353 -5.257153531648748 -4.886822811814784 4.878874766931762
382 7.126615165347936 5.357640929898086 -1.9110333587349146
491 1.1149957673885154 2.6587267760591513 -3.618889465405095
351 -3.6131069660468675 -0.5507386976069552 -1.5454495761738698
238 2.4872463238748064 1.5142126578463317 6.867083171644736
677 -0.4511110903548024 4.686100868610788 -2.0172833300486093
409 4.678172581283609 3.537682362253097 1.1383136388834498
206 -5.316032413099761 -5.57523863132994 -0.3121186488230963
268 4.744592008709252 -2.367007157246324 -3.7238580633015235
207 1.9026053768081377 -5.627089024533443 1.113111401775092
45 2.599519654849426 1.084542235303017 0.15433827034079045
654 0.5166544132126023 -3.2505723042376578 -3.1811677485368692
53 -1.5784274149384172 -1.5911681239670423 -2.4536526099170475
718 -2.1659722678873403 -0.5511792459819236 -3.330774329505861
98 2.0359119217796233 -1.2681528396564854 2.2714630596211602
456 -3.2599151092139413 1.7893286721467485 4.477373428011203
637 -2.31457826568574 1.7351103274807245 0.9184051587142016
214 -3.566368467879208 -2.358097210254063 -3.5226922201406747
301 -5.614734715796643 -1.8652418260121633 -5.908930048024596
252 1.8432615601500482 0.8972740663345947 2.865090773879884
247 1.133148040814771 -1.528815501359003 -3.6896310962958285
151 -2.1987321219948033 -7.43940739429987 5.0275065000986014
574 -2.933815673801533 4.105940434109525 1.3681177535113942
457 -1.6636520905153633 1.505511411624117 -2.2083639041257865
417 -0.4127754391854061 3.1681534296145806 3.6374865613554266
333 -4.622472252860111 4.218807472134604 -4.598120756198751
375 2.9814721601945133 1.4741897978203604 -3.701942447968342
210 0.21864171883850514 3.5995693719066906 -0.12215156222697873
554 2.878563273671408 -10.828232249534569 3.0695781634557857
483 0.9738299534312408 -1.5740526414091156 -1.4077056352638266
701 4.100901746289461 2.0498394193671308 -5.5977280754129275
651 3.9028393451820604 3.5192822592656605 3.2267076505644785
110 0.45455006220865424 0.4371796345857653 0.11403030617954711
226 5.806826746429659 -2.5954973653556555 -0.9346890217690522
290 1.9192347082516104 -5.6986300147550155 1.8316474510379532
692 1.593033217581952 -1.8193481737285055 7.761007389856561
56 1.7851585151046636 -0.7866834275880674 -3.1088764882121005
496 -6.094903438088727 -3.962960266147463 3.6739359526096615
298 4.643384764327808 0.5515971970858556 0.38745549913576594
481 -1.6467221987558267 1.8268627763225753 -6.47743866759069
464 -0.012209580484905638 -0.6572235853806803 6.251706494510428
186 -2.1556089682365815 -2.9587839283857766 1.053678722996394
403 -4.680595528945226 -1.778278017642889 3.80371796461682
114 3.2326632139230456 7.576973236931842 -0.004157769673249495
194 3.9668873730061898 5.646673955348254 -1.6373794099807069
251 -2.179033861327881 -3.4286204164201677 -1.0458699937713782
567 -1.41566876547539 -3.2164496838881496 -0.38150338393790917
146 1.4950368504134224 0.2561723684458834 5.085969526438289
277 3.507550793295275 0.9720461813940858 -2.505677668651097
717 -3.7134157299582347 0.3727658808138795 2.5021339478759526
560 -2.51881339960132 -5.57584694018672 5.322122483811647
431 -3.792493799757051 -0.7148552154401707 1.4309937750849822
169 -1.051636996823702 5.099568893124605 0.047361690150290806
130 4.499384663229954 4.093555118668569 0.34821152044723097
518 -2.3754521025357564 3.6974916054121616 -0.4349925525029604
662 -5.580400223362511 -5.848689202300297 -0.4998185512490778
535 5.044458160908287 1.2734370117041942 -7.518123760357644
490 0.9504781663252362 -1.9858045205230512 -4.346550725322635
218 6.764467715463707 -1.7300466236246426 -0.1459452680428329
286 2.31734933001348 -5.800531894170344 -0.4139058841339408
649 2.6140844591716035 -1.6851087734045531 7.633196858289256
613 -4.794284119108634 -1.5297110024960363 -0.475630907232145
93 1.230809691107484 -1.5898360105588962 3.603559924402095
308 0.2224244306299932 0.36094766234536524 -2.07089726865923
246 1.1723889936837366 -1.3185208387122063 -4.782408327865395
471 -1.4367428183294992 -7.6327227927992825 -1.0215426642115926
719 -4.02168583130055 0.2028319049839225 -2.947491478327403
55 0.02654696181372214 2.050939354437528 0.36516383158836774
22 -4.224003224101056 -2.2301427309191197 -3.796976501962261
111 0.6548460020074024 -2.8178677918898236 3.0667827675028145
373 3.825686399176892 1.5488977678445526 -0.9074049631043049
54 -0.7597642856184141 0.577708673151771 -6.139584288200871
384 4.118339780701319 2.282480740383024 2.6494428777267602
17 2.6729103588410434 0.9990946777782561 -2.3543050552251192
622 -4.659691304115236 -1.1328213366557545 1.3841957817270527
105 -1.5534822497038847 -0.7624114126032666 0.2577532806915332
618 2.139729070796009 -2.7412897987977662 5.6401833620202195
488 -0.9494685832904376 0.11780407772554566 -3.605724007026192
249 -2.4155032632862152 0.5454023436674227 3.124471572695545
505 4.896227399582706 3.0734986818790326 -2.2408791127721286
140 -1.539538608840057 -1.8131650928088185 2.198053116186823
463 -4.2163960307919615 -0.3530348193599825 -3.134691612977675
289 -1.3547864404580812 -1.1769874201314583 -2.9226479701108667
656 7.186300741073415 -1.4437530998340558 0.5019480875496477
208 0.8973589242356647 -1.556476550758887 -3.4883028526455173
357 -0.588180522557716 -5.095431373413936 -7.994302224366086
61 -2.686397150615959 0.04706315941372836 1.5858812259554766
702 -1.133388516667146 0.9406668805405342 1.0794108214395017
436 -3.1833716105222343 -3.258730391095982 -0.7710960057552978
348 0.567616563287911 -0.09580127944234026 -1.4996502197753783
694 -7.116064228781217 -3.9292199382776047 3.570523155552581
544 4.814794464599577 -1.1052186695408537 -0.18780057485259374
212 -3.4613980163207967 0.3635473749015793 -0.04780867042655411
29 -4.179477040636029 6.0467945124809885 -0.1525484524781785
576 -1.8918072376665005 -0.9342861987732485 1.3560601192469417
4 -1.6061632568031552 0.5232790272992779 -3.0714266723746135
12 4.837166702573282 2.730951381703978 -1.7831445766243643
586 -6.042759968923253 2.0611212654938043 3.046394592533202
621 -6.832529250484473 -5.040094115360438 -1.8107186917353095
324 -2.741188283967062 -1.195456338781625 -7.516537088115493
142 -8.11003901765025 3.703366660228747 -1.370286665457838
128 -0.5640391899893243 -2.0226637508264544 6.387449612763374
687 5.097493209597941 8.063580996826818 -5.4433745711680634
626 4.437687711123109 1.2447048329971728 5.794707719043475
215 0.7685824603097878 0.7221592703517203 1.4723336143658279
323 -1.648690467790229 -3.5759770864883587 -0.11964094861384418
362 0.1367816883935848 1.51697405640655 -1.7262172078819333
240 -2.295896303113683 -5.504373110683592 1.2919845418015228
118 -1.653483463095933 2.405138939868162 0.9403359160011758
700 -0.1699403626043628 -1.0760227582571105 -1.5332136670525074
708 -2.3010504157401237 7.64354602776395 -6.985241434171778
415 2.1904235163046994 -4.125012722506484 -3.315833741428506
90 -4.3127917757374234 4.00442311511104 3.824377720830506
603 -5.397834266500382 -4.95369185831683 -0.9813135618944807
468 4.794527709384322 5.3277182398217295 -1.9915757162851968
133 1.2343477100998974 3.3511270413252765 3.1881876579661474
369 0.4639223834735933 1.0504984486066538 0.09687911840293026
366 2.4400595591615892 2.1838109303326694 -3.3181485909410466
176 -2.725553977753936 0.2421480316750127 2.453565092674376
182 2.373005846493696 2.5321713770717493 -0.10827696430525176
371 -0.7121607180103143 4.610295766265886 -0.05278575913407547
703 0.433680398485247 -7.842866592992077 1.6490365089386034
390 -5.799316151273088 7.613111544904047 5.242835744517952
213 5.512756271310424 -1.88172780849667 -1.419579222296607
426 -4.365332626206935 4.478741994451028 -1.553422190671934
663 -0.42536904082264204 2.4654671471488045 -1.4237527489378785
526 -1.7011877025542845 0.1361650645425124 -0.03173756721281784
661 2.588469435833649 -2.519080548948166 -0.02374522993028297
143 0.6007507135945086 -3.243419053796688 3.067953110222203
452 3.566131363714596 -3.661742577577393 3.2972256425258974
572 5.094009921435806 0.2813351128976978 4.316653852770307
229 -1.5380442264059915 1.2406587666126296 1.1922771880610672
615 0.991614197471468 -1.3179407714518179 -0.25416283690379976
273 -0.0865712199470769 3.6037436207342046 5.881050303899237
665 -5.464138641132201 6.686724334320186 -2.0579869543289546
561 -7.661065436251248 0.5068121798721155 2.708237005259084
478 5.425851549695395 3.900931177137627 -8.969224508708889
691 2.0165478389549043 0.32667415880877804 -0.643495965869297
175 4.086484290479888 -0.9024927945413727 -0.08381239637130433
203 2.263698564610953 -1.7872630986187543 -6.77154414377977
495 -5.514460691343538 1.7173452564233271 -1.0269088188815998
171 3.820044894806623 1.1749967971431683 0.5190423423786243
342 0.05558080086016788 3.415028462158749 4.939343435169819
280 1.86933756147004 1.7043397056930405 5.999363666818151
244 1.2615167083302206 -2.1939521438921337 4.122873175191495
239 -5.6119632267080455 0.5907240338338632 4.005006305938436
187 -3.5591049943021384 -0.4971750937140352 -3.6853462906135523
506 -2.070315765611938 2.9062861902781054 -1.5165514721302562
407 -0.7745232480231515 5.027306876572612 -3.3405319282941184
714 -7.965396523716223 0.8147854010820459 5.901778892955755
296 -4.536850720963469 2.9815374075203787 -4.696670887483439
712 -7.874121954534267 -3.034251090314617 -4.658504553337411
50 0.6646279884116093 1.3376819084032814 0.7419240186709294
339 -1.4229527909577142 -2.568146000378066 -4.468066095789975
185 0.8510518573802242 0.509570725043029 -3.781036239802242
716 5.985460426578251 3.123404347878921 -0.1367315731556595
605 -1.436485658062841 -1.8868494181990487 -3.720445179958707
389 -8.069470864201092 0.5665994231981885 0.2983533011088212
248 0.784302669009082 3.446100511727177 -4.712838476958361
125 1.2489263447408354 0.056725979045502695 -6.564689844214222
321 2.778702155504051 -2.8049620223951615 2.2190886856564993
590 5.84605645448785 8.383362358004648 -2.0323965072453407
442 1.777870769264009 -5.056736462296598 -2.498220974797064
119 -1.3109761620543503 -1.6331369564171572 -1.3220723953163698
236 5.256373223051847 -4.40765956896234 -2.1011235722421793
154 -5.393477985564944 -0.5136305905151612 6.607229272664202
124 4.694770178445803 -0.40763861290802944 0.5596809157517613
332 6.239011119056967 1.1521702146777948 -1.1116149460506197
606 -3.2112413410859495 1.34476604829984 -0.6276432347290345
326 -4.158719748912365 -3.746847003044829 2.9559244990895115
578 2.182616216387182 1.1620856054798834 -6.4474817885126825
178 1.5759100771690178 3.5032553250328298 9.207995916334205
565 2.2902043731668082 -2.457135569646854 -0.12196770470988616
497 11.074447930746901 9.730250448635703 -2.6280678398427026
26 2.6847111750568184 -2.0913752134830914 -0.3220774549763541
525 2.141428171433344 5.851234587249638 -8.96358584138197
548 2.6604257125134763 1.2136649224359022 -0.5152721386988205
363 -6.8789877686598 -2.1499194568158737 1.935822208362004
270 -3.3267187469095125 5.038032096325753 2.370717575790377
664 3.222507135963095 -4.279612710501778 4.889897122413388
177 2.998590137743445 -2.33283334276097 -0.05890627676279881
259 -2.3347062135030106 -0.45677945061118264 0.04716738672707854
152 -0.5018494424801537 0.29187423267469903 3.9764771385979842
121 1.7646066173704567 -0.34363594290453786 -1.9039083910183772
434 -8.24667966212039 8.915477715108446 2.4368545739811514
300 1.7999515450737444 2.320166927818293 -1.9237842881684402
448 2.2136850382906874 -2.589609792649264 0.3590935429796707
304 0.6383963126173718 -1.0469157223814238 2.912591363088235
302 1.6831663569476885 -2.8658149908845507 1.4257269574311409
159 -5.463736634540509 -4.1516757867631755 1.1542911975379961
39 -2.4608345481195446 -1.5371280836934822 6.152694586711974
34 3.9888049020204344 -1.8033221928694474 1.030177380029256
6 1.3781982533251802 3.556300588047992 0.8504932961537119
88 1.6951222587358874 -5.146910079651278 3.4518249465956283
307 -3.6618961902098883 -2.316852723611975 7.03427373505829
636 -0.7036094951323388 1.7813981299625248 -0.3357668198976575
303 -0.45903193109081536 -1.3328356214781538 0.9203864634574717
262 8.780666506914656 1.1230480068379274 0.1328686411044717
555 2.4415350754939573 -0.615326310065681 5.031635988421695
330 4.917283509897056 3.6527738072063736 2.571713899323404
156 0.525867231598837 4.787954256111402 -0.2326145526434668
499 -3.7783830462893757 -2.5949375858243724 -0.041189920383270885
616 0.38956306527512485 2.2397800305567297 -1.2001759672573562
680 4.457066955549683 -4.460682681051202 2.735541935085043
579 1.8238648498301855 -1.928451532713931 -0.6953814009037479
551 -6.096459944151849 -4.2971654085391435 -6.476775308888544
449 0.8441572715931864 -2.496271940467179 -1.8692403016476284
522 3.737145353567902 4.322947485619739 1.0027926321449283
123 2.812346362166378 0.2956015402031985 1.1287533318329355
678 -8.290652714223603 -5.496341053979529 3.0771884047333757
141 -1.2004924814453029 -1.8848917529378448 -3.3176741198400532
117 1.0618492769823693 5.567997003557052 -3.5907776342752546
460 -2.289044379306538 -3.4986335922447815 0.3619257558856735
462 3.863552381993386 -1.180248272717764 2.6687936680097315
612 1.1755312824733515 -4.93767762636084 -0.7589117686537553
593 0.8727779776318669 -1.4992280082106229 0.9980245084509993
580 -3.704496498418095 2.7484912285761784 2.9364752894984316
94 2.006491036094717 0.5995730967407117 1.9418214276977144
556 -1.394093027104826 -3.277677660130961 3.5166360410831494
79 -0.9575875439239535 1.5638021189561269 -3.5534179450213976
222 3.14715369741954 0.7126282447799518 -0.06082420717486071
396 1.2420251265841846 -8.103516081585457 -0.007971287790140051
645 -2.9886471907586296 -6.121064003076552 7.968666749238847
408 -2.3093718109263874 1.9843632094430608 4.55437092247831
343 -3.7122376784661992 3.0948275849108144 2.7984608512342914
165 -0.8947510180501833 2.27967920761227 0.002700718724000992
335 0.38380171055945345 -2.988412670495903 -2.437191472036976
153 -3.5821453949600515 -0.36099694789909015 -4.57425604033968
571 0.3045030644638558 6.41420172854293 1.3468305149673885
711 -4.324003180083736 -8.08529069379269 0.03927297563917969
325 -3.8867910241332737 1.9595478616167394 -1.4294320765794677
512 5.285424851993732 7.017104515603773 -0.23995121206202033
223 -3.0637839416489805 0.8896573261788299 1.988752034588545
232 2.1343997307152844 -0.6950854583249292 -1.970325475159114
358 -0.9517330847322795 1.595210893776924 1.7599339715746787
257 -7.249839948529573 -4.289045522138037 5.391354454543065
313 -3.15970306682151 -2.071314891162674 -0.6640133841982198
68 -2.6807957429167146 -0.07095038196072959 -2.650427255041624
