LAMMPS data file via write_data, version 4 Jul 2026, timestep = 50000, units = metal

720 atoms
4 atom types
1 bond types
1 angle types

2 extra bond per atom
1 extra angle per atom
2 extra special per atom

-20.840065439031168 20.840065439031168 xlo xhi
-8.410574333055173 8.410574333055173 ylo yhi
-8.398119740485969 8.398119740485969 zlo zhi

Atom Type Labels

1 Si
2 O
3 OW
4 HW

Bond Type Labels

1 OW-HW

Angle Type Labels

1 HW-OW-HW

Masses

1 28.0855
2 15.9994
3 15.9994
4 1.008

Atoms # full

585 0 2 0 -19.513897323951184 -7.387582558493952 -5.793370251654519 0 0 1
634 0 2 0 -18.659039460675444 -5.324979271985911 -6.882068921947365 0 0 0
485 0 2 0 -15.747858376238156 -5.062278364369003 -4.814281760764757 0 1 0
681 0 2 0 -18.60004614667036 -7.133097787365661 -3.0991073058042398 1 0 0
190 0 1 0 -16.406295835211445 -3.572430082037304 -4.8542312844676845 1 1 0
566 0 2 0 -18.001574017425874 -3.463384097879951 -5.289228959504505 1 1 1
509 0 2 0 -16.64795180820144 -6.625366863328066 -7.96001805782975 0 1 1
596 0 2 0 -16.890717029959344 -8.199019224275245 -5.570657786922695 1 0 0
539 0 2 0 -16.483708750384174 -4.108837307326678 -8.053831794624738 0 1 0
147 0 1 0 -19.905571488484984 -5.818036781018203 -5.8098510393499865 0 1 0
27 0 1 0 -17.58484005661741 -5.303363378499404 -8.10777971841118 0 1 1
472 0 2 0 -20.09669995614236 -5.169301339958702 -4.3459362781189395 0 1 0
60 0 1 0 20.778878549744217 -4.690018833390155 -3.0189599681612957 0 1 0
327 0 2 0 -15.585556098769178 -2.781283936811816 -5.953745555980066 0 0 0
418 0 2 0 -20.74552730268897 -3.0746864632886233 -2.959534342890368 0 1 1
527 0 2 0 -16.40643328083421 -2.8299429012718127 -3.449799129544738 1 0 0
135 0 1 0 -14.626111216613225 -6.052970561126249 -4.136440390587198 0 1 0
314 0 2 0 -14.392010635524517 -7.424132095442455 -5.118178569746636 0 0 0
388 0 2 0 -12.754811813297696 -3.996028091281241 -8.187608252613835 1 0 0
476 0 2 0 -11.913423340763053 -7.16446734130561 -5.268926450696665 0 1 0
66 0 1 0 -10.976290399279472 -7.643986856136944 -4.055772010084737 1 1 0
470 0 2 0 -13.297013701369941 -5.329916146450184 -3.680975147659379 1 0 0
386 0 2 0 -13.49711125423104 -6.505281436139457 -7.402644832983866 0 0 0
74 0 1 0 -13.117677876184827 -7.482559950393496 -6.210200280056078 0 0 0
533 0 2 0 -10.45856066543205 -5.571093763849568 -7.324797409597019 0 0 1
82 0 1 0 -9.955753284454872 -3.99625687936998 -7.028996475049379 0 1 1
625 0 2 0 -9.599205317454754 -8.009649460699954 -4.679572754211097 0 0 0
279 0 2 0 -10.666193417725019 -2.9593631517641237 -6.054204198782105 0 0 0
416 0 2 0 -10.991637243234228 -6.409357169038759 -3.0873913925720693 0 0 0
446 0 2 0 -8.493957248647595 -4.102979789550387 -6.328512045692565 0 0 0
16 0 1 0 -8.106216408697678 -8.205808330544645 -4.263217784991911 0 0 1
359 0 2 0 -7.677399375739903 -6.796784702436567 -3.6942432713509143 0 0 0
2 0 1 0 -6.507066623735739 -7.624081037687726 -6.581291564871713 0 0 0
577 0 2 0 -5.898418623282836 -4.135934408782668 -6.8015285890559065 0 -1 0
293 0 2 0 -7.316825083422138 -6.253113134216212 -6.511723445950937 0 0 0
595 0 2 0 -6.854803084549809 -4.625988222302014 -4.407589483597062 0 0 0
113 0 1 0 -7.092168220521005 -4.789736150547585 -5.976501399640527 0 0 0
37 0 1 0 -7.423629081594308 -5.292016848263849 -3.100743702589834 0 0 0
477 0 2 0 -5.1068377411172 -7.34503830091233 -5.967327426979686 0 1 1
400 0 2 0 -6.77333408089107 -8.271869592865567 -8.000807467691455 0 0 0
638 0 2 0 -3.6434722965920763 -3.1350887116250794 -3.3589293528383255 0 1 1
184 0 1 0 -3.7910464703155853 -8.186604953190589 -5.7624543527933465 0 1 1
432 0 2 0 -3.2210425821588373 -5.745117515546807 -7.689778127862112 0 0 1
221 0 1 0 -3.142614413201194 -4.721067199567524 -3.4043925330926763 0 1 1
631 0 2 0 -3.9700120004651396 -5.943331348991463 -2.9031510014076645 0 0 0
274 0 2 0 -2.500152508833196 -7.30146458118092 -5.724906532626816 0 1 1
674 0 2 0 -2.7947147692956626 -4.916268835890381 -5.036387608832432 0 0 0
148 0 1 0 -2.3638407673927624 -5.833770481578732 -6.258564986686216 0 0 1
352 0 2 0 -0.8632722585926338 -5.4294569699042885 -6.763048411430638 0 0 1
704 0 2 0 1.9194668575803533 -8.076013081755368 -6.331509846016287 0 -1 0
33 0 1 0 -0.41616004046358057 -5.0333940099387835 -8.28204569805241 0 0 1
161 0 1 0 9.796345989264388 -7.510494213387128 -2.9951223972161714 0 0 1
519 0 2 0 9.833220345383207 -6.606896274355074 -4.368152737775886 0 0 0
546 0 2 0 11.59720316403192 -4.865680503117656 -5.422134900839973 0 0 1
69 0 1 0 10.779606982735348 -6.24491860811571 -5.5387449991724385 0 1 0
493 0 2 0 10.382298455945435 -6.443398474157802 -7.117106127458538 0 0 1
67 0 1 0 13.920106605672412 -4.926370121196343 -3.2726253150018385 0 0 1
144 0 1 0 13.03010109855413 -4.609012611280624 -6.114901855226294 0 0 0
647 0 2 0 12.798076034120253 -5.5838082136037475 -7.412154928982166 0 -1 0
364 0 2 0 14.123274433555675 -4.937242708351096 -4.918598819404298 0 0 1
404 0 2 0 13.375372336633315 -6.441324274822485 -3.038928130807026 0 -1 0
520 0 2 0 11.96399802814052 -7.389536910879909 -5.449818146866926 0 0 1
604 0 2 0 13.499817599588152 -3.2279022018033023 -6.7140451696029215 0 -1 0
406 0 2 0 14.100265669473917 -8.156582641290843 -7.042010995348361 0 0 0
582 0 2 0 12.799982540027298 -3.851682578912208 -2.930905150034665 0 0 1
155 0 1 0 11.505502545367808 -6.353231829086762 -8.270245865950782 0 1 2
78 0 1 0 12.75173416076623 8.364248538793433 -6.184563697382132 0 -1 1
607 0 2 0 16.70427120857686 -7.913725445238181 -5.990143766434229 0 1 1
126 0 1 0 18.946765102556615 -4.8438649605963855 -6.65033150409607 0 0 0
288 0 2 0 20.403291774420968 -5.490572289914366 -6.553547253345953 0 0 0
231 0 1 0 17.78005598317898 -7.139445742322552 -5.030855131049248 0 0 1
531 0 2 0 17.415177392886523 -6.911076845289024 -3.455638097006009 0 0 0
272 0 2 0 18.581658303322516 -3.3597508884287715 -5.949015510084815 0 0 1
354 0 2 0 17.850864414928377 -5.741207534347388 -5.864807280872995 0 0 0
334 0 2 0 19.194101614378877 -7.827798195691112 -5.211437219631478 0 1 2
249 0 2 0 18.715271536153235 -4.94138230152062 -8.261259909977904 0 0 1
666 0 2 0 19.30521530398295 -5.281440382956067 -2.9658944162117216 0 0 1
95 0 1 0 -16.14702592510285 -2.6548190670769314 -7.4925975756251235 1 1 0
588 0 2 0 -17.58282456383548 -1.9177686468810995 -7.295755267389115 0 0 0
92 0 1 0 -18.719762432457767 -2.30378596633781 -6.1730574531681235 1 0 0
563 0 2 0 -18.816842385148238 1.122545270964487 -3.6444667416998033 0 1 0
641 0 2 0 -18.88901713062868 -1.1949190233934424 -5.046450336091046 0 1 1
195 0 1 0 -18.21268463536383 0.21343814972989783 -4.8922665993532 0 0 0
549 0 2 0 -16.63189305452393 0.002648781722152549 -4.611404018317047 0 0 0
587 0 2 0 -18.516089218012386 0.9745074050315381 -6.22105274612502 0 0 1
381 0 2 0 -16.22649626368665 1.0018567130351919 -7.638941036120592 0 0 0
157 0 1 0 -17.52702843068758 1.818058698145757 -7.15290318025439 1 0 1
260 0 2 0 -20.076192607569343 -2.437993612203373 -7.016025922506227 0 0 0
338 0 2 0 -15.043709060668665 0.8088831033439874 -2.8366950473328476 0 -1 0
424 0 2 0 -20.808540752318823 0.014164299670827774 -7.758091909536225 1 0 0
61 0 1 0 20.760496296180786 -1.5689386395031946 -8.119289543609128 0 0 1
611 0 2 0 -14.975493476229094 -1.9112967663414624 -8.266636251090764 0 0 0
163 0 1 0 -15.021982176606409 0.29952999886159404 -4.358474242467845 0 0 0
436 0 2 0 -18.26079351654445 2.278331508902797 8.342162433132122 1 0 0
699 0 2 0 -14.602372342279034 1.2804002272897321 -5.628393902369734 0 1 0
115 0 1 0 -14.747675308802346 1.4327850950242027 -7.262415639727833 0 -1 0
197 0 1 0 -11.898154436617194 1.8221829209789266 -6.057491520105146 0 1 0
529 0 2 0 -11.186090417513618 -1.4595063416762928 -4.083458101806798 0 1 0
31 0 1 0 -10.032871811210326 -1.7696584153029482 -5.125947160917201 0 0 0
297 0 2 0 -11.842899519347569 0.9551709797824017 -4.750646290747619 0 0 0
644 0 2 0 -13.795279788943546 -0.7276333801875081 -4.3750056494406016 0 0 0
173 0 1 0 -12.319809530894876 -0.333059248003039 -3.7912650369847203 0 1 1
627 0 2 0 -12.336558969188637 1.2044113792424938 -7.424317201461927 1 0 1
372 0 2 0 -9.50829783883888 1.858404692964081 -7.299496985825263 0 0 1
310 0 2 0 -9.492546610385146 -0.47868084689437485 -6.0572951284163645 0 0 1
36 0 1 0 -9.309826602757152 0.26571346703869914 -7.491020679277123 0 0 1
626 0 2 0 -10.506305168765751 -0.3017918689659229 -8.39378582025939 0 0 1
276 0 2 0 -8.642555728078138 -2.1075498314929986 -4.256367641508344 0 1 0
405 0 2 0 -7.0063603482630405 1.8126894359841845 -3.8099761058235018 0 0 1
245 0 2 0 -5.966863341071951 -0.6074863414287215 -4.506102878921398 0 1 1
137 0 1 0 -5.998595702793626 0.9620001948653858 -4.726528480535313 1 -1 1
690 0 2 0 -6.076401547609455 1.3024922041225082 -6.299489226090991 0 0 0
673 0 2 0 -6.205420765812194 -1.9757652918186963 -8.155350995725042 0 0 0
668 0 2 0 -4.523035331118045 1.528227593935405 -4.20733981423199 0 1 0
43 0 1 0 -4.757994612659079 1.410805797312518 -7.227278856038501 0 0 0
685 0 2 0 -3.790327498572232 0.11607750604690814 -7.0794309357508585 0 0 0
468 0 2 0 -7.911372341236717 -0.04713552321853065 -8.082312532663964 0 0 0
530 0 2 0 -3.0228277217044344 -0.31955930410391886 -3.3217864871781977 0 0 -1
77 0 1 0 -3.008847547275998 1.0260598091724038 -4.14051552752988 0 0 0
234 0 1 0 -8.043738751796717 -1.6927003721593028 -2.8131925099372364 0 1 0
319 0 2 0 -2.6935807406163477 -1.6904167454299968 -5.428937688885862 0 0 0
233 0 1 0 -2.7869271858374454 -1.8454913430168167 -3.822646719915955 0 1 0
705 0 2 0 -1.3695944585448885 -2.213243468458213 -3.097000793614506 0 0 1
411 0 2 0 -2.0960303069362425 0.7945370048706906 -5.392430202235603 0 0 0
49 0 1 0 -2.395040934034366 -0.46657702538361967 -6.47193198054683 0 0 0
420 0 2 0 -1.385667100539763 -0.8426261455444308 -7.6057425969905506 0 0 0
684 0 2 0 9.630072320606502 -0.9673765344079737 -3.253195862060509 0 0 0
311 0 2 0 10.54651203569253 -0.2583014360532374 -5.89520682757266 0 0 1
225 0 1 0 10.695677059270384 -0.786687875712123 -4.413335328777119 0 0 0
108 0 1 0 12.829921641046244 -2.236319590332757 -2.950156140155258 0 0 1
428 0 2 0 11.919243261176408 -1.7654802439028998 -4.263749935775659 0 0 0
361 0 2 0 14.36698013962312 -1.8950579780979844 -2.985447690290746 0 1 0
425 0 2 0 14.396726266281117 2.2633590295288535 -4.861339748159264 0 1 -1
107 0 1 0 11.371620469270976 0.8134356597864034 -6.827333745129056 0 0 0
601 0 2 0 12.86440451435222 0.7705138359424915 -6.239377410240756 -1 -1 1
648 0 2 0 14.766157540752491 -0.25534731745581496 -4.787718254767704 -1 0 0
200 0 1 0 13.623581561158272 0.9008430320277299 -4.878657085024615 0 -1 0
541 0 2 0 12.43806094491347 1.008493849816972 -3.7524795480872672 0 -1 0
498 0 2 0 10.848106664140843 2.3529395291626543 -6.604155380657894 0 -1 1
97 0 1 0 14.74578559998184 -2.4237112102358402 -7.3639767863821906 0 0 -1
584 0 2 0 -20.799690232587626 2.661150172162561 -7.675187724444569 0 0 1
542 0 2 0 16.154665271951412 -2.6595629836933057 -6.841257633001523 0 0 0
71 0 1 0 15.59355776318439 -1.1945412955998451 -3.7444388521406307 0 0 -1
515 0 2 0 16.515083183878755 -2.2681449662234643 -4.409477164456042 0 0 1
103 0 1 0 17.43426245002821 -2.287461261738609 -5.764642219652691 0 -1 0
569 0 2 0 16.925274474829617 1.470355243603212 -5.144298805681256 0 -1 1
458 0 2 0 18.08578864645445 -0.7955166962111511 -5.742660367408312 0 0 0
570 0 2 0 18.737261360082645 1.3253632397977757 -7.067776245333716 -1 0 0
59 0 1 0 18.281395018229038 0.799647963752788 -5.6621959764605805 -1 1 0
480 0 2 0 19.350832763600902 1.3353867954488479 -4.554589980696582 0 0 0
38 0 1 0 20.06208853919325 1.3352177994848269 -7.878668055234967 0 0 0
714 0 2 0 19.207669522509914 -1.7750369246434081 -8.133469859046706 -1 0 1
10 0 1 0 15.837687413627226 2.7200675944628117 -5.289072152209785 0 -1 0
451 0 2 0 15.847859988674873 2.77082673564942 -6.942503614625085 0 0 1
83 0 1 0 19.295137759957807 2.695371974403903 -3.666280137082402 0 0 0
209 0 1 0 -18.445848888121585 8.270996326670051 -5.772189934757773 0 0 0
80 0 1 0 -19.038470370782804 8.114943302641592 -2.949777690632718 1 0 0
256 0 2 0 -16.004652352709925 2.9392939119347936 -3.2939325649700244 0 0 0
553 0 2 0 -16.958234003842207 3.021988458767362 -6.250537411960982 1 0 0
676 0 2 0 -15.862301304033178 4.799946294641353 -7.669975608492173 0 0 0
196 0 1 0 -16.182524984778432 4.4599412176090425 -6.157671127136153 1 0 0
461 0 2 0 -15.669115846278183 7.847220596373226 -3.4044134586597226 0 1 0
387 0 2 0 -19.329029656243666 4.680985530826353 -7.108725737985026 0 0 0
568 0 2 0 -17.34893168964001 5.3394136795364595 -5.50849316492878 0 0 -1
254 0 2 0 -18.678093973148563 7.234351466308199 -6.973202620666454 0 -1 1
122 0 1 0 -15.554175415923318 8.011557154540085 -4.96811042366103 0 0 -1
21 0 1 0 -18.87884783669215 5.1363098493146495 -5.71708187228045 0 0 1
679 0 2 0 -18.773289362544702 7.4475529384530255 -4.396745169492699 1 0 1
469 0 2 0 -19.608692921721083 4.374377329098021 -4.522452191483993 0 0 0
23 0 1 0 -20.674591226057075 4.213381985856563 -7.879934570449011 0 0 1
453 0 2 0 -15.593684941924774 7.781339413996797 -8.28533912130312 1 0 1
698 0 2 0 -14.923171855164764 4.272544834233599 -5.172482842814397 1 0 0
76 0 1 0 -19.865986842457207 4.210996204569495 -2.9401534615246705 0 0 0
287 0 2 0 -14.371554437709904 2.772506680670922 -7.979598480182378 0 0 1
28 0 1 0 -14.75595667144392 3.843726015797081 -3.6221070740590537 0 0 0
378 0 2 0 -14.880166229570348 6.7766929209061715 -5.639665138290981 1 0 0
337 0 2 0 -11.72931057062301 3.373148970982264 -5.818861542594998 0 0 0
412 0 2 0 -12.821901674485368 7.787616577435287 -6.576997902811907 0 0 0
35 0 1 0 -13.442936999402287 6.3695643200808885 -6.2239984954001075 0 0 1
219 0 1 0 -12.05767899089654 4.282321207324744 -4.417999631656286 0 0 0
345 0 2 0 -12.622011048430961 5.716093940465608 -4.924278815327078 0 0 0
241 0 2 0 -13.172658985277316 3.4197591946373347 -3.6827071901114303 0 0 0
675 0 2 0 -13.056513547835078 5.343690870333543 -7.415246413131693 0 0 1
447 0 2 0 -10.619141584931594 4.425011766423779 -3.7772611119909936 0 -1 1
368 0 2 0 -11.390109915752761 7.8729574743379835 -3.173068293727127 0 0 0
672 0 2 0 -9.522000300482581 4.690800459491339 -7.5787307047150945 0 0 1
204 0 1 0 -9.58400282723337 6.123157984856348 -6.99897481866854 0 -1 1
267 0 2 0 -9.5180795431219 6.023361441242336 -5.436766486939298 0 0 1
224 0 1 0 -9.191697374963907 4.797274763990693 -4.4166458766984515 0 0 1
475 0 2 0 -9.148831006573387 7.276759493552031 -7.951356962220275 0 -1 1
511 0 2 0 -4.099012649409474 2.7886399857989375 -6.551692098140154 0 0 0
510 0 2 0 -7.27443684347462 8.111463346774833 -5.546570228864756 0 0 0
370 0 2 0 -8.846205510422458 3.6423127682758576 -5.4744911256849145 0 0 1
132 0 1 0 -8.806524965999795 3.318284857561128 -7.054120064325022 0 0 0
258 0 2 0 -7.90396433337528 4.788510465286791 -3.493118792274821 0 -1 0
670 0 2 0 -5.810112479257082 5.7696037792916215 -7.527274562114932 0 0 1
291 0 2 0 -7.340863703106477 3.557077055052396 -7.677680866255714 0 0 0
278 0 2 0 -5.490767366967988 4.225098222937353 -4.609444212393509 0 -1 0
227 0 1 0 -6.4864059743067966 4.139608661309854 -3.3981066566583458 0 -1 0
193 0 1 0 -4.066708748695298 3.8101015759247936 -5.3145161707703785 0 0 1
467 0 2 0 -7.776981838875262 7.600205830101846 -3.0475478337596176 1 0 1
72 0 1 0 -4.1941458262794455 6.123314427699645 -7.3201096968666315 0 0 0
688 0 2 0 -3.758580063832479 7.641357481630131 -7.0435321129033905 0 -1 0
414 0 2 0 -4.044067258539648 7.71422434750745 -4.455607530715178 0 0 1
282 0 2 0 -3.793910832526688 5.170170066188632 -6.153498247386989 0 -1 0
86 0 1 0 -3.8783137230263414 7.1306356061473295 -2.952159419431597 0 0 1
710 0 2 0 -2.800969093971613 3.6356846474573974 -4.282731131039624 0 -1 -1
614 0 2 0 -1.1154791755127498 4.711687523572667 -7.536491804438548 0 0 1
216 0 1 0 -0.613808048169517 5.727471205292826 -6.389136799072565 0 0 0
501 0 2 0 -0.12913556239249857 7.1618414668786485 -6.786985321275758 0 0 0
392 0 2 0 -0.9802026292645039 5.346650308554933 -4.920986519506307 0 -1 0
47 0 1 0 1.376947136007427 7.665258124376265 -7.349605282232987 0 0 1
136 0 1 0 -1.806819739112818 4.783976579965858 -3.706602136754425 0 -1 1
557 0 2 0 2.198849776502506 6.312905138705219 -7.270984632007119 1 0 0
443 0 2 0 -2.7531999813431085 5.955437893510645 -3.034704748385204 0 0 0
628 0 2 0 9.42131741009679 7.702068975735159 -3.2439967487643537 0 -1 0
253 0 2 0 10.558100516292704 4.842625350204864 -7.640450062783243 0 0 0
217 0 1 0 11.455258101058082 3.8756887302359146 -6.6009656204045095 0 0 1
5 0 1 0 12.363794044333002 5.8340582504628085 -4.448749428281267 0 0 0
597 0 2 0 13.937987234681739 5.802838943524513 -3.919557748277687 0 -1 1
63 0 1 0 14.658089361663347 7.147141577125559 -3.427581288057983 0 -1 0
623 0 2 0 11.766001572546639 4.555379130027756 -5.173262487517789 0 -1 0
328 0 2 0 12.343209911486955 6.953129706854501 -5.732260044076219 0 0 1
465 0 2 0 12.893860589010519 3.787689608032224 -7.309310732228777 0 -1 0
427 0 2 0 11.547168513846369 6.355777347906315 -3.231588891061831 0 0 1
435 0 2 0 14.62026472937794 8.09036912075025 -4.705098999187152 0 -1 1
11 0 1 0 15.346259298985483 8.040621064671257 -6.104662869356788 -1 0 0
350 0 2 0 15.664108372817342 6.649151564695774 -6.777682813086021 0 -1 0
547 0 2 0 16.3578441506173 3.8904213825294303 -4.191296006077251 0 -1 0
433 0 2 0 20.249981429324226 6.277315208212235 -4.748063794942636 0 -1 0
374 0 2 0 19.89251263785405 4.948885440506086 -6.984804484610363 -1 0 1
594 0 2 0 19.06789468163674 3.9417097446533287 -4.75875275738139 -1 -1 0
438 0 2 0 17.89641074807201 6.050996018906869 -5.889933027183174 0 -1 1
99 0 1 0 19.26396374074014 5.313617968419406 -5.529866717955548 0 -1 0
51 0 1 0 20.266312415347716 6.7884048050744425 -3.1985434830901154 0 0 0
1 0 1 0 17.09342996178577 6.07713207408746 -7.239444609430691 0 -1 1
528 0 2 0 17.158439306897716 4.594642295302318 -7.86891376198677 -1 0 0
191 0 1 0 16.215619144187873 3.4276102431473756 8.394021792139737 0 -1 -1
347 0 2 0 20.61674444864148 3.1008933219348602 -2.8629556333303077 0 0 0
340 0 2 0 18.757626985303002 7.012560570327128 -2.8528026063379226 -1 0 1
283 0 2 0 -15.305137986599266 -6.624467420655921 -2.8405007386585144 0 1 -1
134 0 1 0 -18.635547794687923 -5.998460404033006 -1.9528428027180693 1 0 0
284 0 2 0 -17.617595437357316 -4.792622753562683 -2.423356841163095 0 0 1
336 0 2 0 -18.095062544904454 -6.766339682005852 -0.6880909144751346 0 1 0
8 0 1 0 -18.45234626125957 -3.995841506494413 1.9696136470095418 0 0 0
521 0 2 0 -17.643841380771278 -5.322980810897231 2.3776344805175533 1 1 0
85 0 1 0 -17.036069031222553 -3.362971881122329 -2.088417953505969 1 0 0
562 0 2 0 -15.818529539610115 -3.3827159686026054 -1.0409067768623697 0 1 1
492 0 2 0 -19.873538924754374 -4.625105143669252 1.4981998838534452 0 0 1
20 0 1 0 -15.194788304862367 -8.109074553262717 -2.188026140441406 1 0 0
168 0 1 0 -17.538565245773512 -8.263292791761241 -0.4863295018441631 1 1 0
299 0 2 0 -20.068754228281946 -5.3464040310246865 -1.850875899044384 1 0 0
315 0 2 0 -20.201764369117882 -7.168287716742056 1.19379234838663 0 1 0
360 0 2 0 -17.410016887202392 -3.2493432562289275 0.9530641006093301 1 1 0
180 0 1 0 -15.813470309798587 -2.932720826143928 0.5037054846518849 0 0 0
183 0 1 0 -20.811525362470025 -5.8725630804698685 1.9909022591927243 1 0 0
380 0 2 0 -14.83619192809894 -3.8833385215030347 1.3686103466208124 0 0 0
30 0 1 0 -12.049885038993887 -5.2829643580518475 -2.6275471275701943 0 1 0
3 0 1 0 -9.844055245737852 -3.7278955818569566 -1.6981213479890886 0 1 1
398 0 2 0 -13.311717821843029 -7.267361882924089 0.8132174004099486 0 1 1
543 0 2 0 -10.054001550784404 -3.9960817640636277 -0.0999802629372244 0 0 1
201 0 1 0 -12.752911518323886 -7.258539570337006 -0.6054268075787217 0 1 0
312 0 2 0 -11.293206967156156 -3.9157973583812087 -2.4072762679176263 0 1 0
683 0 2 0 -12.533624368905103 -5.794303960963419 -1.191256393136773 1 1 0
24 0 1 0 -12.48624733367276 -7.05793150441078 2.251100125667632 0 0 0
459 0 2 0 -10.910184918609321 -6.753630373523782 2.1307799225794355 0 1 0
220 0 1 0 -9.892751528810926 -3.350264451136745 1.3637263451364046 0 0 -1
439 0 2 0 -13.672219233380961 -8.102352674248333 -1.704868472593776 0 1 1
322 0 2 0 -9.434906692603873 -4.5360370258917655 2.3635464010947196 0 1 -1
552 0 2 0 -13.15540700538862 -5.673850438428766 2.7755279326228077 0 1 0
112 0 1 0 -14.333788607719086 -4.538650623171548 2.791967660674029 0 0 0
294 0 2 0 -8.7949669478973 -4.668037198265881 -2.526994011417277 0 0 0
344 0 2 0 -8.23665122339054 -6.851602537227576 -0.554451397530662 0 1 0
255 0 2 0 -6.429727934403628 -5.4647384666640315 -1.8260264716390893 0 0 1
306 0 2 0 -6.054024455222578 -8.000736225502944 -1.26490496882961 0 0 1
96 0 1 0 -6.6695243714539 -6.593691375123894 -0.69134433381305 0 1 0
487 0 2 0 -5.918987279820499 -6.287045848355375 0.6441380253192541 0 -1 0
298 0 2 0 -4.257983398406822 -7.41054171775657 2.2013266885892246 0 0 1
174 0 1 0 -4.447109605120907 -6.174022644302432 1.201809827033987 0 1 0
652 0 2 0 -4.273461664390304 -4.715087242998421 1.786526269349194 0 0 0
90 0 1 0 -4.182457230721923 -3.254375504804761 1.117429959288362 0 0 0
598 0 2 0 -5.417862643719948 -3.127070050503539 0.0011639902204905184 0 0 1
104 0 1 0 -3.928698239659223 -6.94407977335882 -1.6870777420467649 0 0 0
639 0 2 0 -3.5929781907618477 -6.406831120971619 -0.24205887569872786 0 0 1
356 0 2 0 -3.44526071212578 -8.410201827901055 -2.031758353522175 0 0 1
633 0 2 0 -8.381431069416447 -6.97824411778165 2.7002498084212423 0 0 0
599 0 2 0 -2.737946015374064 -3.235275601644595 0.350353022294442 0 0 0
600 0 2 0 -1.7302567383439076 -4.677030687940305 -2.5610198427913495 1 1 1
129 0 1 0 -0.9384687763413311 -3.402015391204424 -2.1736690550167017 0 0 0
316 0 2 0 -0.7832576224206349 -4.689247191694231 1.3550118408613407 0 0 0
19 0 1 0 -1.1775873462853745 -3.2344343884836553 0.7496622746584745 0 0 -1
331 0 2 0 -0.3958724974378107 -3.1288259716418185 -0.7241005068392603 0 0 -1
482 0 2 0 8.71262543362651 -7.015772814944145 -1.856899163799941 0 0 1
84 0 1 0 7.949983106985393 -7.731688296060933 -0.6682338234607084 0 0 0
484 0 2 0 8.323121157703977 -2.9808341979989414 0.9211707332655106 0 0 0
385 0 2 0 8.355057461462174 -7.188339746966362 0.7644043280794719 0 1 -1
479 0 2 0 6.642911275166949 8.20781328725008 -0.8328248179685867 0 -1 1
164 0 1 0 9.785446707887811 -6.796746536819566 1.5765267888084118 0 1 0
138 0 1 0 9.805710798068581 -3.657562084987765 1.2280435091343556 0 -1 -1
441 0 2 0 9.889547049542024 -5.223824286731363 1.446006036781334 0 0 -1
473 0 2 0 10.783303486238317 -7.757205601985369 0.686462705354316 0 1 0
516 0 2 0 10.795535001100472 -3.260099962201627 -0.009023324607730032 0 0 0
261 0 2 0 11.273356187577289 -7.602156113549048 -2.309503387640934 0 0 1
13 0 1 0 12.854472613949728 -7.568713560340967 -2.008751579647437 0 0 1
440 0 2 0 13.132857168595951 -6.935983943174613 -0.5752164513273446 0 0 1
150 0 1 0 14.167139862143745 -7.1294677078615365 0.6647531501853496 0 -1 0
271 0 2 0 13.525689436608499 -7.054260415141611 2.1870009853557555 0 0 0
534 0 2 0 15.182321781254192 -4.7394220602610515 -2.265872870364179 0 0 0
305 0 2 0 15.227471143222783 -5.989055669216751 0.1773145265763887 0 0 0
437 0 2 0 15.889815496633627 -3.597588590601495 0.1206472923362849 -1 0 0
62 0 1 0 15.971889239054516 -4.866085158519055 -0.8308601251953274 0 1 0
41 0 1 0 18.24999673534946 -6.3045211851641865 -2.226386538700205 0 0 0
707 0 2 0 18.736626275967364 -7.387697345487718 -1.0649771914096746 -1 0 0
608 0 2 0 17.429434478810652 -5.351462835237749 -1.232407222164973 0 0 0
70 0 1 0 17.913854438981968 -6.207626975145268 2.210421773602425 -1 0 0
538 0 2 0 17.344700066271873 -7.346032854533782 1.2560144134497797 0 0 0
564 0 2 0 16.886224560763143 -4.994061502395082 2.4445122453712784 0 0 -1
243 0 2 0 19.32132111102683 -5.718095865341167 1.652421167052358 -1 0 -1
206 0 1 0 18.08903648114229 -8.286912618598077 0.2082875571342626 0 1 0
160 0 1 0 -18.90148133290368 0.6654022797607766 -2.113316528650241 1 0 0
281 0 2 0 -18.454678823250955 -2.566883448126422 -1.6001957612098847 0 0 0
181 0 1 0 -16.1513001242528 1.7126718765759428 -2.1324393108502324 1 0 0
602 0 2 0 -17.361506458153315 0.7448129201141462 -1.7343690635287219 0 0 0
242 0 2 0 -15.992465180013024 1.254901824712313 1.3999665742350302 0 0 0
558 0 2 0 -19.552975089648186 1.740233630250934 -1.040143203933928 0 0 0
149 0 1 0 -15.579526287241311 -0.23572014709356992 1.6986665891796289 0 0 0
489 0 2 0 -15.361023600157871 -1.3685870587926319 0.46881843336317885 0 0 0
581 0 2 0 -19.878515936427632 -0.6076949555379096 -2.127670482411985 0 0 -1
139 0 1 0 -20.049458606841842 -2.1767219964949334 -1.8411754513766034 1 1 0
444 0 2 0 -15.868312906546482 2.531544613747272 -0.7728452790297489 0 0 0
474 0 2 0 -20.453134367940372 2.0743139523535667 1.3062131089194313 0 0 0
102 0 1 0 -16.38037201390528 2.6777523593779584 0.7158422570402241 0 0 0
466 0 2 0 20.646444409862124 -2.354686917538608 -0.5234946205565381 -1 0 0
346 0 2 0 -12.510309251594835 -0.16371432854117707 -2.25027567501742 0 0 0
682 0 2 0 -14.036048054481064 -0.23342416425909462 2.338043792706733 1 0 0
46 0 1 0 -12.872392532276336 0.9216091413948249 2.304240399412583 0 0 0
536 0 2 0 -11.152390020203319 2.162082095421777 -0.7789874617268033 1 0 0
537 0 2 0 -12.946126496080051 1.8454210508248607 0.9930644171071208 0 0 0
630 0 2 0 -11.108997876928484 -2.5775280500297617 2.1060432452084985 1 0 0
667 0 2 0 -11.502209802896912 0.0917788133226729 2.4786129582825804 0 1 0
199 0 1 0 -9.658372176655508 1.8250411794841686 -0.331986092166364 0 0 0
454 0 2 0 -9.549240127892022 2.676787057551987 1.0849559193646936 0 -1 0
720 0 2 0 -9.382406141216704 0.2806798365920713 0.12056626703509288 0 0 0
423 0 2 0 -9.113041436987162 -2.319687760792829 -1.7753898590637025 0 0 -1
695 0 2 0 -8.227956164082315 -0.09450083326928116 -2.663509198488075 0 0 0
632 0 2 0 -8.620564644339085 2.2067981023378547 -1.5238221948148265 0 0 -1
266 0 2 0 -8.004523512434059 0.043673854308117654 2.285304011068728 0 0 -1
643 0 2 0 -8.788059160725188 -2.184782572033308 1.2684442986393432 0 1 0
40 0 1 0 -8.313259445767244 -0.6987532298513459 0.8661795607070548 0 0 0
202 0 1 0 -7.558984366906804 1.343600494291664 -2.34212055094838 0 -1 0
686 0 2 0 -6.583926184615311 -2.0313746910684642 -2.202320537299422 0 -1 0
671 0 2 0 -6.984904070229909 -0.9336575293621303 -0.020087424162044343 0 0 0
192 0 1 0 -5.857841744355261 -1.7748815165804253 -0.7724558486070485 0 1 0
393 0 2 0 -4.449048615593579 -0.889913152402098 -0.37599697152799294 0 0 0
365 0 2 0 -4.914477595208522 0.8017789632820804 1.6846726679259287 0 0 0
395 0 2 0 -6.167704807392093 1.5044539761223579 -1.4437910119715234 1 0 1
120 0 1 0 -4.923307261708915 2.4220216040985854 1.8381778361617958 0 0 -1
591 0 2 0 -4.305996490801739 -1.9171127554454515 1.937804870492025 -1 0 0
106 0 1 0 -4.117419570541255 -0.4776082395175054 1.1292625148516429 0 0 0
318 0 2 0 -3.7773617058056246 2.541047667627396 -1.0310773755125524 0 0 -1
9 0 1 0 -5.380026869153713 2.7879140569648317 -0.9653761850405429 0 0 0
486 0 2 0 -5.711619066953242 3.0335227940995235 0.5879888419036003 0 0 -1
513 0 2 0 -3.4272295864399496 2.8886984089966905 1.5014362086469841 0 -1 -1
329 0 2 0 -2.5830146996788628 -0.13594997343526494 1.3598515522077346 0 0 -1
64 0 1 0 -1.4847634269510088 -0.6267103355423149 2.4770315316190192 0 0 0
696 0 2 0 -0.902768647000638 -2.0827066084140142 1.8931197499497507 0 0 0
659 0 2 0 -0.4602225813809646 0.5755388018416969 2.719849913333814 0 -1 0
507 0 2 0 2.5315056502920363 2.2687628672307323 0.5646048753475004 0 0 0
559 0 2 0 7.91609037680286 0.8061522096008993 -2.6855403575138777 0 -1 0
117 0 1 0 3.2781415042430915 1.9663062524788888 1.9953455553003572 0 -1 0
455 0 2 0 4.245898540417095 -0.7126760247676529 -0.24365420989722786 0 0 0
116 0 1 0 8.881932791800327 -0.18099804174972434 -1.9794224717357967 0 0 0
689 0 2 0 8.044363531564482 -1.116216274566595 -0.9028168090862136 0 0 0
127 0 1 0 7.913666658244903 -1.3987770805214446 0.6410458968552568 0 0 0
658 0 2 0 6.519317143370138 -0.8505035714689226 1.1779042149579375 0 0 0
131 0 1 0 5.13723768802512 -0.16408768184148492 0.8806754593777537 0 0 0
660 0 2 0 4.493932201158433 0.919115850666504 1.8593864233038726 0 -1 1
697 0 2 0 13.387002977848237 -2.8423877387164342 0.4742839956612137 0 0 -1
285 0 2 0 9.181804226359919 -0.6752238916003801 1.6490014340111987 0 -1 -1
264 0 2 0 10.517245282737456 -2.69763789648251 2.3776517739734757 0 1 1
713 0 2 0 10.007734531717968 0.37000256890207517 -1.0133473217985465 0 0 0
167 0 1 0 10.693743391277856 -1.0959855894410646 2.1050066021974008 0 0 -1
379 0 2 0 10.617811500752175 2.53020821278038 -2.422442957382402 0 0 1
228 0 1 0 12.139330730909354 1.951899804275584 -2.468887605034972 0 0 0
44 0 1 0 12.025896202167882 -2.227717229240426 -0.13466932274653054 0 0 0
421 0 2 0 12.156832665513743 -1.7138822461274366 -1.6148360048868797 0 0 0
235 0 1 0 12.423149697830898 0.5603483564958225 0.4203047343190782 0 0 0
413 0 2 0 12.68367563070721 1.0356360866160408 -1.1424278367851635 0 0 0
445 0 2 0 13.919400072195149 0.4584699309402005 1.1097462438646204 0 0 0
646 0 2 0 11.657079317804563 1.8238068725471699 1.048125909362442 0 0 0
620 0 2 0 11.71001673015326 -0.9208036091431167 0.7916595996022746 0 0 -1
75 0 1 0 14.81205682407813 0.003863134457811057 2.320720633866978 0 -1 0
48 0 1 0 14.969112535497228 -2.357069905240661 0.5903864028425616 0 0 0
399 0 2 0 18.025015915529483 2.631287983573573 -2.747947968459256 0 0 0
592 0 2 0 16.47675356052412 -0.4165751439235681 -2.657692159512769 0 0 0
504 0 2 0 15.142240956535066 -1.597224999627386 2.015993448956909 0 1 0
265 0 2 0 15.372717362351718 -1.2800582657267618 -0.5447766624402677 0 0 0
280 0 2 0 16.224372950295507 0.7970420994409757 2.207432187542544 0 0 -1
502 0 2 0 19.214708684307706 -2.193096397097319 1.7272213283937248 -1 1 0
65 0 1 0 19.399748819158173 -1.6344747516294795 0.20943905094311432 -1 0 0
523 0 2 0 19.830973995826792 -0.028256635160966326 0.29989183125833563 0 1 0
508 0 2 0 18.470418917391296 2.01384534410718 1.3146285483298463 0 0 0
57 0 1 0 16.73157728814878 -0.5542228882699085 -1.0664498773276208 0 0 0
589 0 2 0 17.960875804967305 -1.497178733801423 -0.5342892587598049 0 1 0
73 0 1 0 19.869400721968315 1.1708093771258081 1.3740083068733195 -1 0 -1
517 0 2 0 16.80444011964151 0.8794956969329384 -0.3055908742340385 0 0 0
158 0 1 0 16.91769134549357 1.782416993780986 1.0705669183716306 0 0 0
693 0 2 0 -20.589423008913485 8.058183310872053 -2.726993681058186 1 -1 0
320 0 2 0 -16.010914758129992 -8.269452544213284 -0.7977055318773658 1 1 -1
32 0 1 0 -19.48614856044569 2.7262337475798386 0.20505400565231824 0 0 0
624 0 2 0 -17.932353780485382 2.8830670350764045 0.7183842027572478 0 0 -1
635 0 2 0 -18.43695420942697 4.065909811264369 -2.2804339706391685 1 -1 0
166 0 1 0 -19.598075514967615 8.158116634778992 1.4083328655548843 1 0 0
295 0 2 0 -18.219591327330075 7.6656622047385525 -1.651800016392393 1 -1 0
263 0 2 0 -16.152389789946493 6.514217709994826 2.3942396166505606 0 0 0
430 0 2 0 -18.036327496171417 8.083121610668009 0.9017655478835955 1 0 -1
172 0 1 0 -15.099226453177273 5.638044948064909 1.480679425554051 0 0 0
642 0 2 0 -15.661555214313356 4.084470367016735 1.5307190149459728 0 0 1
376 0 2 0 -20.113120365348486 4.251061568677672 -0.01678793828589953 0 0 0
573 0 2 0 -20.045972904141276 5.040662474396507 2.511154841019202 1 -1 -1
654 0 2 0 -20.142484989815717 6.823243844592202 0.6171724326837698 1 0 0
45 0 1 0 -20.570241868493934 5.313075706392649 0.999615993457903 1 0 0
292 0 2 0 -11.490342401696312 -8.21352417319315 -0.6227088072039892 0 0 1
42 0 1 0 -12.33052951857875 2.92276354092669 0.0026495943424880153 0 0 0
391 0 2 0 -14.663613415234504 5.107944396510437 -2.627444015078453 1 0 0
383 0 2 0 -14.753761381323107 5.937117807054991 -0.08363405056713091 0 0 0
617 0 2 0 -12.494485633078758 6.131020908914557 -1.4907636324994407 0 -1 0
162 0 1 0 -13.821346223435519 5.312622604341705 -1.2586694745395954 0 0 0
500 0 2 0 -13.672283638697385 5.941842017851542 2.266749581991313 0 0 0
81 0 1 0 -10.042035238401505 4.177556908014292 1.414564924122871 0 0 0
7 0 1 0 -11.34973504238826 7.305422724916681 -1.5865513592369407 1 0 0
269 0 2 0 -11.509790476462946 4.144552722878277 0.7957812821603998 0 -1 0
422 0 2 0 -13.400809449920759 3.767765051921984 -0.8567262841094276 0 0 -1
524 0 2 0 -9.967763575463048 6.622438444015517 -1.1473031040149628 0 0 0
275 0 2 0 -5.376118324167024 6.609760412777909 -2.5403785196196287 0 -1 0
550 0 2 0 -6.5051535101719615 7.964529528332395 2.4521311366262495 0 -1 1
629 0 2 0 -8.932311677313079 7.686918684048855 1.299201584639956 0 0 1
429 0 2 0 -8.931274581808864 5.123032585452261 0.6921902544033465 0 0 0
100 0 1 0 -8.789875144323101 6.613211856393715 0.07710567059807794 0 -1 0
205 0 1 0 -6.635078744507391 7.374462122903164 -1.8583535598909684 0 0 0
377 0 2 0 -5.832081385564253 3.90214035787697 -2.0174373325678703 0 0 1
494 0 2 0 -7.361196588891236 6.70025107451244 -0.6172958635670804 0 0 0
114 0 1 0 -4.933762795117664 8.041789594808584 2.419051288151401 0 0 0
575 0 2 0 -3.188854647697166 4.982604547184199 -0.19240004310510095 0 -1 1
6 0 1 0 -8.118844426765584 8.272012779871282 2.584983814976111 0 -1 0
18 0 1 0 -2.8815224548501632 3.412322154646956 0.07592591557667916 0 0 0
401 0 2 0 -1.3575600994196435 3.1953904348620874 -0.19380439275441397 0 0 0
490 0 2 0 -1.0927809781761546 7.418104042695646 0.7516944318997698 0 -1 0
317 0 2 0 0.33569677538326204 5.389711144730173 -0.3456977340643981 0 0 0
514 0 2 0 -0.8084970379245959 4.252239149835301 -2.5724270241008913 0 0 0
91 0 1 0 -0.4776194600128427 4.255926153972361 -1.0375007240404122 0 0 0
15 0 1 0 -0.015005666709392074 6.3214731352383815 0.9643056396105898 0 -1 0
250 0 2 0 1.3830852523810186 6.8530013547716635 1.6751634622916356 0 -1 0
715 0 2 0 -0.5966878569863603 5.218317845891892 2.0165255938966684 0 -1 0
101 0 1 0 1.9691584291309923 7.01889019819213 3.0873358329521317 0 0 -1
532 0 2 0 8.51896045441353 3.3534948925834964 -0.6614259074164934 0 0 -1
612 0 2 0 3.7443563729361493 3.403268753618528 2.6660777802010465 0 0 0
25 0 1 0 10.1116096602901 6.479234702896942 -2.49342225466866 0 0 1
669 0 2 0 9.630399705849221 4.9583049782188855 -2.3963987765298125 0 0 0
610 0 2 0 13.052454370360362 3.2640149275150545 -2.541779042953152 0 0 0
237 0 1 0 9.882489079875931 3.6019395985034297 -1.477588811846923 0 0 0
653 0 2 0 10.056991205745383 7.060383512840293 -0.8980668040319886 0 -1 0
52 0 1 0 11.033306108493314 7.516509128213478 0.3143096340657152 -1 -1 0
556 0 2 0 10.800470711489751 6.693473547191955 1.7149115741890704 0 0 -1
583 0 2 0 13.760930602358993 7.918217458037937 -2.3219371928976793 0 -1 1
355 0 2 0 12.507140922476513 7.036004279801331 -0.10138764464035432 -1 -1 0
609 0 2 0 11.022880557412375 3.9325549027468494 -0.3754635302299629 0 -1 0
188 0 1 0 11.918947608599307 3.369417603870751 0.8205281691293216 -1 0 0
709 0 2 0 13.533177974640264 3.452769040316742 0.546837157641832 0 0 0
189 0 1 0 13.911309809142221 6.68048929513032 0.6371266552123593 0 0 1
367 0 2 0 11.620891943076035 4.301280900644979 2.109735299302555 0 -1 0
382 0 2 0 14.655286440192949 8.138185199433138 0.6052876871784889 0 0 0
503 0 2 0 13.345835804711395 6.329187112465904 2.1176885575567983 0 0 0
79 0 1 0 11.831864849922216 5.819985736951502 2.5866289980464927 0 0 -1
353 0 2 0 14.857527606866231 5.508463655456083 0.10916339136244524 0 -1 0
491 0 2 0 16.177855640214513 6.926039599827742 -3.03829476591714 -1 0 0
619 0 2 0 -20.66094465746225 5.566382533630005 -2.497934163696776 1 0 0
58 0 1 0 15.016313746977954 3.8593867977191625 -0.01712732098966896 0 0 0
351 0 2 0 15.595108762829614 3.459726934923223 -1.5527052543817046 0 -1 0
238 0 1 0 16.79489512939509 3.6795989709389154 -2.5834449786552325 0 -1 0
650 0 2 0 16.137027104825474 3.1824898840052196 0.9121216766786606 -1 0 0
677 0 2 0 17.494002031079727 4.9873087176070925 -1.9175399838086005 0 0 0
409 0 2 0 17.338141180873098 7.400946520473784 -0.6980123377450669 0 -1 0
268 0 2 0 19.036767487001033 7.756284804789242 1.2759691886350897 0 0 0
207 0 1 0 18.759034382267398 6.401500293861183 2.211797492259441 0 0 0
53 0 1 0 17.448134671405878 6.575725901092287 -2.071661739488512 -1 0 0
718 0 2 0 19.462474346237737 5.227948801653561 1.2820827249536446 0 0 0
335 0 2 0 17.23087548861015 6.405502297546489 2.60432782497576 -1 0 -1
706 0 2 0 -16.317836917995546 -7.632120247585121 2.8645107352528036 0 0 0
98 0 1 0 -16.785390916292464 -6.131438932618202 3.4121231787606945 0 0 -1
456 0 2 0 -18.42051139872751 -5.375249412441977 7.293156436651243 1 0 -1
637 0 2 0 -16.843869240331333 -3.9233488120027555 5.678735012712609 0 2 -1
214 0 1 0 -18.10254269606017 -4.9317612271414575 5.733781752009959 1 0 -1
301 0 2 0 -17.65203100430126 -6.162752603647174 4.765716192400067 1 1 0
252 0 2 0 -15.447570507305402 -5.2759985877270115 3.580852587364893 1 1 0
247 0 2 0 -19.4573981359153 -4.339699199110084 5.125495974494783 1 1 0
151 0 1 0 -16.55252220197376 -7.887358720993779 7.880226322184376 0 0 0
574 0 2 0 -15.820276334888922 -7.648715295144508 6.467554163677969 0 1 -1
321 0 2 0 -20.2767086370109 -8.279322288307295 5.497172654886025 0 1 0
457 0 2 0 -18.045638354612088 -8.407788929957846 7.644253196482845 1 1 0
417 0 2 0 -20.714090008981003 -6.037387509624942 3.649611482967325 1 0 -1
170 0 1 0 -13.152516523078713 -5.480195792241339 8.231982121820929 0 0 -1
692 0 2 0 -9.57389176080172 -3.436331287735147 8.292835462538 0 1 -1
198 0 1 0 -9.647597202281297 -6.017967409073155 2.903567407794098 0 1 0
333 0 2 0 -13.870180146606767 -5.740346446867475 6.907455855814922 0 0 -1
375 0 2 0 -13.840801223860396 -3.2730116706063432 3.6308228484831933 1 0 0
210 0 1 0 -10.42797458829961 -6.489923357644947 8.173802122037602 0 0 0
554 0 2 0 -11.854238730035815 -4.022571538271758 5.189044013293248 0 1 0
483 0 2 0 -11.009117937284206 -5.6868543959837226 6.902153843053073 0 1 0
701 0 2 0 -11.36244114636268 -7.803343087384148 8.161123243634202 0 0 0
651 0 2 0 -10.198540790415011 -6.031157429166157 4.402359020887056 0 1 0
110 0 1 0 -10.626951322019195 -4.943157297054312 5.537521236092722 0 1 0
56 0 1 0 -14.561048728474319 -8.245872957760513 5.728163559741661 1 1 -1
464 0 2 0 -9.220451449506468 -4.119125612391504 5.8386231421217385 0 0 0
496 0 2 0 -12.720382446827026 -8.34525947640515 3.1969086029155083 0 1 0
89 0 1 0 -5.8300771508755584 -3.4991066296275175 -8.242605198203147 0 0 1
481 0 2 0 -8.944296356520848 -7.072804653705838 7.923766607278926 0 1 0
186 0 1 0 -8.507734635771355 -3.4859796748696814 7.126072037429548 0 1 0
403 0 2 0 -7.08876371369421 -4.179322178289965 7.594356530840182 0 1 0
545 0 2 0 -4.404365019460357 -3.7684625497584907 7.897774782362818 0 0 -1
211 0 1 0 -3.1470569947710167 -4.7766284248967485 7.816437448327276 0 0 0
567 0 2 0 -2.885245053364418 -5.3966366506648855 6.314716306701174 0 1 0
194 0 1 0 -0.38829690859521904 -5.283707246148455 2.7630771100329614 0 0 1
402 0 2 0 0.9295917844756012 -4.1585618490356095 8.267689235903157 0 -1 -1
394 0 2 0 -1.6657641281134268 -4.150879518121999 8.080491336140733 0 0 -1
251 0 2 0 -0.23497265395037203 -6.55837392367544 7.761827821216253 0 1 0
431 0 2 0 0.5547508142475692 -7.795105315379938 5.481051702657368 0 0 -1
146 0 1 0 0.16501599235476405 -7.99880655547182 7.044593594161844 0 1 0
277 0 2 0 -1.7132088270673727 -5.349400056976066 3.727415018578993 0 0 0
717 0 2 0 0.4982233049837532 -6.752801970551976 2.9915683673404754 0 0 -1
560 0 2 0 -0.34364393850310293 -4.841340636085367 5.667356720400791 0 -1 -1
218 0 1 0 -1.9131426114169265 -4.731046390262226 5.171667576927112 0 0 -1
662 0 2 0 0.6606615842242043 -4.214563913490812 3.4906218347325773 0 0 0
130 0 1 0 1.4129637474700516 -7.2093952572694695 4.303303197432262 0 0 -1
169 0 1 0 1.0856829526335474 -4.462905660792096 5.029799098792644 0 -1 -1
535 0 2 0 1.7599122704305188 -3.369189665756907 5.893391788207117 0 0 -1
518 0 2 0 2.048218967050861 -5.787030405769423 4.870211498959991 0 0 -1
109 0 1 0 1.3460270729110384 -2.861816000516951 7.376045654297828 0 0 -1
661 0 2 0 -2.2558674130217824 -3.2021573696972725 4.946641683033837 0 0 -1
286 0 2 0 2.2758501492314096 8.397410744549518 3.81491028926048 0 -1 0
397 0 2 0 9.867804373880794 -7.208353433621443 3.09568412340583 0 0 0
649 0 2 0 12.13191646983957 -7.862824943889571 8.286020771329314 0 0 -1
613 0 2 0 14.526795069906502 -3.971856578568352 3.5929689859519183 -1 0 -1
93 0 1 0 13.898221259204039 -7.218335604292302 3.792695989888818 0 1 0
308 0 2 0 14.076385056739898 -6.504159835605861 7.285211025765166 0 0 0
246 0 2 0 12.943940304599206 -6.47462349304373 4.876555146584588 -1 0 0
471 0 2 0 13.653118003416001 -4.220600500227513 5.942355620313679 0 1 1
719 0 2 0 11.624191217004569 -5.628970157908363 7.090809392878967 0 1 0
55 0 1 0 13.031640750735196 -5.641421755801807 6.23925115741393 -1 0 -1
22 0 1 0 13.997520158105356 -3.1239897318097105 4.862717931943045 0 0 -1
111 0 1 0 13.765780274469417 -7.905252218235082 8.059910322687214 0 1 0
373 0 2 0 15.230535260807205 -6.376493758884881 3.909377026981348 0 0 0
54 0 1 0 15.806368138175149 -4.919561602628277 3.610450008606847 0 0 0
289 0 2 0 16.27591960918866 -7.878588035022975 5.8184967689148746 0 1 0
384 0 2 0 18.0018084417413 -6.2160014290659475 6.416692703712487 0 0 0
17 0 1 0 17.359742580306484 -6.944866559041786 5.1755131547934585 0 0 0
622 0 2 0 20.112920829477797 -5.042319571533454 6.181340865836722 -1 0 -1
105 0 1 0 19.33339484941936 -5.835240921997747 7.287791356997559 -1 0 -1
618 0 2 0 20.159366150336613 -7.155659359272322 7.571976932485816 0 0 -1
488 0 2 0 17.973301315887586 -6.934023671718797 3.703410584306008 0 1 -1
505 0 2 0 19.732478347331433 -3.8685254958985222 3.8234257321577605 -1 0 0
140 0 1 0 20.772057927399178 -4.8218021123235815 4.709362621988431 -1 0 -1
463 0 2 0 16.68500639072617 -4.32383511542367 4.878563355242504 0 -1 0
540 0 2 0 -16.669646442191492 -1.0091901502814329 2.487008484626438 0 0 0
357 0 2 0 -18.641870900839862 -2.7803552688225626 3.011276207562716 0 0 0
348 0 2 0 -17.31114384116877 -1.0251701993279676 4.8770859624231715 0 0 0
694 0 2 0 -15.550947434298006 1.1077535143812902 4.520300236941923 0 0 0
544 0 2 0 -17.509875871697595 1.2119154289630636 6.154058563779417 0 -1 0
212 0 1 0 -17.979609736477418 -1.3218219130608713 3.378975682863654 0 0 0
702 0 2 0 -19.182861487000476 -0.28022981148494 3.271281505707245 1 0 0
29 0 1 0 -16.4913976854423 0.18005101969637316 5.5221127333058835 1 0 -1
586 0 2 0 -15.492368937033028 -0.4035781909460727 6.623650430302 0 0 0
576 0 2 0 -20.402393303808317 -1.7922895812769157 7.187881060594805 0 0 0
12 0 1 0 -20.67176043816791 -0.12592850259656707 3.892393807954168 0 0 0
339 0 2 0 20.614884662519568 0.8389004309395727 5.124122698538624 0 0 -1
226 0 1 0 -12.938560469597142 -2.8666221422699625 4.932280153584577 0 0 -1
142 0 1 0 -14.31820105168378 2.1865694856915727 4.683175172422297 0 1 0
128 0 1 0 -14.333498903782495 -1.3901289628942406 7.182621874726031 1 0 -1
324 0 2 0 -13.953949541850161 -2.564140214415744 6.149323132140717 0 1 0
621 0 2 0 -12.104920229357637 -1.5979530729781315 4.378524898357682 0 1 0
215 0 1 0 -11.878797948695318 0.4791803550692144 7.950551449825339 0 0 -1
323 0 2 0 -13.009895665869044 -0.49301071565788224 7.420508941989274 0 1 -1
362 0 2 0 -13.17045236126791 1.8348643122712236 3.60657373681752 0 1 1
240 0 1 0 -11.041070351286622 -1.3322086815218288 3.200357769251587 1 1 0
700 0 2 0 -9.57541530695408 -1.2793193701878316 3.7942472343708893 0 1 0
708 0 2 0 -11.343786484881972 1.4508614352698306 6.805272899362249 0 0 -1
687 0 2 0 -13.868265403402834 2.1607990016374856 6.179654916182322 0 0 0
270 0 2 0 -9.164484411076419 2.737545868338035 6.677643723262994 0 0 0
603 0 2 0 -4.844499308578019 1.7939490656857693 8.034500017765092 0 0 -1
118 0 1 0 -8.262541342454185 -0.35601839743050867 3.815471447072417 0 0 0
415 0 2 0 -8.592068769614583 0.9498069373770548 4.745818859967292 0 0 1
133 0 1 0 -8.219141348970142 2.427367395857196 5.393720926515966 0 0 0
366 0 2 0 -8.097431627249966 -1.9543088243969784 6.886913432144871 0 0 -1
369 0 2 0 -6.644185351143362 2.3971004931439577 5.576645815973896 0 0 0
176 0 1 0 -7.053454487760298 -0.9723673634407692 7.7532363391588195 0 1 0
182 0 1 0 -5.663999270903682 -0.6886055069903119 5.129048738934275 0 0 0
371 0 2 0 -6.946021522825058 -1.058873061010785 4.311167907706183 1 0 0
703 0 2 0 -6.107196337847162 -0.269693476691538 6.658109987361714 0 0 0
390 0 2 0 -5.090385752152859 0.6319674673518705 4.462916553660099 0 0 -1
213 0 1 0 -5.2780012325876235 2.240564415600179 4.681693279336592 0 0 0
426 0 2 0 -4.073002188781157 2.7130553896681686 5.6073359715483075 0 -1 0
526 0 2 0 -4.48206819956053 -1.7897662972129025 5.191519105335544 0 1 0
88 0 1 0 -4.268454119480317 2.9845129781806996 7.1543644960624935 0 0 0
307 0 2 0 -5.474713040154782 2.818940489803582 3.2493173867991896 0 0 0
460 0 2 0 2.0122514716064117 1.5329674833572842 2.9636342980746644 0 0 0
230 0 1 0 -1.1009699675601787 -0.8057940058351605 7.6081261573652466 0 0 -1
655 0 2 0 -0.6065796803882506 0.598720242026527 7.164677060216652 0 0 0
663 0 2 0 -0.017476792194742075 -1.9838655755445966 7.124520624508516 0 -1 -1
143 0 1 0 -2.868625860958449 -1.735444442145024 5.204947164593312 0 -1 -1
452 0 2 0 -2.254697772288985 -0.9293685870623749 3.896247201094088 0 0 0
572 0 2 0 -2.4803376885924884 -1.1361077827133466 6.660541150912428 0 0 -1
229 0 1 0 0.46765792339757084 1.76100634312799 3.147557525705105 0 0 0
309 0 2 0 2.494015779218344 -2.0014223432260394 8.082142820795374 0 0 -1
410 0 2 0 11.590598689888377 0.6873319717353983 8.386118897145101 -1 0 -1
665 0 2 0 14.558378977950891 -1.6298518433782947 8.08312460369042 0 0 0
561 0 2 0 13.87741135726635 0.1695148336428165 3.588337853710499 0 0 0
478 0 2 0 11.304396520599749 -0.3509870050205368 3.4177628025365596 0 0 0
495 0 2 0 12.618997775762214 2.8074014862700842 7.185647179359799 0 0 0
244 0 2 0 14.124935297025555 0.8091143105402843 7.829167125850715 -1 0 -1
691 0 2 0 12.4399353305805 0.4219660969681307 5.812834944375457 -1 -1 -1
175 0 1 0 12.659682549117182 1.1521861799027704 7.26653860474446 0 -1 0
203 0 1 0 12.610671457316808 -0.45319043867866426 4.405552654814242 0 0 0
273 0 2 0 12.821021440637448 -2.014755373473868 4.702492952831239 0 0 0
419 0 2 0 19.984095771067555 0.49047521483691625 2.7755489311205626 0 0 -1
208 0 1 0 16.930971903054104 -2.7963918567567596 5.311842250901016 0 0 0
187 0 1 0 15.260483024688948 -0.2533392434206245 7.489339890683587 0 0 -1
506 0 2 0 15.328114467298182 -2.329583643341791 5.287419961753969 0 0 -1
407 0 2 0 15.818802003573634 0.22453433400652045 6.060144936245189 -1 0 -1
343 0 2 0 16.690845628423897 2.450329483865403 7.250636540978862 0 0 -1
239 0 1 0 19.260398939610223 -2.420847387365834 3.44108027686322 0 1 0
296 0 2 0 20.369037421553127 -1.5462080784564378 4.192057963689999 -1 0 0
656 0 2 0 17.513544706461115 -2.286466492264271 6.740558970984177 -1 0 -1
712 0 2 0 16.68659591792611 -0.4330210606752276 8.253902559292198 0 0 -1
50 0 1 0 18.09531319153591 -1.1378031949014842 7.707814411482071 0 0 -1
185 0 1 0 19.22935870922112 1.20852068312165 5.869586410585578 0 0 -1
716 0 2 0 19.502406363174604 2.597578592187233 6.701450387073109 0 -1 -1
605 0 2 0 18.922137284418024 0.12883468660337982 7.026310475495514 -1 0 -1
389 0 2 0 17.870433904933154 1.5112895293284847 5.111641260217349 0 0 0
248 0 2 0 17.82029012501057 -2.130459185498344 4.091594764720169 0 0 0
125 0 1 0 16.41233295286744 1.709721333854878 5.7756579079578625 0 0 0
342 0 2 0 15.31639556455271 2.502269640375797 4.968521141810644 -1 0 -1
4 0 1 0 -17.693842695284882 2.6036166328689596 6.859637183583583 1 1 -1
590 0 2 0 -19.7043380162888 7.96087156867134 3.019834105611798 1 0 0
119 0 1 0 -16.448620757915407 4.048865497125876 3.9485316274841686 0 0 0
236 0 1 0 -19.293270148087885 7.7377828629124465 4.5074636573251645 0 0 0
154 0 1 0 -16.333827179702716 7.71128951950536 3.5094965406647525 0 0 0
124 0 1 0 -15.111062871647018 4.03723508998829 7.959470277013315 0 0 0
442 0 2 0 -17.60074118486942 3.164444186130593 3.382670062701541 0 -1 0
326 0 2 0 -16.29113279443135 3.3786429175747283 7.036022370105853 1 0 0
578 0 2 0 -18.661998621160716 3.668421288440717 6.117140419381075 0 -1 -1
178 0 1 0 -18.36285853649695 5.238162985133929 5.827416241311592 0 0 0
565 0 2 0 -19.485242731141046 6.11368358845845 4.869878702979433 1 0 0
497 0 2 0 -17.662035229000715 7.755944883600563 4.422009840278713 1 0 0
26 0 1 0 -18.876614365392687 7.121213445492044 8.177406077241434 1 -1 -1
525 0 2 0 -17.026037773160965 5.184785033546124 4.875736001115698 1 0 0
548 0 2 0 -18.248332469230128 5.96391333703251 7.248848785255774 0 0 0
363 0 2 0 -20.403757904664058 7.375985108112314 7.7300813379523365 1 0 -1
332 0 2 0 -14.970449058189592 3.6490291944285254 4.26345378007275 0 0 -1
606 0 2 0 -15.000768750412679 7.628124353274682 4.528439399622384 0 -1 0
325 0 2 0 20.794573120848074 4.626241656506325 7.390848889171357 0 0 0
223 0 1 0 -20.655020285015055 5.390447142526858 3.9440795564753994 1 0 0
290 0 2 0 -13.161815979411399 8.396170695423624 6.265367596363319 0 0 1
657 0 2 0 -10.190774099198995 4.744463633890376 2.8637728909600053 0 -1 0
664 0 2 0 -13.98123016714429 4.897843365800984 7.197268935504592 0 0 0
177 0 1 0 -10.812204542518932 2.916486849954458 6.666750780498912 1 0 -1
259 0 2 0 -12.351592368240762 6.1171118248414675 4.469074487354449 0 0 -1
152 0 1 0 -13.053544055224254 6.9420815547595875 3.354782723048171 1 -1 0
121 0 1 0 -12.529219554279376 5.130141619646128 7.8728295552174234 0 -1 -1
434 0 2 0 -11.831153088242347 6.541604748500205 7.494635555500212 0 0 0
300 0 2 0 -10.910226024075586 3.5124716393174022 5.140662781920488 0 0 0
448 0 2 0 -10.524185831586514 8.142916533262003 5.8709803831465734 0 -1 0
304 0 2 0 -11.551694190206002 3.873432565893266 7.68912572092256 0 0 -1
159 0 1 0 -11.739398053311197 8.066574530379562 6.903651627112909 0 -1 0
39 0 1 0 -9.836482034113757 4.48644145604303 4.417958854699373 0 0 0
302 0 2 0 -9.488226370296497 5.706509932064982 5.45489610944483 0 -1 0
34 0 1 0 -9.161519239863454 7.312068694904061 5.414500603512796 0 0 0
640 0 2 0 -3.212555805770865 5.783032754876942 8.280742963290342 0 0 0
87 0 1 0 -6.401416591178075 4.6167997023085885 -8.375872692191203 0 -1 1
145 0 1 0 -8.205375004080647 8.34568236516239 8.013728533969688 0 0 -1
499 0 2 0 -4.093290060530215 6.811775010413722 2.8225890544055456 0 -1 0
636 0 2 0 -8.011846521228668 7.692590282601689 6.537509147623561 0 -1 -1
303 0 2 0 -8.497693701737342 3.60185497530583 4.351782691456092 0 0 -1
262 0 2 0 -8.765010708126768 7.642962992567917 3.9327003446213755 0 -1 0
555 0 2 0 -5.362724200403813 4.139723406274154 7.369422503260219 0 -1 0
330 0 2 0 -4.883976077072207 5.436179061061429 4.820286881277514 0 -1 0
156 0 1 0 -3.5962297586568965 5.85849292812307 4.050486008404368 0 -1 0
680 0 2 0 -2.7357867759570738 6.784897934265967 5.124601292901234 0 -1 0
450 0 2 0 2.614355550365641 5.6678545691196 3.5769048583005176 0 -1 0
616 0 2 0 -2.4851409629443175 4.785580160813046 3.623049276340504 0 -1 0
349 0 2 0 1.2694747977693943 8.167511749207875 7.936674069664411 0 0 0
179 0 1 0 -2.057469883300765 4.710134749052386 7.954182197909864 0 -1 0
579 0 2 0 -2.786385714708441 3.285420679499774 7.703359846326846 0 0 0
551 0 2 0 -1.243309698410986 5.112214961869812 6.690155085457155 0 0 -1
449 0 2 0 -0.9503367431188643 7.673556833292125 6.840659568213782 0 -1 0
522 0 2 0 -0.3893267012466062 5.895682222512573 4.495708795574808 0 -1 -1
123 0 1 0 -0.8673736652257418 4.668365220918764 3.4948820426577125 0 0 0
678 0 2 0 -0.18611243782239484 3.1542404597766325 3.594760318865804 0 0 0
141 0 1 0 -1.2656433841127566 6.482340987443081 5.825923250270881 0 0 0
580 0 2 0 3.5845559812762104 3.785671612735257 5.314534811233679 0 0 -1
222 0 1 0 3.5258954704106813 4.367352082831623 3.877971708153698 0 -1 0
615 0 2 0 8.825912478490572 5.190720899921068 4.355770235825963 0 0 0
94 0 1 0 10.101513105683257 5.847702450327304 4.939394062928811 0 -1 0
462 0 2 0 10.146584157916276 6.047748006790323 6.529380591340731 -1 -1 -1
14 0 1 0 10.924665852170705 5.626946238253918 7.790358369052475 0 0 0
593 0 2 0 12.45769821177807 5.323998239353234 7.618649980764458 0 -1 0
171 0 1 0 13.314005275507203 4.066699918958001 7.944535769189931 0 0 -1
396 0 2 0 14.25883530011971 8.10604772325275 4.39323592181009 0 -1 0
645 0 2 0 14.321342368450882 7.801750905682731 7.064775167510726 -1 -1 -1
408 0 2 0 11.399420151464586 6.04075168513468 4.145559574080078 0 -1 0
341 0 2 0 14.916766740378439 4.141582634222473 7.816691808993687 -1 0 -2
153 0 1 0 20.389797474455914 8.309230712805302 6.712815469589037 0 0 0
165 0 1 0 15.240810660346053 7.679755516642345 5.622963840982447 0 -1 0
571 0 2 0 20.373819754932324 4.20779969634949 4.831467211107801 0 0 0
711 0 2 0 17.59513275367404 6.902863733390328 8.207919578998853 -1 -1 0
512 0 2 0 18.481629282614232 5.139588240086535 6.409122438250106 0 -1 0
232 0 1 0 19.749009353308583 4.193828232123154 6.3089411681442 0 0 -1
358 0 2 0 19.710298477913344 6.361427258660907 3.555669705673287 -1 0 0
257 0 2 0 16.418748968381077 6.569518506989223 5.859675741789376 0 0 -1
313 0 2 0 19.013472308503797 7.71501742014182 6.152712170750066 -1 0 -1
68 0 1 0 17.87842942739655 6.612795046864525 6.614136675285687 0 0 0

Velocities

585 -2.0356584418997916 3.1861459403111656 6.547566338966157
634 -4.733651888901505 3.3815334692219206 -1.344660468803144
485 0.21932519439167755 0.6125271295749333 -0.9698342843470601
681 -1.5596492172742562 4.185524282023683 1.8405323855994224
190 1.1598781643079141 -1.0446748900518235 1.3406309632732145
566 9.21757384930035 3.259938101379135 2.1059086699926945
509 3.2519787814229333 1.8713932255565635 9.898540328376336
596 -0.5158979298059075 0.1197214598592012 5.324935996104827
539 1.4472628613160496 6.91295756381505 -5.086995878869092
147 -7.153986902614441 0.94948852304129 -1.3882810279669515
27 -0.06381203663506187 6.318209616534745 4.077894615109979
472 6.344271357516463 5.321369360741573 -1.420749458509355
60 3.420588917025087 -0.6022781365376871 0.6075885234847158
327 2.640932649812154 -3.276720579882339 0.2096210361575925
418 7.161917288286779 -3.3062381818207727 0.2781291431630238
527 0.9588484076366467 -0.3913046914804838 -2.802468278289776
135 -2.8998640749166165 -5.119280510549218 0.19467241903848825
314 0.7001415593742442 -0.644983719497803 -1.7919374295764714
388 -1.017279362814623 -7.255642834811437 6.965630165778935
476 5.759804333850541 0.5802884911483044 -1.1126951220853092
66 -4.412687320665554 -1.2903931676771607 -2.8905066336750154
470 7.5008170351080174 1.5289056640314 0.5396122208284202
386 -1.9518822102307136 0.1519499526496506 -0.09861263650464008
74 -1.132041054650169 -0.04135399163297055 -1.185397996671081
533 4.515660924439324 -0.3306179692522586 -0.8563398702210202
82 -3.21539766699718 1.2726372490239772 -0.556717098473849
625 0.9306030188778501 -8.647874460879468 1.4842121954048133
279 -3.1972112499840275 -2.9061056608053084 -5.613773767384143
416 -5.442937470357181 -1.5106888037014004 -1.2661377287705695
446 -0.012436323424879742 3.6683800756811906 -2.8142195449350087
16 -1.8520291393874446 -1.5064509310592948 0.7837277731279708
359 -0.39015804957307954 -0.15272948127735306 -4.09868705727994
2 1.048912630599592 3.5313195374281614 -2.4344215282160286
577 -0.785080802589362 1.2861424539333328 -1.6752083185458302
293 -4.835270385702591 5.623821741038743 2.466470649712972
595 5.4563733959103535 1.242035631322322 0.07574826075399155
113 1.4402221645718307 -5.012665133597583 -1.903918391492934
37 -4.558610656919531 1.3111622772016278 1.9912453473927445
477 -9.54835119682562 -5.112591906216818 -5.21383911166313
400 -1.2315001498290603 2.3861214863222373 1.303518772950242
638 -1.791819234174872 -7.9495676338453904 6.523387158096184
184 -1.766050216088692 0.7627182512667 -8.092305793341447
432 6.130637288607322 0.0008005176996195089 1.1547383688190052
221 -3.0568701799694593 -3.7522767014294742 -3.63137418059617
631 -1.479480023904708 1.7081153345701057 -2.593678182350627
274 2.151509002246888 -4.982813696250303 -2.275913306643139
674 -2.960039081378054 -7.746119078185156 -3.2512927780206007
148 -0.5674561540087398 3.4706404591576234 -1.305575246214469
352 0.16556488831680508 1.4830293909820604 -1.9361363059966705
704 0.3299867213709672 -1.509670527107005 4.9169031103202006
33 -2.6310400414453134 -1.275803034483736 0.6536944236343826
161 -4.2145273919187805 3.818674122365694 5.628202022268081
519 2.363816171257549 3.5933308992945667 2.1585988342149087
546 -0.7135090022418477 -3.860483612008464 2.3189439449516525
69 -1.0127473757939958 -0.07505011688719027 0.4608364055335391
493 -1.7463358203597072 -2.704036415942992 -5.634863056571421
67 -3.394770726878675 -4.185491143956103 -1.5208251167485256
144 -1.5912542185355532 0.5271973566112427 -0.6777182988997101
647 -3.1200163965082157 6.484131596371484 -0.6556833628581291
364 4.375670269729566 -4.623334456789854 -1.4924505184211068
404 -2.3877082915194046 2.2182415332324044 -3.150380186276089
520 2.132337263514035 -1.6187294584203429 8.365030131030437
604 -7.900058565757246 -4.504370443472807 -3.573044852876093
406 -0.5684187328786466 1.589853550319979 -1.6879813721743373
582 5.2994690351308815 3.4249511727127264 2.4717017623713953
155 0.07475543116854484 1.090623416729716 -4.940062689017691
78 -4.882163273444879 2.1837736106398764 4.315255386181074
607 2.3771335593670195 -2.518265275315136 -5.786970824277244
126 -3.4508017928491665 1.696292520966514 1.1539225374882218
288 0.6353246813623835 5.006834052750818 -0.6955632590601375
231 -1.459485967978007 -0.8374832176364063 1.0861909732801247
531 -7.382829578172326 -1.4216976198462352 -4.297769749186401
272 -2.425945394414005 4.780053966736093 -2.6840723993791014
354 -7.805634474571664 3.7340138803194187 -6.6774097729166435
334 -0.36568528240815623 0.30309627298707303 1.8121216194583747
249 2.2964959037830925 -2.1758446691475424 -0.1123665331689314
666 -0.6620822716104827 0.10249361211715449 -3.9284697256082954
95 -2.238187568556779 -2.3964647820509364 0.49392479306630616
588 1.7182956399772398 1.0473707074022256 -0.7938448855505686
92 -2.3543227488033867 4.317970706663902 0.3525302218428057
563 -3.161254127545926 0.5356317369818523 -3.622515059870743
641 -1.6947747925991175 -5.097783220071198 0.4357175844736273
195 0.11623178910966848 0.11290124589839458 -6.626486986898601
549 1.3057295747012456 3.728835717627322 -2.470499022152878
587 -4.066357503014334 -1.6856154412722626 -2.222792451880879
381 -2.772462382157136 6.848661256623804 4.558684258107824
157 5.646576624411807 1.3799402155838136 -0.9422482178734951
260 -2.1222219065304255 3.013600882230161 0.3275014644347674
338 -0.5647071346513155 -2.40091237548956 4.227060207677558
424 -2.8980215657864807 0.22553561508634037 0.006518573197584127
61 2.1893095894545382 3.4305110730275428 2.403997722828001
611 1.082224566334421 0.46168760383086804 -9.563421017235363
163 -1.3199898111294182 2.6582864720157873 3.017663591027127
436 -3.412285669833759 2.8373540924566587 0.19038262564286082
699 -2.5773098519220956 -7.843147885836664 9.403342005768927
115 3.6640160234573877 -2.002704331476624 -1.8476598965136117
197 -6.461520940351541 -3.892212851712633 0.6414585726975565
529 0.9977201918588934 -6.698017810156125 0.10272164607770536
31 -2.152589673316716 -0.8853136868782482 -0.02991685262440351
297 5.383155249854502 0.6638888360012091 -2.146631589541542
644 5.350095385457253 2.3557404658464365 1.368815861537419
173 1.0610109700663723 -2.620525286332955 -1.9166394997722815
627 -3.1529311214532183 2.6795728389559197 0.03780771497416329
372 -1.9272045802877107 -2.590464034775494 1.1834192300465052
310 -6.157582688518115 1.9144572943867024 5.47114860130255
36 -0.0018456651548709542 2.4527330187980336 -4.088379879783208
626 -1.6514564741322657 -2.6176970925687897 -1.6251098441549292
276 5.146213471142132 -1.3302879009631436 -4.9945556981822365
405 4.161629172313855 6.64443822288505 -3.460661077257576
245 -6.875689055764374 1.0572003797968408 -1.2682664909093326
137 0.8087040819206621 -4.992207106212301 2.8570963632975004
690 -5.702360901655789 3.9502795870152108 0.004712382223337867
673 2.5268514647795843 1.0416128137429588 -1.4241354701736477
668 -0.427109434172129 3.762774938048821 -2.1776399436416005
43 -1.3116760237215028 0.8422699474584098 -5.666507084500483
685 -2.2266966588062203 -3.7371855603691686 -4.577974030141708
468 -4.996441910943757 4.739361562402582 -7.375867063721773
530 0.5767733046489314 -3.1507449901990565 7.793377811289504
77 0.4798095747216989 -1.0264932010223364 -2.8539934845865145
234 -0.32193904932447087 2.977518764185113 -2.2727706347426397
319 -7.454638220455128 -2.2071719089788857 3.221903493359071
233 -0.45626835207434335 -2.705848570781424 0.29536090297006373
705 -3.3963656631334618 2.4303020662383377 -3.952757452907163
411 2.856114843383703 -3.010076629881816 -0.7439862286450193
49 0.6573874101483244 6.406682815141355 -4.3638529292506325
420 -3.5238330984508526 1.189133568241019 -0.38761701303806817
684 1.1579277482184125 -6.034049180944976 2.4790854232831263
311 5.417832935692738 -4.295109354821774 -4.425424655205314
225 3.8508457536202987 -0.6351858106024316 -4.556199259056509
108 6.944318087607244 -4.379079482558396 5.254548093953289
428 0.17643490632276576 3.6282924866995403 -4.26631536162572
361 0.33789739493443544 3.4766942486471843 -0.3363794592050736
425 2.4091323320049356 1.829738051409834 -4.852906015030427
107 -0.6662415357040762 1.9496412664538736 0.004058315436309916
601 -6.727178885818247 -0.05472262534087636 1.8599492942320772
648 7.712084538874984 -1.209951967707161 -3.3031511041801327
200 6.359595602344519 3.024306505725089 1.8382555482501701
541 1.0713190321641999 4.202557679664392 4.240019104618183
498 -4.027540237113685 2.1285709168195432 -2.6783145296536244
97 1.5099820894138174 -0.380237544223235 -5.373430544484102
584 0.006018813103753797 3.270390915838616 2.9111028486732344
542 -4.050477343667412 2.224887525072364 1.856224491306649
71 5.3152478489915325 2.692384867597304 1.5133243119294826
515 4.344189098709829 2.7097936159833798 2.443372351372793
103 -3.252347053936915 -2.5134639491984605 3.434678036188798
569 0.2026265260916751 2.500135440746035 2.3202264995875375
458 2.5907237008462474 -2.4114740572052997 6.126640934002866
570 -6.998375150432418 -5.428556803234155 4.459262873926233
59 -3.5623659609968206 1.444606647181206 3.070340359416556
480 -0.9401501892844827 0.3754102360612097 1.4818340178085052
38 -0.30328865334747124 -3.051168441167617 0.2731777972228316
714 -6.984179371547537 1.9679183060510075 -2.2947362050821325
10 5.893247825495438 6.010828884805948 4.891927663294466
451 -0.44205854829062485 -2.8971927151332872 -2.038262407659651
83 -4.333086542926799 0.7687919646807734 0.4654855863397319
209 1.5272528468836357 0.8818422956184034 1.2768463934632732
80 1.6952123824202148 1.551377605618233 -4.214050516450324
256 -2.7832116254733097 0.17849663233376903 1.0849509718980963
553 2.712279907590637 -3.259511340351651 1.4823596378430743
676 -4.043844893251538 7.604526471509129 1.831668052978852
196 0.24578507900954583 -0.7485290448013271 -0.610835436696004
461 -1.5971779800317625 4.701320242977456 2.6995257267603594
387 -0.28463356067243833 4.541528901623873 -1.1632912458086602
568 9.455139901124141 0.03882543586107336 7.220012529464622
254 0.01554890272572572 1.3500290319197363 3.060304057904368
122 -2.6771402662141366 -2.290518624434777 2.1935797834613475
21 -0.3774673705167627 0.8427675278412659 -3.864430719938832
679 3.3470095728873717 4.6288807950926 5.926789308903418
469 -2.2757964853263246 1.326176935001758 -4.460874896787696
23 4.733230751422254 -3.090000089828026 1.5049791432041024
453 -5.006121478744653 -5.458632279019933 3.301922241910459
698 0.2666051933165771 -2.2160673322517037 -2.1850480403882258
76 -2.784851496259067 -2.4852075466383203 2.1643183939868114
287 -2.810206957041569 -3.2950490946528412 5.9103766468473555
28 2.561909798029381 2.3140391379047207 -1.4211740649693674
378 11.165447612463455 5.667224833728969 -2.3246506333803993
337 0.09568865649277918 1.174185939395962 -3.7065644269710254
412 2.1181954947885218 -3.3351023988069723 5.2797003539403145
35 3.464692242680114 -0.602396101809556 1.1874986011997646
219 -1.2311594198656803 0.7322416891140225 1.181641366321491
345 -1.013846087005715 2.377304534937051 1.5004095425758746
241 -1.0189524340400842 3.46620648526576 5.273481784355237
675 0.9352633251225669 -9.588215046894275 -2.849977017497721
447 -1.89688536969834 -4.702195704998023 0.473372772974118
368 2.2499218372696164 -4.667378284822114 -5.168981800137115
672 2.217299612992219 2.02549691723673 -0.004477734131496981
204 -6.705178293700861 -0.4673243478104716 1.5285514652337138
267 3.6438485744295117 -1.810642760270952 2.924693676890236
224 1.291499115672317 2.2188134279004634 3.4012081742634312
475 -0.3039910923059266 1.0638588811621492 1.9366330877198923
511 1.4139466006605892 -0.9075952227798821 -1.2418784171535577
510 2.6971750825395175 5.808029224265856 8.226479579401152
370 -4.23240920882659 -1.9074736457532016 2.613595716008033
132 2.2927950999920736 3.2462307773772503 -2.335152844038811
258 3.38560132037162 1.3479162523687702 3.523653390201807
670 -6.805634353246409 6.3782628665400924 6.396927858031628
291 -3.5616202337791396 0.1359332072394813 5.690561681460443
278 5.841773383148277 -5.772467750973727 -1.544994823778396
227 -3.0188079077322048 3.622668507435122 1.0739089345284605
193 2.1832626759411644 2.7991093952420085 -0.07751471491219505
467 3.893727344169976 4.611989307238476 -1.4082642550970375
72 6.574855796331604 2.2590874627246054 -4.492660343143907
688 1.236393595829982 -4.272508716520346 2.220223836987905
414 -6.73615442750491 5.164031355837927 -5.12687348620643
282 -5.567239935937143 2.5754257611701474 2.6207385257295344
86 -5.610698262901414 4.234349142424337 -2.7836140292906673
710 0.5317170773613489 2.3060455409285048 -5.027174210365737
614 1.0893103627489473 -2.5619653101718614 -3.879878015297726
216 2.100588650406884 -8.837001304045101 -4.1442381252527785
501 4.860199030470053 -2.3277925878399413 0.2297466506346348
392 1.5491610600285026 2.1881421701549195 -0.3041810956345005
47 4.9805942756763155 -2.0762161443036495 5.897906965150076
136 7.399152306809705 2.9677785796123235 -0.9468161000722642
557 -2.045255540044127 -5.511047186414867 1.0671146438050607
443 4.090133880494716 6.591777518247998 8.027237744729577
628 1.611443268048774 0.14592849077327205 0.8759853878835006
253 0.9173534481209169 2.2615981145079718 -1.4672501602911492
217 0.30320044437604055 -2.269113244143397 2.3078064427901124
5 0.9638928118781456 1.3082157363096638 -2.2141941863610204
597 3.7050605103891376 3.4011213622172227 2.301550614151339
63 -2.6097186605700218 5.440878345220833 -1.5098992025860565
623 6.34668292696878 -7.089462821134351 -5.622689667243682
328 3.5025870147301634 2.1894338299341007 1.2628489089308905
465 -2.2794461708120513 1.2686418298561095 -0.03565608280542828
427 -2.941156972445289 -6.625838229449197 1.8226006941325348
435 9.237430720316842 -5.938262435499831 -3.429925877239662
11 8.487658818858586 -1.6193680103304147 -3.982472600757417
350 -4.704423498020595 -1.3475542888303544 -1.003462549456197
547 3.1945301994424598 1.2290647901634488 -0.8191915507117389
433 6.023245299993723 3.98426445816291 -7.9668415050712165
374 1.107701535898754 -4.741449099628214 2.596752258981181
594 3.9829579029402296 0.66447872946471 -5.284045785657846
438 1.9901713730426691 -1.050126797897285 -4.230604222289449
99 -2.371196648062057 -1.6904266413487337 1.4000112886585616
51 3.621068721576196 -0.6524454028534767 -5.4306600150819415
1 -6.3402812490318485 -2.842909242138212 -5.710001253143215
528 -3.3040983021971537 3.201441844209892 -2.2614144380238117
191 0.7687111874742867 0.8424746771560753 -4.1902278393728905
347 0.024133557320106244 1.436875832522657 5.036677084367464
340 -0.10818665745633828 -0.5418867351235801 8.680457086065775
283 1.384591671888965 5.065595117430404 2.3961861996818046
134 -1.1131528300614808 -1.8009768197231977 -3.0741427494174873
284 3.9236731815616697 -8.526053398291747 -2.691143648540201
336 -5.094822741170128 -1.988221146825266 -2.6607800668980275
8 0.723498814131628 -2.1731473774962295 -1.595831559431995
521 -1.1843778439721473 -2.782635811712187 5.377550584634297
85 3.0010531161438654 -3.4877356867502494 1.9383302549212373
562 3.1833743788248867 -2.8231268602963544 -5.8645773122334335
492 -1.9181191934347217 0.3992476498105587 -4.339772696358845
20 2.546390900254329 -1.2821847142153457 2.6107705312877436
168 2.3521843139962253 2.3863896279270183 3.25697205096846
299 4.853899475458512 3.559474557404552 4.6357824316911085
315 -8.921745675980613 0.17266991132744638 3.6460986047044734
360 -3.8646158705694718 -1.5236276191877751 -1.9970331651625874
180 2.2703640408041466 -6.339016228935549 -0.6700053512434156
183 0.4006456676408397 -0.3114031591452732 4.361993220850442
380 0.29202449556828736 -7.615542618278424 -2.8057218166956646
30 -1.1539874882968044 -2.1976218513884467 -1.5902698596234404
3 -1.755491245013092 -1.978835533454296 2.891475821981521
398 1.48253665351365 -3.522637324676495 2.0301779484621574
543 -9.64761686747042 -0.2049843809719254 -0.0579132246471089
201 -4.099956766971722 1.7509086331054342 -7.194690088267767
312 -3.2217353980117065 1.6119307573883672 -1.185969967811835
683 -2.72493628615106 4.528198177213163 4.5527250835479895
24 -2.1443775663680933 -1.510041781938659 -1.4035546890583677
459 2.714190292019847 -3.565511064653661 -10.668798315090815
220 -1.89550452128382 2.653536372053665 3.668952381107352
439 -2.677227875044994 0.10457172654854346 4.909164758052495
322 3.3986852765646964 2.754582054849166 5.544580888872065
552 3.2904575074857103 -4.850583549836292 -7.420781366188884
112 -0.588406950564356 4.367881590222041 0.3915223843311142
294 -0.29847483138545516 -6.339648661473403 0.6161913257058622
344 -1.625853265880068 -6.231362732931436 -5.199157008991673
255 1.6338477586588587 -5.875360546482503 -6.8742833948237445
306 0.908914668560932 1.9596079014692098 1.3778871885625659
96 -3.2930979431327985 1.7970137540441133 -3.4433343732335007
487 1.9302128523299775 -2.5080802402370383 4.286446889585392
298 2.3080110612731417 1.0850364207882521 -6.449118077292227
174 -0.8081973171351671 4.218333066002827 1.625847418000339
652 2.6463917274312925 0.9477830389753886 1.0757302186043605
90 -2.3789593748531943 3.475364838288994 4.89172426438212
598 6.636755109716418 -0.14304805968161588 -3.0827764284514716
104 -0.6855098509892086 -0.25524013764014575 2.929827030219702
639 -3.1552625026825623 1.159642064915397 -0.7127770312819312
356 9.344707755019865 1.625430223750514 -2.7578038157318234
633 -2.2724682134020036 2.3029675851729356 -2.090497463117079
599 0.8625351603524289 -4.777913822533095 2.8393510420397163
600 4.100607544431776 -0.09975844815956796 4.626551403637761
129 1.4822545675978573 2.4072527469288127 0.7063688604216601
316 1.5949968502498033 -4.147211852455374 -4.192751075030722
19 -1.5812568045943074 -0.7168097930016448 -0.08909221889035829
331 0.5347173388138461 9.914434195259963 0.08188739813817664
482 -2.9037150213970397 0.3044080897734217 3.722675680952146
84 -3.86637237671124 -0.8948415058717728 1.524013402958381
484 -5.172984572896388 3.321647470388854 -4.415729401159027
385 -3.564852537982245 -5.672863747739906 4.693205570832696
479 4.230621945135451 0.8981727346925451 -3.6897606519407034
164 1.059993846451419 -0.17852699342099318 -0.8566382655218849
138 -2.7572101669061024 0.8722368356423452 -1.0924745341769297
441 -1.6047078206015202 -2.2472869440532834 -10.154163319937085
473 1.562180442513274 2.2834135229453953 3.2666889720484136
516 0.6046563785396593 1.6916789692087648 -0.04188083554043484
261 -2.9579217805665206 3.1143493209092363 2.4166946707345267
13 5.000644007039699 -0.7472907043533298 -3.444514438401618
440 3.6773764663081816 -2.4153077550099096 2.6704863560006977
150 -3.7127658735895612 3.4429463110679204 6.49168868940095
271 3.158566405944704 0.8434717185099839 -0.11257542430947717
534 2.573244677714464 5.396949581006592 -5.00254406825052
305 2.448288410887763 -6.349353639255408 4.348620022789755
437 1.4102615427578042 -4.76806848384435 3.673872838383538
62 -2.085437814150319 4.536466100228115 2.9777879496393327
41 1.6193844291671071 6.454231188982376 3.562425875957105
707 0.4292864559939776 2.376152198901649 -0.756373706634876
608 0.31909485124203807 9.348821638812739 -2.21223458900827
70 0.0938287643411249 -3.6444346515825106 5.974840995676488
538 -1.1972248333574471 6.311587803779146 3.928797185699397
564 0.17255132416317526 2.6170646908531667 5.630321351454585
243 1.9732122350559047 -0.6367611303123578 9.194321650262694
206 1.8062426161952376 6.602133424782837 2.37484023616781
160 -1.4679570984901444 -0.8593757290827244 3.976369908021948
281 5.10532405819908 0.917730441509542 1.4851816721394568
181 1.4785922307574648 -4.103520956845421 0.16722830820327847
602 0.7823720188403415 -3.8308874168692215 3.597703972229951
242 3.749123600313419 0.5848371244184051 -1.2347135534788425
558 -2.074961433686662 -1.2258573344422696 -0.21542985176992538
149 -4.020262495168704 -0.2519131165651646 2.65806383576099
489 1.2306235738527103 5.939570909261609 -4.055421769298297
581 -2.3163672526075567 -2.8962786976288313 -8.624834781803838
139 -0.7735112472856777 0.6425486983487005 -2.2685678973030163
444 6.539472448612923 -2.374928458964666 1.4334451518822575
474 1.7707008617599564 0.17018490263393932 4.287892031151202
102 0.8050986564104305 -1.9889246013682087 0.1994808894176973
466 4.574846580261096 -2.539097835392698 8.845185166780812
346 -1.4087950818637494 -6.926990290372755 -2.1889016704130015
682 -6.629680646012506 1.9671394887208489 -2.986789917986379
46 -2.801139313120822 0.12150551241120547 -2.276417302753818
536 -2.521268667811478 -1.3873466602994258 6.770269151614674
537 -9.377860528980298 6.88290567321026 -2.212527821532892
630 -0.49335484954324876 2.0843529044440654 2.4457886385971657
667 1.4801141734760266 1.3751908829446566 4.287866480335096
199 -5.349280440646465 -0.4143805034204079 2.9897240126640883
454 3.9959685877227744 -8.43901328474065 -1.5419962866915036
720 9.02374769055604 -1.6157985885165165 1.6863384758183078
423 2.5399317924991927 1.9297713758439599 -2.2390590723864143
695 2.058584643051417 3.099852652205387 -0.43476653570951707
632 -4.1321172595215 -0.6407523876000997 -2.5742330986630115
266 4.650292190224911 -2.8192329262095632 4.234699624713197
643 -0.953767746713171 0.2893335134359788 2.4269739541426496
40 -2.668734656500661 2.8776998755553174 0.25240422904251464
202 0.9671270496230583 -2.281298772803029 2.5247648405261334
686 -0.2658752302806388 1.7523096992999843 6.458005723676157
671 0.599719656401731 2.830366857979206 -1.1001337864549556
192 0.24064847390549723 0.6016013713223326 -0.4719304641131781
393 3.5168911805482246 1.5685548904891395 2.942189060668576
365 -0.44040991533856866 -1.2437998837810393 0.06328394038145908
395 1.6689720366865621 3.828911762682232 -0.6555653207595287
120 -0.610610286585839 -4.8439304166807995 0.2547436098938888
591 2.9329358952293427 3.2024669751334742 -3.5383431162225696
106 2.707829134500081 -0.7809482627581705 1.575430007395915
318 0.9120766495379886 -1.562508571519571 -3.2679566689718653
9 -1.2156557759783964 4.19785299392404 -2.533228184220609
486 4.931041169944365 0.3559308462083576 0.0026188824881173516
513 0.033561019870559206 1.8664413827008994 7.20268053823633
329 5.800709545717147 0.2487496309806759 0.534169145066262
64 -2.233614931066835 -1.8224879230965298 -3.0437393056673767
696 -5.9831907965058795 -2.07694226809167 -1.4518010737629425
659 3.995982853435176 2.1554382815794697 -2.5627711978379595
507 2.982321252121107 4.078601107587575 0.9807457111619133
559 -9.345934103073043 -0.10205013117084225 2.8007973095392438
117 0.7937334988887601 0.14835145218991755 -1.7165553114275494
455 1.0275187991758672 0.08234919337699713 -2.598735242512914
116 -4.965011077553661 4.539962601829405 -4.554943862047004
689 -3.6818508203676377 -0.6395722221970154 -4.40121111777835
127 -0.01775844461062131 -1.6444920064483055 -5.803224229477518
658 -2.8982494929166096 -0.4172994486779456 2.978056083365313
131 0.1121428214346751 -0.43028001664778437 1.6310672470524035
660 -8.454597691536458 2.2158743312677283 2.1524790016791906
697 -3.0900684131249894 -0.618689568510292 -1.65449672292122
285 -2.3434791529630363 0.6611080488456134 1.1307652276121236
264 -2.0569275009861734 -7.715624381184823 5.765376448899314
713 1.482899395096413 3.2058904198468476 -4.682273998020916
167 0.2974234568563461 2.8561997203044185 2.9906345187193324
379 4.521782298361162 -3.8086689601975836 -2.4706858655768023
228 3.075641289296005 0.5866304848819283 -0.554958685051062
44 7.368061160505979 4.028473862669084 0.5252899139452113
421 -3.770372407210487 3.517194279070137 3.6844392978948326
235 1.5089532705993494 0.8546743166746054 0.347697871724045
413 1.440389684785531 4.856078036720843 -5.792867609962546
445 3.003719896898399 -1.7623615033675828 1.5023689754887073
646 0.24286306165991658 1.5036514421509777 2.2271989190989347
620 -0.476689383233709 -3.3811191397391824 -1.8308666140462133
75 -1.3912122179158954 1.6868276600861019 0.9496219427486545
48 1.9533013601663576 0.8723190374791242 4.156822289027933
399 -7.7049522943451585 -0.36010955227028063 2.773177798753827
592 7.04294451207106 7.840790096072856 -6.715232291069479
504 2.8597115307455536 -6.226222232393356 4.8913027234264845
265 5.290253056616425 -6.712986858296818 -3.117449652959053
280 -0.5982425671859649 4.672312119170142 9.287334838936351
502 2.6761873770112956 -9.21001771476136 -5.473906570388334
65 4.9906762732728565 -2.573630726201764 -1.0740371405319513
523 -0.9078905073902264 -1.557197296435406 0.8568185234744546
508 7.531042174884573 1.688605664576146 5.536751708674361
57 -1.6053761724290863 3.240851691450788 -5.648886108123743
589 -0.4107410410638389 0.24165047577188728 3.676154409558314
73 -1.133079849637974 -3.8776547365198213 -3.2366062515642366
517 -1.8998590309242893 -3.394965288247132 -1.5254241575287906
158 -0.2840609404398324 -0.6582827971627073 3.981568026090717
693 -0.8135084181543573 0.25168223876816115 1.711847380243319
320 -4.342833187035753 -0.32526894830554604 0.5442497536791718
32 -4.171428261241821 0.4844803801801664 0.11259434912087805
624 0.09156465754086852 2.2360943311648547 -8.562771541786818
635 -0.7285175397348858 3.23946317336999 -2.9401553139709815
166 -3.030477591327848 -2.406683217593836 -1.0742767150889825
295 -4.566199304017125 4.328329670809962 8.157700136600154
263 -1.663235246474082 3.7633217407207726 6.02736505363986
430 3.2154784547299986 -0.384985717550013 5.560372148756657
172 -2.1162552969746344 0.9051192271516374 -1.5200924843018104
642 3.1019639316513623 -10.12685519475455 -5.134481034277237
376 -2.352171172029712 -3.370041982161034 -0.15453731591194383
573 -2.607743258060558 -3.3851761539469343 2.1992151865891167
654 6.249596146255493 -6.02852167715213 -1.9734778781534588
45 -0.3577834511207215 0.33230442912709657 1.7779363917720692
292 5.115099886194024 -0.7862348495362632 6.793357981620988
42 8.992699597811848 -5.189244473828799 -1.5527914155367881
391 -2.9354307914927986 5.9042285294182415 9.372465915656047
383 -6.430763549960563 -1.6153289954763552 0.1973019082652832
617 1.9113491262163849 4.233137877900303 8.983170058227428
162 3.526661879022732 -2.5237230821636025 -6.131035412417155
500 -1.538182212701813 -3.2410240419472256 0.4531067310614527
81 -0.7744979712525244 3.872602684872918 -1.6153044772721021
7 3.0690938728193373 0.2738628051044127 1.1439143454254166
269 5.739051803726704 -11.838784980857515 -3.198107039228153
422 -3.79787506809655 1.08675353283626 0.7799303308119266
524 -3.7892085478594426 -3.0972239390178573 4.40423577063456
275 -1.7899651416820508 -5.371371634960763 1.4675285368068194
550 1.3121112375240531 5.644110241117974 2.0835729776484135
629 -2.854319483361167 -0.5377616647691957 0.7396312597374852
429 7.737661486389174 -0.8120329245849828 -11.943639900767547
100 3.613193826333225 3.9074207590430743 0.09843232164367736
205 -1.6810082140420084 -5.181940430373068 4.476043688667414
377 1.2541620869549757 1.0554988438719775 3.476418103997106
494 -12.440502556169564 -3.9303719290446684 -4.12209512920528
114 7.2353947925084805 1.381321219624645 1.0843719606110636
575 -1.9387363082650628 -1.132910635905561 -2.3823352738477914
6 -4.071799925043172 -0.8893641282990639 -2.9141094077499448
18 2.0960553982209555 3.216756822867041 -1.117533159980995
401 -6.7816784235286125 -4.214088669708127 -0.11589622120871719
490 -0.7239472449030981 -3.834031530699695 0.49754159338952486
317 3.5323151146958316 -2.512059500036771 4.293745289605194
514 -3.7373901759291597 1.5032957863772132 1.222020070944833
91 1.114784819872178 3.1863489973964865 0.17006507973149723
15 -4.1614825178874035 -5.088852679527304 1.2794926085747147
250 0.18924575126483817 -6.817830960714677 1.7314210634497142
715 1.9578149942252019 -1.7066026905323903 4.494890849791811
101 4.290612548265001 -1.049983588455626 -0.2933469639226582
532 -0.8663074759536619 0.48945070489870485 4.173536699268316
612 4.340068908236606 -0.74341533497214 -1.5490497178290101
25 -0.4414869753065336 1.8919587464284269 1.097155308200048
669 3.4307687704421364 -1.1907310774680768 -0.5774487525770651
610 -6.416694133576552 -0.31184452409226654 4.948273496806285
237 4.401233670504453 0.9052930792590059 -1.3920794313357696
653 -2.712472135155483 0.36344762709999723 3.1340385152543333
52 4.40890286253539 1.1986186785553972 2.4289065593576638
556 -5.206810762535636 -1.8808082503302759 -0.13656159315243768
583 -2.8141848734915493 1.924634402446503 -2.5232238090525354
355 1.9585913032522573 0.5142554673649444 -2.1741983958017324
609 5.705552221175587 7.309175540382457 0.5466650933708475
188 3.41084219547263 -2.460630078629118 1.9449819485028645
709 5.596451109848116 4.957687496446534 0.4737857752549767
189 -2.733569438432542 0.41860412730587 -2.1342983394594537
367 6.535307056980726 2.7244939959352092 2.934751287346073
382 -2.6529392150283915 0.10525171873619306 1.959036875711466
503 7.461615458743054 6.818970275323336 -5.748360437305929
79 5.539452421742276 3.6973770696729624 3.7547076224128197
353 2.875957455469776 3.7409735973024545 -4.621880400909376
491 -0.4266576429544498 1.4178399308283718 -2.2337495693625495
619 -1.8843649750411926 3.969678621734746 0.029577232543093242
58 2.603914080081928 1.4402696966149262 2.6859248565959857
351 0.5962477936730063 -2.3820400857562687 1.0332068617421475
238 -6.3414545130541455 -0.06710294276032631 1.948170943294852
650 -0.4293081490160107 1.8631120001158679 4.2898412909996315
677 2.2672639258684724 3.2204091287971544 -2.6708508039983854
409 4.285445336109174 -1.2604084456986957 -0.43888767986598226
268 -3.881770493943627 6.248799028898207 1.1003813136680418
207 4.227551733039891 1.6822376203768532 5.974852005474861
53 -0.1317537988450868 -4.171652986933558 1.7855897492681374
718 -2.6548093667086077 0.8012003207457083 1.1589483920972647
335 1.058654460295584 0.888463117682499 -2.6012972068303237
706 -3.0727712005778516 -2.176023434166389 -2.83386526140707
98 0.6745545206099908 1.0719624187182601 4.523911320499775
456 -3.5252183186452264 3.132283510116203 0.3869023227745683
637 4.627470151809033 -1.5755575308677536 -0.7336557341660345
214 3.125998071369917 2.411971674901487 0.2377529513434922
301 2.2163316587044135 3.7289194384419377 -2.4461079035702875
252 4.042631784649627 10.899793183620575 -1.4477852555797863
247 0.8911412119022095 1.538250454592562 1.0732465912723466
151 1.4440669008118165 0.6219896723306944 -2.37423193108731
574 2.0640134357416398 6.343239882877009 0.9515597795759367
321 -0.10855016099147993 -0.3200819208998065 -5.327565163257839
457 -9.26146531458469 -1.5432242505316418 2.9686351966049274
417 -0.42207152304183776 -6.468907660589972 -2.812616365271595
170 -2.4802465878527244 1.4901112634049263 -6.452256487381235
692 4.625206819744051 -0.4986871222556606 -2.270421361574939
198 -4.566297204080363 2.1211399945738565 1.0676666486074313
333 4.776183679102344 4.400906506957131 5.862453005464787
375 -0.6556086838241202 0.4492891966790104 -6.091338447235707
210 1.3276423064838279 -4.637762606599528 3.635583713474716
554 0.5836573087267203 -4.011118722819721 6.3068701637050015
483 -4.687172797221666 5.476345102578555 -7.016202485864148
701 -7.487541054658039 -5.0667131102830885 -1.66517692294197
651 -6.465880936743142 -3.9781970461983924 -5.187455347132512
110 -5.287334281387368 2.0125678249600907 6.559600813749861
56 4.756463116409051 1.041893228134209 0.8208611140719951
464 -3.0221640657809647 -6.641427325052863 1.1640650924195222
496 -4.155185133505483 -6.267871738258609 -2.421297314350489
89 0.4712897762051235 -4.6451648136402675 0.4622816304777137
481 5.231667598081592 -3.5542359377784973 -3.9755015047272613
186 5.560730152201253 -1.6933977324418061 -2.502132412521352
403 2.0961873897091987 1.7509831164079905 -3.0495198709056677
545 -0.9879371534954908 2.9996211179495957 -7.001530207940826
211 2.6071511486812695 -0.9634677749386642 1.9681803920405023
567 3.80661357906412 1.1654414223309477 2.3702271796261423
194 -0.5088163050798689 4.069655643871728 2.1268900638069512
402 -2.5123374770088223 -4.722581461745883 -2.4632494740323607
394 0.7860258621225741 -5.551580695796939 -2.599056447647187
251 2.3680737558163747 -3.014783430149496 7.10660044693789
431 -1.5286280140498418 -6.277614052722205 7.55092128684381
146 -2.948603114650212 3.1478780780740103 6.169216919108051
277 -2.1717337028042287 -1.5750605274760898 -1.7444467808413502
717 0.19436325117922748 2.369509314711499 1.4317541400692735
560 4.044020870471797 7.227609894473066 3.640356868485945
218 -2.1425379461158274 7.174751136582286 -4.360237200768961
662 -4.536530228594446 2.021760867205526 -2.671099610480038
130 0.1923927626686661 1.4091355185749699 -1.0995026591057642
169 -0.16471247875078693 3.4066439188501265 2.433997907594524
535 3.7570280654253843 5.338391898732342 0.149656854325991
518 -9.485709699004554 -3.689588548864786 1.8180276185555269
109 -0.15202385090839463 -2.0134711037129263 -0.15926886864340817
661 0.8133032570202947 -2.6753358466663317 -5.98075788545534
286 0.44240915583445173 -3.383227864871922 0.13464691114685984
397 1.0595136123755462 3.3234150606014023 5.472303231800029
649 4.440188185863016 3.1321034042911493 1.113654671475759
613 7.709571373733628 -1.87315183852274 -2.24903159034938
93 -4.220757341039151 2.981027735074054 -1.805991822621684
308 -5.891826774031384 -0.601264150190593 -0.8433284083495352
246 2.8149960962696405 -2.9828600059684263 -1.3580460900303053
471 1.7958614138285895 -2.6351254616115973 2.23115516869301
719 0.04326934349105182 -6.324390507220231 3.3061691244137
55 3.2960789094797875 -1.5089086191178251 -1.2604814051134055
22 -3.2458296729122122 -2.794814408207642 3.080914356351658
111 -1.3757819858902727 -4.616577106008888 1.0464232674547076
373 -2.0767454087677626 1.1941440485632526 1.4405022775151
54 -1.3900419409487903 -0.6211979333088049 -1.772388316678979
289 2.7793369513026636 0.873455447143331 2.059505989909587
384 3.8921082916621406 -3.8143798342714885 -6.429653318627287
17 5.26983126426309 3.4503238961320886 0.23193823909817615
622 1.4999262533543514 1.8622661289817515 -8.174141699580328
105 -2.624364879993149 5.609514520685673 -1.394661005428271
618 -1.3807056055231663 4.70524999637731 1.0406607096525273
488 -6.584287700183709 0.550095130552175 1.1165794532754798
505 -2.0423407694127 -0.9837246183829313 -6.191975679792684
140 -2.020301061404021 -0.9037181720129959 1.470563932124235
463 -0.9380055551242471 -1.6394824804213324 -1.2995639993267443
540 4.917074570858288 -0.8084067867301025 -8.088624764149444
357 0.4553138020923336 -2.1460170627703623 -2.2742509691599584
348 2.0871998069855415 -7.2189366984254635 1.2773934679720083
694 -1.865325393322493 -4.549113857505268 0.3264066482788108
544 -1.585483630830054 0.09764590494152349 1.2550588732220238
212 -1.9414773434777368 -7.368152489555226 -1.4249551985340116
702 -7.429129585294703 -2.9557324556528783 -0.6712384590334484
29 -0.6836464681052724 1.0164214738003556 -1.6772596651801501
586 -0.6502232028120558 0.5753764867453631 2.485339493051982
576 0.20053071874845407 3.200843835346364 -0.645439316951845
12 -0.13335877349328545 -1.6119472090959543 -7.693149585224379
339 -4.6835045937670765 -2.822149342174949 1.4605272943806298
226 -4.939723551909716 2.843276511342292 1.7145622645846053
142 -3.4332635750244087 -0.7041829200412624 -3.541149261062129
128 -1.0642402663857564 -0.4422300853816854 -0.44710693327397794
324 1.978112814316776 -1.2499754945042032 -6.059200690008954
621 2.11578380211781 -4.871815256107871 -2.1740811177292416
215 -3.5056924417010067 3.935413550172644 -5.520971367039095
323 1.9939383952311092 1.5456040225264165 -3.579428577512509
362 0.8247471595998844 3.105489157817872 4.095622727580358
240 -4.1063299782516625 -3.0795466228956982 1.9851283178916563
700 10.972817728904023 1.6079157585226478 -2.896729062504405
708 1.99001686123962 -5.786743650394102 -4.013286588603097
687 6.139301632210125 2.1381165261965025 -0.46024216286204067
270 -5.676808572406431 -1.9844110602653913 -0.17989714648714644
603 2.456467376168367 3.3450199780774854 2.971502168400824
118 -1.694819039388497 -0.4261386583051337 4.831936132427032
415 2.1476027037723697 -1.1497772494265435 -5.847201552960256
133 3.1003081753396446 -0.7513808136139486 -1.4890873704158551
366 2.764770445512291 -1.4754388855770317 0.6375990600996392
369 -1.3459427789243705 -4.785979558612526 -6.082605627611325
176 -3.8313504402812337 -0.7302599864427594 -0.6830014477029493
182 -3.189658687060307 -2.282140221284464 2.3426029719217043
371 5.465805505128106 1.1630285288168414 6.960597635397007
703 3.285130232944655 0.6530624604997726 -5.089001269418369
390 -2.252742431441389 2.293709662520758 -0.6341657171070423
213 0.09666495960461642 0.47518667537368653 -1.4921827822224285
426 1.3006469074393052 4.432521938704751 -6.0128774414271176
526 2.1542167498899505 1.559957546079451 6.748013484712847
88 1.9218237483740737 -1.5420792109807488 -2.787327998992347
307 -6.735547785067268 -4.375968655677804 -3.6162823007789986
460 6.247981403634252 -5.943202158336603 8.029113458608252
230 2.066125498747606 1.9377105713906342 2.187885129427834
655 -1.896900409648411 0.0003985035166018856 0.5106543667946384
663 2.88953343883066 -1.3517632934923867 1.3880692178373515
143 1.538276454541463 1.448666282343246 -1.7242036801216443
452 0.12475435280063672 -0.313602256486102 0.06951580012360488
572 -8.657878779354279 -4.745137758529341 5.444978256549831
229 0.5721139253141934 -1.6782945738304136 -3.344141908743215
309 -2.181223792093798 -8.938936984203956 7.0461154642537585
410 -2.402993582745011 -2.9738937199361377 -3.579009600273234
665 -2.8014583166382505 2.0629210749795424 0.21239182646139465
561 -0.20801406208421627 2.1470736996388995 -3.603619537254723
478 -1.1853989606895114 -7.470690429301053 -3.341470694443983
495 -4.503777705923193 0.6405214447807838 1.067695850898738
244 5.158943472355668 0.2588667933006204 5.455275843841325
691 3.099980278620839 6.313674955167559 -0.2565150557834309
175 0.6614821884084123 -1.9550031413355862 4.161912095623874
203 3.2370362365969387 2.2467075353682073 0.6533586471437242
273 -8.568532588046477 -1.2829787098756111 0.45937367517144667
419 -1.0523122202173156 -5.533834360995025 -2.998350486975615
208 -2.7515994810197113 3.0978676341464673 0.38479613780620026
187 -1.396734075436314 -1.17094757565847 -3.4677809944349853
506 4.344581984543215 1.6434152428135225 4.100390654933996
407 4.911396925744929 -1.529973710618259 4.290111396522081
343 1.564314739915545 1.2664135370262577 0.4060779692492472
239 -2.597461404594516 -0.21915337503690652 1.9631967206999326
296 -5.005095681390294 5.633455937777814 6.102827374999122
656 2.424455463215842 -7.457485763408395 -2.525623897810705
712 2.6527873030537594 -0.65323752415774 -3.7052410648157466
50 -0.7400018258306046 -0.2993326019089137 2.5977753826219385
185 0.855789853473012 -0.2241741418444127 -5.153426929519809
716 5.531360896321209 -0.9120291511447367 -4.347202127705747
605 -3.077298375036767 4.946438505480195 -1.022117427483868
389 -4.090085924737413 -6.5304730266331195 0.40998239717846136
248 0.6407938347123108 7.966440642707025 9.849275594605762
125 -2.454516231239198 -2.09121653399982 0.46096596016410873
342 3.340647675926343 0.7655043181323019 1.2644984173268412
4 0.2324522042061382 -1.4204713103269722 3.141291053859945
590 1.3997782584807377 5.823444109602789 0.08562706890519789
119 -5.862087619641191 3.984512097248041 4.604323040084759
236 0.44942582395943964 0.09623045117097918 -3.6041701217039255
154 7.412653214948463 -0.04234983059672142 -1.2801357072853043
124 -5.381471787279443 3.5815429630924926 2.6770440777822424
442 -0.624942794188264 -2.28437001971866 1.1916064634428758
326 1.1442416727320595 0.20345940138015953 -2.6928641323607594
578 -1.143921008961463 -2.8623372155708693 0.023466495497335194
178 2.0159831134494595 4.546542110684178 3.63838038031058
565 -3.0314987007006824 0.7562709689976489 5.242842621860701
497 -0.24829142608803978 1.1518965341960945 3.9762723568875677
26 1.7274911820162464 -0.4638730729036482 0.2973271824743836
525 1.1763041688624876 -1.6486703084303325 3.0847661761696745
548 1.786213831606486 -1.8023967947964545 0.4094650161108987
363 -4.399469109321829 0.4033030002878947 -0.669664226278878
332 2.7862007459294085 -6.067098669071542 -3.434394177015125
606 5.687969591302692 2.811471332756418 -2.5179508289511277
325 0.8227656394409902 -1.3891999424997583 -5.195254365982197
223 -2.757090052173493 -1.4315493420986993 -5.739775922620743
290 5.594097576129651 -6.156828138510505 0.2748212892558712
657 -6.811214910096054 4.059111825319027 -0.6655719090817104
664 -3.7284854327109582 2.1337348050249045 2.359022133161383
177 -7.360083091052951 -1.6489590470574165 0.5311101600033925
259 0.8700234997273879 -0.30364740213236885 4.853498609761126
152 -1.7988922449051055 -3.700323789135666 -2.046080056951328
121 -0.8577860695570245 -2.1672891663516753 1.6677275682491912
434 -0.08771846603424055 -2.2113684518442476 1.7809741402233656
300 -3.5108843318693896 -2.9696714478251787 6.757858078397894
448 -0.6476315898770407 0.03704735852921564 -3.392119446293611
304 -2.6560001210887014 0.07979120234680935 -1.0306343198520842
159 2.348419161111945 -1.3841626111193057 0.7725645508165802
39 -1.4220878625792275 -1.664843553845548 0.42414800727014296
302 -1.948616441365682 1.3032943501544412 1.638177659546595
34 4.311235963374714 1.3509347080601926 1.2056238995185513
640 2.739615115840994 0.007902725585807796 -4.194892964116298
87 1.8360392259869558 3.9472182241613165 -0.2586756270142193
145 -1.0203818199629189 2.6279789126958955 0.9286722534257961
499 0.1616381325945714 0.7031989595833871 4.345003662683895
636 0.733246786615434 1.2641754927447615 8.220243115003653
303 -5.754868210591734 0.9609339464805217 -0.9131281042878857
262 -0.25213221365559696 4.362991967993755 -4.479059203521565
555 -1.910994911546046 -0.6674283931897456 -0.6591726315391483
330 -5.412027678492582 -3.755253011332039 1.220718224751708
156 -0.18651271212292744 2.5512623694405514 1.7552894674904096
680 -0.613522627536915 3.2723016079285894 4.137949847202158
450 4.48730212494656 0.5367058282799982 -2.468763652077942
616 -6.311364591034979 -5.467481900738099 5.264720438788478
349 -2.151597372291988 3.801519219882161 1.3749195110941423
179 -2.110208264265106 -2.7906572520334936 -0.8577822977782572
579 -9.777353985907713 0.39709818708118827 4.615799387524757
551 2.4810677315308904 1.9148063753205984 -7.742751970297902
449 0.5972923125007703 -0.9061820697345276 -9.2788333158733
522 6.583533554707421 2.98225807423003 0.018874491488077755
123 0.30559608186221193 3.7883567599370496 3.071738592030856
678 1.1651003312276587 -1.003367776410515 -4.137966589280264
141 2.8642359726989044 -0.7848208955529582 -3.4659421560135253
580 1.823267127779393 -2.792913633610807 -0.5974312536778154
222 -3.4833749686204296 -0.166188921177298 -0.17359022295536156
615 2.1271725262412224 -4.123177739619318 -1.8887370438181064
94 1.885047252207431 4.412701042833445 3.757347808186599
462 0.6146488462999992 -5.320758628198431 -8.899411170390461
14 -0.6933047173578168 -1.678338219333239 1.79658700775263
593 2.0971535882601793 -0.627179248880339 -3.834900238126342
171 0.8620875619780989 -1.85799935277881 -4.426467814093974
396 -6.191210990487697 7.943251929113307 -3.495829445681321
645 8.707960808533592 -7.537464654067801 4.257404816415586
408 0.2841961129392349 4.2321363409941375 -2.9707306374103566
341 2.240312774357805 -0.6982338912301265 2.165566010474251
153 1.6616600723635047 3.401974900371048 -4.226811251713065
165 3.6400103272381354 -3.0538930184377215 -3.928064736302569
571 0.5102943330250881 1.1095126009615315 -4.738018269116505
711 -1.1083461794043097 0.16523590484517456 6.457684231985612
512 2.0064237028180023 0.06047899765089465 0.4163501655509912
232 4.7972181773546945 -6.168279211991749 -3.670419239973482
358 0.7447523047412355 -3.396552904936188 -3.0629686598946493
257 3.868017509478658 0.41099007297581747 -3.7262504476776
313 -7.946374453779116 2.724626612206135 4.652208527196089
68 -0.7643454662567343 -6.300059061225613 -3.2852807582968664
