LAMMPS data file via write_data, version 4 Jul 2026, timestep = 20000, units = metal

720 atoms
2 atom types

-16.672052351224934 16.672052351224934 xlo xhi
-8.410574333055173 8.410574333055173 ylo yhi
-8.398119740485969 8.398119740485969 zlo zhi

Atom Type Labels

1 Si
2 O

Masses

1 28.0855
2 15.9994

Atoms # full

327 0 2 0 -12.579007602683951 -3.460583435773138 -6.487307562023385 0 0 0
585 0 2 0 -15.744578702854712 -6.927154803016874 -6.3469537532554945 0 0 1
634 0 2 0 -15.625645160507698 -4.815235568240043 -7.604814149090197 0 0 0
485 0 2 0 -12.916553011082575 -5.471136405015944 -4.780284966213946 0 1 0
681 0 2 0 -15.594637855894028 -6.665348916941684 -3.530629981455621 1 0 0
190 0 1 0 -13.33305090040989 -3.972945883437439 -5.149892404297235 1 1 0
135 0 1 0 -11.740973174537725 -6.303791003790554 -4.056578377330206 0 1 0
566 0 2 0 -14.93469007541899 -3.632146522440319 -5.416351669375242 1 1 1
527 0 2 0 -12.97517097008146 -3.0346737629397857 -3.9385590096848393 1 0 0
80 0 1 0 -16.211646016301447 -8.172232259446327 -3.628604725424416 1 1 0
596 0 2 0 -13.393102196421378 -8.180161190285881 -6.239778706899178 1 0 0
314 0 2 0 -11.145946792462151 -7.499630032997266 -5.167663330794946 0 0 0
170 0 1 0 -9.308222484806354 -4.9221972927925 -7.516035361456295 0 0 0
388 0 2 0 -9.787642311650888 -3.9325051293250626 -6.4146630818780395 1 0 0
476 0 2 0 -8.763832625700882 -6.6475821719391055 -4.602031846355049 0 1 0
368 0 2 0 -6.697909460224816 -7.257464864718694 -3.1999330433773467 0 1 0
66 0 1 0 -7.471702284026419 -6.050734233973779 -3.9137364641079575 1 1 0
625 0 2 0 -6.572035020056047 -5.401308805662605 -5.0078461565244785 0 0 0
470 0 2 0 -10.746677339389315 -5.184480708220792 -3.4845205125897687 1 0 0
386 0 2 0 -9.657245432184217 -6.409105242630484 -7.03743573528293 0 0 0
82 0 1 0 -6.404876115429939 -3.899731802181128 -7.469363464182469 0 1 1
74 0 1 0 -9.585907747252215 -7.334913006117812 -5.795008140649611 0 0 0
533 0 2 0 -7.6644574896203554 -4.9284375574574675 -7.6032009261986495 0 0 1
481 0 2 0 -7.165680984172656 -7.6054948189278555 -8.292743963926181 0 1 1
2 0 1 0 -4.129041121736064 -7.934352540083561 -6.097354058236934 0 0 0
446 0 2 0 -5.005634047519171 -4.378330329407963 -6.840517284610305 0 0 0
359 0 2 0 -4.008985667857013 -6.712990182252681 -3.2793071566973726 0 0 0
577 0 2 0 -2.511794254691507 -4.086707567839086 -6.453686932573775 0 -1 0
274 0 2 0 -0.4950963228347689 -7.63717887788805 -6.33718962097197 0 1 1
293 0 2 0 -3.652789309891773 -6.396903852178056 -5.962121503941623 0 0 0
89 0 1 0 -2.3913809274178845 -3.4032740492077895 -7.928762989470537 0 0 1
595 0 2 0 -3.8483918576154217 -4.427911394524283 -4.2303278524857655 0 0 0
113 0 1 0 -3.786023824740255 -4.8320443825246056 -5.800252661391575 0 0 0
432 0 2 0 -0.25509364068883045 -5.387245505098615 -7.633071637142301 0 0 1
674 0 2 0 -0.775756177333017 -5.566837941944106 -4.811429805771445 0 0 0
221 0 1 0 -0.46426006516059104 -5.1818970168692875 -3.2348536674337174 0 1 1
400 0 2 0 -4.588906475964086 -8.162605594011596 -7.6286874791884465 0 0 0
545 0 2 0 -0.8731146154739662 -2.982511252300088 -8.137789916361807 0 0 0
638 0 2 0 -0.5859913839352977 -3.5546007892368774 -2.7984619082201085 0 1 1
37 0 1 0 -4.220287519488153 -5.196045770512618 -2.822870988170954 0 0 0
414 0 2 0 -0.7817703221881871 8.406451724114003 -3.870421910308684 0 0 1
148 0 1 0 -0.0642479703522234 -6.128290458104958 -6.144188856388164 0 0 1
402 0 2 0 3.9019736017237285 -4.5120508276429785 -6.6959968342007805 0 -1 0
519 0 2 0 5.0330462044844 -8.318533054025332 -4.739401885627401 0 0 0
394 0 2 0 1.5533433028837216 -3.7600410209130954 -7.285736698202907 0 0 0
33 0 1 0 2.4487852000066823 -5.121770121145809 -7.025941418212497 0 0 1
352 0 2 0 1.5481944977241646 -5.9581782782268 -5.962413172532252 0 0 1
109 0 1 0 4.851893618058991 -3.4107005610496444 -7.363452887091359 0 0 0
251 0 2 0 2.663160603333761 -6.175344848929226 -8.327213777157544 0 1 1
600 0 2 0 1.1062125115022745 -5.4307896745782624 -3.1116397384973347 1 1 1
546 0 2 0 5.713548179341004 -6.18749801943019 -3.676041288459592 0 0 1
69 0 1 0 5.990950463109883 -7.0336755909211615 -5.097177496589065 0 1 0
493 0 2 0 5.759354294103009 -6.416212183226198 -6.552944309560503 0 0 1
67 0 1 0 9.052231171714855 -5.355346402996576 -3.4607183258809595 0 0 1
144 0 1 0 8.271932244031536 -4.103275601954494 -6.2299582295927225 0 0 0
647 0 2 0 7.784021061637343 -5.030062826490784 -7.372778888699041 0 -1 0
364 0 2 0 8.762357171594733 -4.919034067978333 -4.987563249367611 0 0 1
404 0 2 0 8.617410798953618 -6.86275612517095 -3.2364177187669734 0 -1 0
607 0 2 0 10.65015105223631 -7.319356079356515 -5.620221321898855 0 1 1
520 0 2 0 7.344729501808647 -7.904165608277049 -5.408211083877736 0 0 1
309 0 2 0 5.952030490346576 -3.175597358879478 -6.234113555139211 0 0 0
534 0 2 0 10.49733240974944 -5.081766518815647 -2.8402692476008644 0 0 0
155 0 1 0 6.744954272955926 -6.15282981429845 -7.7871001237142385 0 1 2
350 0 2 0 9.961941261748478 -7.925619642230133 -8.035822881538154 0 0 0
604 0 2 0 9.139409314975428 -2.909311866463164 -6.734074372433977 0 -1 0
649 0 2 0 7.4228317833994275 -7.413741417779326 8.317212688281389 0 0 -1
147 0 1 0 -16.588863743361223 -5.583973119333266 -6.373165404266703 0 1 0
60 0 1 0 15.757250417807583 -4.216809165440798 -3.5023524047413774 0 1 0
126 0 1 0 13.934370854928748 -4.986176660574783 -7.220515409425698 0 0 0
472 0 2 0 16.20300425381295 -4.792759607132728 -4.946021714807493 -1 1 0
288 0 2 0 15.323284272738256 -5.815664926468804 -7.032883887316989 0 0 0
231 0 1 0 12.249774625525461 -6.932157102012232 -5.564871558122539 0 0 1
531 0 2 0 12.852213309234088 -6.64990508032688 -4.058156978755828 0 0 0
272 0 2 0 14.004562881034122 -3.5325519452595637 -6.484117930797954 0 0 1
666 0 2 0 14.260153853163963 -4.680721080278546 -3.2016191981137725 0 0 1
354 0 2 0 12.661349133381478 -5.676490792162473 -6.506159126274894 0 0 0
334 0 2 0 12.946025542672363 -8.192184523500307 -6.279327033935287 0 1 2
95 0 1 0 -13.136457110522231 -2.645825456877696 -7.721944238419176 1 1 0
588 0 2 0 -14.440683228458113 -1.8811348547467244 -7.19954545597478 0 0 0
92 0 1 0 -15.586077404578996 -2.3018958204345834 -6.119390715601251 1 0 0
563 0 2 0 -15.172998160236833 1.243993431536813 -3.9258070464981243 0 1 0
641 0 2 0 -15.71967379798215 -1.197424554140226 -5.040860597374305 0 1 1
195 0 1 0 -14.880607840885398 0.18368184079526273 -5.074815293681475 0 0 0
549 0 2 0 -13.247869219295538 -0.11195056561959582 -4.954166322550654 0 0 0
163 0 1 0 -11.759321539093609 0.31049979388965454 -4.363283684999799 0 0 0
699 0 2 0 -11.274540113032998 1.2823890384768468 -5.736588500816035 0 1 0
587 0 2 0 -15.387002879258254 0.8347752897009126 -6.470866299950664 0 0 1
381 0 2 0 -13.116693724454926 1.0211841134759734 -7.706386642076525 0 0 0
157 0 1 0 -14.529612754069506 1.8318468947302602 -7.302792117934977 1 0 1
115 0 1 0 -11.595592486730405 1.1453851386366463 -7.245950950969716 0 -1 0
611 0 2 0 -11.85275296392247 -1.7989459711670293 -8.167933602924345 0 0 0
338 0 2 0 -11.85588768002232 0.7882012870872241 -2.840538030716896 0 -1 0
279 0 2 0 -7.032769128595309 -2.725980200796802 -6.518941181207536 0 0 0
287 0 2 0 -10.939359474255182 2.1764006072359923 -8.294903354923788 0 0 1
276 0 2 0 -5.689391460336841 -2.4337522398686904 -4.292473719288281 0 1 0
197 0 1 0 -8.864437086759793 1.580313359481492 -5.791390695299473 0 1 0
529 0 2 0 -8.204740220055774 -1.8191385874835317 -4.353227302059133 0 1 0
31 0 1 0 -6.815361961143148 -1.8685828118601622 -5.249067931289266 0 0 0
297 0 2 0 -8.575813143575264 0.7606652906349822 -4.492406817275359 0 0 0
644 0 2 0 -10.599559929097172 -0.784235138144215 -4.478420645205704 0 0 0
173 0 1 0 -9.126231206169132 -0.6598664069042792 -3.8385590435735955 0 1 1
627 0 2 0 -9.026653913844651 0.7283970584453954 -7.150843453798747 1 0 1
310 0 2 0 -6.335009291913961 -0.4196832102949539 -5.8698337816410096 0 0 1
372 0 2 0 -6.559542796439912 1.7053364021198885 -7.126609720455197 0 0 1
36 0 1 0 -6.056358295568966 0.22690584162602256 -7.340421275097992 0 0 1
468 0 2 0 -4.569660811642999 0.15754933212521927 -7.949909211143841 0 0 0
405 0 2 0 -4.187298391389355 1.1828695872803472 -4.029054170893264 0 0 1
245 0 2 0 -3.217812319797046 -1.3690225677085168 -4.771189167115677 0 1 1
511 0 2 0 -0.939673680908637 2.409263718879389 -5.337159596497698 0 0 0
137 0 1 0 -2.9987326970735957 0.16899658789144745 -4.612896439190257 1 -1 1
668 0 2 0 -1.787187625374587 0.374964027393645 -3.6158377181146184 0 1 0
690 0 2 0 -2.577031670095275 0.7478284566999971 -6.047253201093181 0 0 0
43 0 1 0 -1.1193300834359494 1.223594258849932 -6.552654419301348 0 0 0
603 0 2 0 -1.0802977476099276 1.8848358952809843 -8.035871976263671 0 0 0
710 0 2 0 -0.2689653224869133 2.098300935871947 -2.836601492795765 0 -1 -1
673 0 2 0 -3.2747991865910535 -2.104350704794066 -7.893414094819436 0 0 0
77 0 1 0 -0.23203735138499226 0.5073164736918105 -3.160594829238123 0 0 0
685 0 2 0 -0.15052999712433035 -0.0715762729174596 -6.566510264802376 0 0 0
233 0 1 0 0.40229108443514505 -2.291061846031046 -3.1591194844875616 0 1 0
319 0 2 0 0.37992730687502885 -1.9946979076600773 -4.758050553723907 0 0 0
420 0 2 0 2.366803896497295 -0.7603381772041757 -6.044046547696354 0 0 0
663 0 2 0 4.062143576658066 -2.0637324402462767 -7.7741943011793495 0 -1 0
230 0 1 0 3.121849039572364 -0.7955929605132335 -7.539189787415625 0 0 0
49 0 1 0 0.8760215236543942 -0.6505174102174047 -5.476470334678072 0 0 0
411 0 2 0 0.8118999412872334 0.43883670893779403 -4.358183457748556 0 0 0
684 0 2 0 4.673261143199884 -2.267884249897598 -4.053808564351588 0 0 0
655 0 2 0 3.7798399035932846 0.6134679715843081 -7.734901587417648 0 0 1
559 0 2 0 3.111439213864603 -0.5728653291893044 -2.570211498270056 0 -1 0
116 0 1 0 4.501123737969468 -1.4093079327895568 -2.73539884499185 0 0 0
428 0 2 0 7.246162919552603 -2.432089015892436 -4.202045066067835 0 0 0
361 0 2 0 9.464260162256231 -2.361052564990427 -2.938598516425289 0 1 0
97 0 1 0 10.493911161456218 -2.744212546797522 -7.502179378512839 0 0 -1
311 0 2 0 5.963220216671601 -0.7200887144835084 -5.765530733558396 0 0 1
425 0 2 0 9.97465993241121 1.7091283143256337 -4.874965346207729 0 1 -1
107 0 1 0 6.8172549013135395 0.057816050181161316 -6.878726504995607 0 0 0
225 0 1 0 5.936148266182833 -2.1231830179543394 -5.031101941942431 0 0 0
601 0 2 0 8.399103556090942 0.06651571400160528 -6.328514728008306 -1 -1 1
71 0 1 0 10.761529447210513 -1.6536283735321096 -3.5398972243309457 0 0 -1
648 0 2 0 10.224273126073168 -0.7672530469972871 -4.704373593344817 -1 0 0
200 0 1 0 9.086408225686245 0.38273519443749926 -4.9610844514638845 0 -1 0
541 0 2 0 8.14869901329256 0.49710333599260537 -3.6854158894408746 0 -1 0
498 0 2 0 6.427906525984145 1.6323874438150927 -6.807216676408526 0 -1 1
410 0 2 0 6.770976605018326 -0.7294685527907232 -8.244225652996542 -1 0 0
451 0 2 0 9.419435720181564 3.048442642541559 -7.4822848627001335 0 0 1
108 0 1 0 7.93749520050503 -2.7668226877072994 -2.8283308670916023 0 0 1
713 0 2 0 5.688606904405294 -0.3651804298866388 -2.646148918695938 0 0 0
418 0 2 0 15.91377625143489 -2.6274962787751326 -3.4262591665888795 -1 1 1
260 0 2 0 16.411124302967018 -2.3285894484627905 -7.0281703719939195 -1 0 0
542 0 2 0 11.809309944609613 -2.182720379560455 -6.853299072365155 0 0 0
515 0 2 0 12.12006412714807 -2.3489164115206025 -3.7439305203804887 0 0 1
103 0 1 0 13.390009097316089 -2.087736815601917 -6.730072224580669 0 -1 0
10 0 1 0 11.357262924862965 1.8063429024731246 -4.04933250062587 0 -1 0
569 0 2 0 12.442857977767403 1.1068437889093907 -5.074133778419816 0 -1 1
458 0 2 0 13.936282781455404 -1.0074522907315178 -5.675222962434767 0 0 0
570 0 2 0 13.967715039616497 0.9219395664802263 -7.146756474333595 -1 0 0
59 0 1 0 13.878652593042421 0.5446947196228766 -5.569405834975763 -1 1 0
480 0 2 0 14.996120795892221 1.2749614173885302 -4.644716671586735 0 0 0
584 0 2 0 15.822765858141295 2.602401138438003 -7.693796423691687 -1 0 1
714 0 2 0 14.13187325749227 -1.752890346958898 -8.394976703223305 -1 0 1
38 0 1 0 15.063304081579133 1.2654962062396358 -8.22917143057898 0 0 0
83 0 1 0 14.894324157853521 2.7146433980493008 -3.970194958294684 0 0 0
209 0 1 0 -14.992841678746817 -8.348742152997431 -6.1358013491406425 0 1 0
553 0 2 0 -14.109315651302309 3.068352195908366 -6.3788099360032255 1 0 0
635 0 2 0 -15.179022001481513 5.1060730469017575 -2.8487691917460465 1 -1 0
698 0 2 0 -12.760355816171758 4.708687061608877 -4.711823076938455 1 0 0
676 0 2 0 -11.911784857235117 4.003582295918632 -7.0624015532536095 0 0 0
76 0 1 0 -16.497610727226608 4.938441977426381 -3.729478629741622 0 0 0
196 0 1 0 -13.162876657302931 4.358953444606174 -6.2070094144244 1 0 0
461 0 2 0 -12.31114869933377 7.5241446037597886 -3.9658481799290124 0 1 0
387 0 2 0 -16.236060034761902 4.869776437656064 -7.848361838237775 0 0 0
568 0 2 0 -13.971502942902886 5.576938102791809 -6.857212058594856 0 0 -1
254 0 2 0 -15.698783147380526 7.385989482572041 -7.1660149786030205 0 -1 1
122 0 1 0 -12.11371469340946 8.02503060243642 -5.506456495527892 0 0 -1
469 0 2 0 -16.183346379408043 5.56838869358829 -5.284696207901305 0 0 0
21 0 1 0 -15.566892168012474 5.847336513520764 -6.757042824696578 0 0 1
28 0 1 0 -12.181893650632999 4.147781654055725 -3.331548346447522 0 0 0
679 0 2 0 -15.151808283292356 8.001504719850203 -4.6203820148581904 1 0 1
256 0 2 0 -13.125595763991733 2.9318440298911206 -2.8888607616091395 0 0 0
378 0 2 0 -11.199282921549297 6.923396864825966 -6.30183343458817 1 0 0
16 0 1 0 -5.746897809946136 8.304313201244135 -3.572589058048946 0 -1 1
337 0 2 0 -8.975869360349881 3.183382229701353 -5.595911914103406 0 0 0
370 0 2 0 -6.0709810673387 3.243951466261894 -5.142364129691001 0 0 1
132 0 1 0 -5.763728179316606 3.0453821831937606 -6.694492859301723 0 0 0
412 0 2 0 -8.996935510154035 7.995079143068811 -6.045921304894777 0 0 0
35 0 1 0 -9.673116426384787 6.552891752718578 -6.1382001512974895 0 0 1
219 0 1 0 -9.218657009138774 4.1429521341893025 -4.286304027217205 0 0 0
345 0 2 0 -9.570881354097347 5.644837496319072 -4.844372030925759 0 0 0
241 0 2 0 -10.649670293067077 3.6229578945505256 -3.5817593133089627 0 0 0
204 0 1 0 -7.048015604391502 5.686181414315069 -7.101371727401518 0 -1 1
675 0 2 0 -8.695809319678366 5.704255562206097 -7.337239519995661 0 0 1
267 0 2 0 -6.842814849179213 5.691234003806208 -5.488173591392728 0 0 1
224 0 1 0 -6.464035712831572 4.5906821474639035 -4.3429671816984445 0 0 1
617 0 2 0 -6.844224105279764 7.125215377049969 -3.201862572522331 0 -1 0
447 0 2 0 -7.8213104923258765 4.234910120132785 -3.544988957666315 0 -1 1
672 0 2 0 -6.307629513622281 4.329093324996883 -7.453677697413728 0 0 1
475 0 2 0 -6.288606334588124 6.860835282505272 -7.845982955453623 0 -1 1
510 0 2 0 -5.286716188022789 8.401015123757626 -5.0704956056051795 0 0 0
184 0 1 0 -1.2770213432868882 8.150678129912443 -5.3997059239506475 0 0 1
477 0 2 0 -2.858519531546964 8.030323759864139 -5.6556121937474355 0 0 1
688 0 2 0 -0.7507315788862066 6.634349394229693 -5.574618936084061 0 -1 0
670 0 2 0 -2.4530100169803237 4.67138067296357 -5.902738541563976 0 0 1
291 0 2 0 -4.203635547935807 3.039869536778026 -7.0731908628468485 0 0 0
72 0 1 0 -0.9784714528191518 5.081490696414026 -5.59801560661401 0 0 0
278 0 2 0 -2.52879521515662 3.5086543440343707 -3.5356664097222943 0 -1 0
282 0 2 0 -0.26467853593948476 4.501741065376208 -4.071053237307571 0 -1 0
258 0 2 0 -5.092679684154632 4.929396293912983 -3.5258440592782074 0 -1 0
193 0 1 0 -0.9558212644000488 3.073526733142364 -3.8347518736396093 0 0 1
87 0 1 0 -2.9315845977125576 3.92598064307127 -7.232540404941939 0 -1 1
227 0 1 0 -3.736334463338025 4.348100421945279 -2.9469034943150447 0 -1 0
640 0 2 0 0.06670851763423613 4.493915534509128 -6.6170412575854 0 0 1
161 0 1 0 4.9704976812743915 8.037939856162929 -3.2601613315179305 0 -1 1
179 0 1 0 0.9301478569780528 4.834974169299372 -7.922845658812322 0 -1 1
614 0 2 0 2.454614095405123 4.751933526421324 -7.341895392347283 0 0 1
216 0 1 0 2.781215574529913 5.602111242386147 -6.032570478104524 0 0 0
253 0 2 0 4.628013328998886 3.7346264352022267 -6.986277288818019 0 0 0
501 0 2 0 3.600438910091036 6.876736725828978 -6.437322203846133 0 0 0
392 0 2 0 2.1671162316423747 5.219816138350499 -4.651295500342622 0 -1 0
136 0 1 0 1.1861040830724008 5.133169065466523 -3.37748650881613 0 -1 1
47 0 1 0 4.54838034711744 7.242236689780775 -7.718759304867765 0 0 1
628 0 2 0 4.593453611928673 6.504770173780409 -3.0893253290042617 0 -1 0
14 0 1 0 3.890136878717449 4.357299387229759 -8.260591559076923 0 0 1
443 0 2 0 0.690361936703539 6.527535953759193 -2.8172220796586966 0 0 0
11 0 1 0 10.09050595275528 8.17194242923571 -6.4629115532389445 -1 0 0
217 0 1 0 6.198093089651767 3.2735947703787946 -6.788110491734279 0 0 1
5 0 1 0 7.39720793921888 5.006232870687269 -4.3221538184523425 0 0 0
427 0 2 0 6.8066763046704395 5.123137130174468 -2.8675549816413897 0 0 1
597 0 2 0 8.997649417499137 5.166609030107638 -4.184435600628553 0 -1 1
406 0 2 0 8.677601764335016 7.342654755941515 -6.759076437688075 0 -1 0
78 0 1 0 7.1712950558263024 7.5023775693437145 -6.2092704566930035 0 -1 1
63 0 1 0 9.943673584153334 6.423102174142313 -3.846948938922118 0 -1 0
623 0 2 0 6.776507791782588 3.8868669748527402 -5.3753389367236615 0 -1 0
328 0 2 0 6.8564499061546265 6.363995322704902 -5.003594917351461 0 0 1
435 0 2 0 10.549660342596258 7.010768419869379 -5.270451927410733 0 -1 1
583 0 2 0 8.957933342202363 7.4315400737139115 -3.062453923784207 0 -1 1
704 0 2 0 6.063103353722102 7.385754513489308 -7.302051067255067 0 -2 0
465 0 2 0 6.609957981477031 3.746183863204976 -8.314644973417636 0 -1 0
693 0 2 0 15.77205904026983 8.320155227232032 -4.352551026269906 0 -1 0
347 0 2 0 16.264024440282313 3.489830345938252 -3.8820947033740856 0 0 0
619 0 2 0 15.622062197310782 5.9240807149678165 -3.3892733106574076 0 0 0
433 0 2 0 14.324589682160283 6.231436287292482 -5.496351270925316 0 -1 0
374 0 2 0 14.51543769579241 4.74798293907139 -7.518974787436214 -1 0 1
594 0 2 0 14.111203964793614 3.6023922886459765 -5.126243153602685 -1 -1 0
438 0 2 0 12.267873179853122 4.836809595375902 -6.59862916036443 0 -1 1
99 0 1 0 13.75657749696309 4.847007675006671 -6.077908233007101 0 -1 0
51 0 1 0 14.729018971924614 7.046940856463772 -4.184422553844704 0 0 0
547 0 2 0 11.801566074961997 3.235022018883459 -3.5591402017714513 0 -1 0
340 0 2 0 13.411634530609142 7.3894059622758625 -3.4006001228933167 -1 0 1
23 0 1 0 15.773000218384766 4.11711662415421 -8.241300916559299 -1 0 1
1 0 1 0 11.847738897573471 5.118516538104499 -8.018090770451696 0 -1 1
283 0 2 0 -12.332441491638546 -7.1053169602125426 -2.8385838110159805 0 1 -1
134 0 1 0 -15.313916910536674 -5.686054655594594 -2.2673924842810065 1 0 0
284 0 2 0 -14.097656966841729 -4.586320516693244 -2.328101871108114 0 0 1
380 0 2 0 -12.101160895754681 -3.328269160706143 1.139737494971218 0 0 0
336 0 2 0 -14.865088518043734 -6.728319557067536 -1.1422384487293087 0 1 0
8 0 1 0 -15.2636244336814 -3.472647153497806 1.496061131246524 0 0 0
521 0 2 0 -14.525249792010916 -4.923523764883203 1.513452090280989 1 1 0
85 0 1 0 -13.682472022220947 -3.0165013449248876 -2.474199155086338 1 0 0
112 0 1 0 -11.31322679245957 -4.2863167648135 2.3096285930460176 0 0 0
706 0 2 0 -13.735556295758823 -7.401124354124926 1.9116161188888192 0 0 0
168 0 1 0 -15.000848890867214 -8.333519128939276 -1.055659852424407 1 1 0
98 0 1 0 -13.8262936810666 -5.923602922757764 2.5579486401487905 0 0 -1
299 0 2 0 -16.61365362995014 -4.760972586337951 -2.304273169772043 1 0 0
416 0 2 0 -8.154773505791557 -4.958409610263878 -2.792933053238606 0 0 0
3 0 1 0 -7.007286869369379 -4.096020902236331 -1.867849599138287 0 1 1
552 0 2 0 -10.177791385515324 -5.3670642992657385 1.883249988831885 0 1 0
398 0 2 0 -10.24326064338478 -7.714918348915752 0.39385435028741966 0 1 1
30 0 1 0 -9.702600894048118 -5.274531231432011 -2.28914609751782 0 1 0
543 0 2 0 -7.467359941137035 -4.225588151320812 -0.3428967486541179 0 0 1
322 0 2 0 -6.603299951568092 -4.388628898809699 1.9680922126065585 0 1 -1
201 0 1 0 -9.823932080506026 -8.085608741113493 -1.076379384231772 0 1 0
312 0 2 0 -10.257566717200794 -4.509333891226838 -1.001713706129637 0 1 0
294 0 2 0 -5.705843111586468 -4.798317751668167 -2.4713831417449006 0 0 0
683 0 2 0 -9.66979200589991 -6.860391450925711 -1.9930830198594292 1 1 0
24 0 1 0 -9.658008796676022 -6.908992831075936 1.7035596702992297 0 0 0
459 0 2 0 -8.116211620777122 -6.676974665895762 1.5175459728595584 0 1 0
220 0 1 0 -7.4081080053593364 -3.3123266694115676 1.113128755606894 0 0 -1
198 0 1 0 -6.974778299437391 -5.903690631753921 2.4728950463131945 0 1 0
633 0 2 0 -5.650891549186168 -6.798880848549827 2.6472258022391895 0 0 0
630 0 2 0 -8.829390332616672 -3.001766541165682 1.7351093532308042 1 0 0
104 0 1 0 -1.1365763375147697 -7.071445651114628 -0.7870065291400614 0 0 0
652 0 2 0 -1.531725300103064 -4.3092633007914705 2.1183863243427457 0 0 0
255 0 2 0 -3.612996316179487 -5.323996230824955 -1.3023901044051023 0 0 1
631 0 2 0 -1.1268888016866576 -6.031548469610634 -2.0751890689491654 0 0 0
306 0 2 0 -2.7160743633722095 -7.709569237578895 -0.8104772936077174 0 0 1
344 0 2 0 -5.251404983222056 -7.19021768298714 -0.421845012763991 0 1 0
96 0 1 0 -3.8491858051159618 -6.504568426662976 -0.31961034599960847 0 1 0
487 0 2 0 -3.2521618359980664 -6.038684096515882 1.1148140878780026 0 -1 0
639 0 2 0 -0.8233647496434457 -6.413356630158081 0.5531762909888887 0 0 1
174 0 1 0 -1.7868898291125053 -5.91575593704642 1.7847796635712534 0 1 0
90 0 1 0 -1.339508324895876 -3.0317705082110438 1.239842059006122 0 0 0
598 0 2 0 -2.472644563081367 -2.966070455216393 0.06400099222587485 0 0 1
356 0 2 0 -0.27465316175509713 -8.348396829641658 -1.26097563022424 0 0 1
129 0 1 0 2.3332796606067703 -4.462557855679952 -2.8694945253640096 0 0 0
705 0 2 0 1.8280529420880924 -3.005733404246878 -2.9617516767249628 0 0 1
479 0 2 0 3.680870500575729 -5.094598544828605 -2.4124620656122406 0 0 1
84 0 1 0 4.72149495575756 -6.295286103405113 -2.2840226215529933 0 0 0
482 0 2 0 4.036473990945883 -7.753704286868587 -2.479013187615574 0 0 1
484 0 2 0 4.838126531176414 -3.544623190988487 0.9223640780543985 0 0 0
316 0 2 0 2.2854409732230145 -3.9659052236658487 2.175917816943727 0 0 0
397 0 2 0 3.7579922541956456 -7.656164997346969 1.0876017728844918 0 0 0
164 0 1 0 5.2184228475449785 -7.0387647484294416 0.688232962913057 0 1 0
599 0 2 0 0.21645495994557962 -3.0120836367330712 0.6992844810003991 0 0 0
385 0 2 0 5.305521518318198 -6.362712111266409 -0.8038437403935141 0 1 -1
582 0 2 0 7.961658851974011 -4.404998944197603 -2.7470824228047084 0 0 1
13 0 1 0 8.066577498756697 -8.140843348736313 -2.4465771241260184 0 0 1
441 0 2 0 5.709086014908461 -5.880908811146076 1.6441439554643047 0 0 -1
138 0 1 0 6.029917604331434 -4.357837009938581 1.5914127482799394 0 -1 -1
440 0 2 0 8.365286512684747 -7.754369195429289 -0.8913686057895713 0 0 1
305 0 2 0 10.403625244711268 -6.23464058276406 -0.40334023138864694 0 0 0
150 0 1 0 9.479015457199207 -7.382065069584781 0.24020097594566892 0 -1 0
516 0 2 0 7.253795239034119 -4.033717889164094 0.6344639153071885 0 0 0
271 0 2 0 9.124120590237446 -6.96065960506591 1.798071171133211 0 0 0
62 0 1 0 11.233928701981515 -5.2506557400136025 -1.4290096042640785 0 1 0
41 0 1 0 13.646245366745038 -6.14501354381138 -2.7519883140242207 0 0 0
492 0 2 0 16.56341634638369 -3.937775132370592 1.1798720365940785 -1 0 1
707 0 2 0 14.839270281855189 -7.097923395944723 -2.3237537124217944 -1 0 0
608 0 2 0 12.563769087096702 -6.061904480969726 -1.6326387815027106 0 0 0
437 0 2 0 11.699452728040697 -3.8346128620169058 -0.8003971920220625 -1 0 0
315 0 2 0 15.992261845693669 -6.683330596697686 0.6622261596039163 -1 1 0
70 0 1 0 12.667022540081057 -5.783353926270431 0.8216958605046205 -1 0 0
538 0 2 0 12.684333799908668 -7.364909074357959 0.8334590415351695 0 0 0
564 0 2 0 11.518597798511724 -5.020307158571123 1.6306053752107363 0 0 -1
183 0 1 0 15.576804119179911 -5.2863866093243415 1.4114348892874027 0 0 0
243 0 2 0 14.051882750890925 -5.099913846809409 0.8552809014459974 -1 0 -1
166 0 1 0 16.350325146181518 -8.16871701863039 0.9488613492320965 0 1 0
590 0 2 0 16.2181675069817 -8.243140476905676 2.5586816557603616 0 1 0
562 0 2 0 -12.633850556281686 -2.555483856575467 -1.3710431385676527 0 1 1
160 0 1 0 -15.678207882266765 1.0865534179144039 -2.395446265145777 1 0 0
180 0 1 0 -12.8225150288365 -2.267056942997047 0.1924600846787765 0 0 0
360 0 2 0 -14.458438894770639 -2.5405887625302928 0.40358684411078904 1 1 0
281 0 2 0 -15.013130368647063 -2.082582949282359 -2.418843955550847 0 0 0
444 0 2 0 -12.507878246465285 2.254631815045702 -0.5324781349036805 0 0 0
181 0 1 0 -12.92825103635999 1.614981604024262 -1.9385038105605608 1 0 0
602 0 2 0 -14.25806191641868 0.8565247092257291 -1.6721484332121008 0 0 0
242 0 2 0 -13.235887290595361 1.5665818178571342 1.7949613140075602 0 0 0
558 0 2 0 -16.35987986226057 2.3462831946453413 -1.6259619907015344 0 0 0
149 0 1 0 -12.332747906512925 0.24181920267564827 1.7280067285919216 0 0 0
489 0 2 0 -12.5258157424722 -0.6955314608888576 0.36595497957555345 0 0 0
139 0 1 0 -16.625861776471133 -1.7338518709882207 -2.3036157735836236 1 1 0
581 0 2 0 16.646282444862354 -0.13395109993820498 -2.4895386583002486 -1 0 -1
632 0 2 0 -6.159980389044264 2.1702936029973703 -2.1309747958218184 0 0 -1
346 0 2 0 -9.14236918920053 -0.39452398486914575 -2.2671814882266865 0 0 0
423 0 2 0 -6.622529143654427 -2.576648229096673 -1.996660243976943 0 0 -1
40 0 1 0 -5.856219377472025 -0.49715440081260365 0.6237120661494568 0 0 0
266 0 2 0 -5.7647804140218 0.4123324759338747 1.9660043734090689 0 0 -1
643 0 2 0 -6.548467137598829 -1.913299675891352 1.0002515671790526 0 1 0
682 0 2 0 -10.746851854276976 0.7411085062488141 1.7552166344681517 1 0 0
199 0 1 0 -6.973776271517229 1.9334184823838747 -0.8145582706066916 0 0 0
720 0 2 0 -6.7551252074362225 0.4117838817620054 -0.32530054881798165 0 0 0
46 0 1 0 -9.754978599088172 2.017017982981489 1.9366486021526583 0 0 0
667 0 2 0 -8.110686944359033 1.75227289123392 2.22463257133057 0 1 0
536 0 2 0 -8.435194873889612 2.7081536187779154 -1.111339015498432 1 0 0
454 0 2 0 -6.232135378869835 2.8627901628399375 0.3805301410188875 0 -1 0
695 0 2 0 -5.621459904812896 -0.3180374124787342 -2.671523798672605 0 0 0
234 0 1 0 -5.350861546189897 -1.9528976040155248 -2.787301095463956 0 1 0
202 0 1 0 -5.007352473822552 1.1668217123258202 -2.6584255021418484 0 -1 0
686 0 2 0 -3.9263610281591745 -2.144703823918584 -2.0277560526167253 0 -1 0
671 0 2 0 -4.384957974858036 -0.9601578747465407 0.08862171993334123 0 0 0
192 0 1 0 -3.1445809489560848 -1.6269855212657474 -0.6808992715901008 0 1 0
591 0 2 0 -1.483860918244897 -1.6467804596581166 1.9497729992431498 -1 0 0
393 0 2 0 -2.0033725899039556 -0.6041367865535223 -0.3192761745129271 0 0 0
365 0 2 0 -2.414926375708365 0.8279259749982142 1.9936478349270175 0 0 0
106 0 1 0 -1.47113065716567 -0.2722515817445803 1.2086462612602915 0 0 0
395 0 2 0 -3.944304469810808 1.4759983856097811 -1.4016268791554571 1 0 1
120 0 1 0 -2.472691962493494 2.4560250523221807 2.1417830161598737 0 0 -1
329 0 2 0 0.014886515653451227 0.3741145353222439 1.3429234881693635 0 0 -1
19 0 1 0 1.6389523999157305 -2.738932797387248 1.3446993865332661 0 0 -1
530 0 2 0 0.049150998528254775 -0.8716004581956112 -2.4142540644300574 0 0 -1
689 0 2 0 4.590865259568879 -2.4632433563407847 -1.5173813703061505 0 0 0
127 0 1 0 4.224897750608552 -2.2866380359704657 0.059818036304958966 0 0 0
331 0 2 0 2.660657736211636 -2.360959172912475 0.2164519383075021 0 0 -1
64 0 1 0 1.4557440169705629 0.2301126281005903 2.0036653359512613 0 0 0
658 0 2 0 4.703535673544007 -0.8142993973034507 0.5819766404722202 0 0 0
131 0 1 0 4.070945722292379 0.7137102974200094 0.5318080258268587 0 0 0
455 0 2 0 2.4734794597085994 0.4643745875063079 0.7878074588017228 0 0 0
660 0 2 0 4.335802029465366 1.8057230264945296 1.6972622175695449 0 -1 1
532 0 2 0 4.505616254093123 1.5902032202001894 -0.7550648585275983 0 0 -1
696 0 2 0 1.5291758649937073 -1.3923759019173945 2.3067745053334505 0 0 0
237 0 1 0 5.470159496991801 2.7470815067544088 -1.3313489822299518 0 0 0
697 0 2 0 9.455219683211805 -3.067050622252963 -0.09022850993165932 0 0 -1
44 0 1 0 7.92863192275917 -2.699805297138142 0.08192566066357365 0 0 0
610 0 2 0 8.978215975684837 2.60394949501093 -2.4887998099424253 0 0 0
421 0 2 0 7.365373159454371 -2.39646052023323 -1.3975962139232285 0 0 0
48 0 1 0 11.00624017138513 -2.556100654903039 -0.12761022708355618 0 0 0
379 0 2 0 6.4337283528409905 2.2253548428997014 -2.4679567495669534 0 0 1
75 0 1 0 10.52076741746361 -0.5006932387270346 2.0009162448089306 0 -1 0
228 0 1 0 7.823217439866916 1.460987454448306 -2.411354267721949 0 0 0
235 0 1 0 8.229187251686504 0.29322834342433524 0.4307645571665013 0 0 0
413 0 2 0 8.184119943904847 0.6371795752637759 -1.1042878280649688 0 0 0
445 0 2 0 9.758091725776595 0.32606937445889095 0.8582183385024607 0 0 0
646 0 2 0 7.458056453197202 1.4897447719810337 1.146012815048488 0 0 0
620 0 2 0 7.729269646306097 -1.2587170930095235 0.8103740560338561 0 0 -1
504 0 2 0 11.132380540838316 -1.8444318467847047 1.3254502158472121 0 1 0
592 0 2 0 11.63005376249702 0.7439666214792986 -2.70224587185906 0 0 0
265 0 2 0 11.231554604266904 -1.2903542194593065 -1.1066852865008734 0 0 0
419 0 2 0 16.305751548909527 1.5395514401188386 2.570279698080764 0 0 -1
466 0 2 0 15.84873056278488 -2.0145214356770653 -0.9380851388417213 -1 0 0
502 0 2 0 14.031845684559507 -1.6851764125627193 1.18658160435176 -1 1 0
65 0 1 0 14.779551001313052 -1.089743359165154 -0.13058096259526586 -1 0 0
523 0 2 0 15.510202158573271 0.19302774957049706 0.4235201813098861 0 1 0
508 0 2 0 13.862929008607974 1.7740124442908485 1.7877244112304425 0 0 0
57 0 1 0 12.198526651621314 -0.019270567740669264 -1.3497839767178217 0 0 0
589 0 2 0 13.701594391194632 -0.5844026925087444 -1.275418699081567 0 1 0
73 0 1 0 15.372463289809538 1.5453931655452138 1.2763330289363193 -1 0 -1
280 0 2 0 11.636125250915839 0.597793094276394 2.667195471292244 0 0 -1
517 0 2 0 12.210791029464787 0.8441454272729185 0.03547933234128742 0 0 0
158 0 1 0 12.301909091258015 1.5836985250800897 1.4530915402749756 0 0 0
399 0 2 0 14.01576605324352 2.7032219995146196 -2.57034856912128 0 0 0
239 0 1 0 14.288528181046676 -1.8589991150262382 2.8168221867125123 0 1 0
102 0 1 0 -13.339346735225282 2.834860855848156 0.7890834246350664 0 0 0
295 0 2 0 -16.058245249610554 8.104147981503711 -2.192530819728275 1 -1 0
263 0 2 0 -13.608956517583035 6.677293305829892 1.9735009824935617 0 0 0
383 0 2 0 -11.594825466653184 6.210422965186778 0.23113153028175937 0 0 0
20 0 1 0 -12.2990455274178 8.143337214020967 -2.461119113032666 1 -1 0
430 0 2 0 -15.57566889871255 8.201835688307654 0.3999402876928695 1 0 -1
320 0 2 0 -13.492582994197678 7.881430450504826 -1.4271569899902126 1 0 -1
172 0 1 0 -12.303301985255999 5.730204896517192 1.6074264530865907 0 0 0
642 0 2 0 -12.722341477926975 4.197211098745601 1.4244696995995252 0 0 1
624 0 2 0 -14.862157133357242 3.2195068153978834 0.24371809099401887 0 0 -1
32 0 1 0 -16.396108360627633 3.4150426261419753 -0.40124241114398274 0 0 0
391 0 2 0 -12.039066913608647 5.2808567049145605 -2.12883725866904 1 0 0
154 0 1 0 -13.746332333114989 8.116562196895536 2.7794846680885534 0 0 0
439 0 2 0 -10.902391087103807 7.659133917528283 -1.7120266136197646 0 0 1
162 0 1 0 -10.992072101413033 6.01698219466498 -1.1896671066300124 0 0 0
537 0 2 0 -9.967140926243276 3.061705540424059 0.7268538471323289 0 0 0
81 0 1 0 -6.605314056218935 4.123416751807346 1.3386505368212767 0 0 0
7 0 1 0 -7.347273806521919 6.964059723171939 -1.7254473284422405 1 0 0
269 0 2 0 -7.981648384834422 4.641623910734436 0.6353344677779909 0 -1 0
292 0 2 0 -8.493849680865859 7.835472219771233 -1.1847328727900406 0 -1 1
42 0 1 0 -9.124860446460655 3.882415115456398 -0.3325060353396463 0 0 0
422 0 2 0 -9.713242080460663 5.0980069217122015 -1.2171833002492196 0 0 -1
524 0 2 0 -6.29772674914798 6.26429809423963 -0.8053358807445372 0 0 0
629 0 2 0 -5.883686572736469 7.702857587024916 1.338598112209736 0 0 1
259 0 2 0 -8.645334734884516 6.562823810052388 3.02336841903956 0 0 -1
6 0 1 0 -5.184238253040673 -8.361249257880372 2.5872206915519556 0 0 0
9 0 1 0 -3.383896020613628 2.8532580393060183 -0.5172597920450954 0 0 0
467 0 2 0 -4.477494110811783 7.675735152471205 -2.5895911793358133 1 0 1
318 0 2 0 -1.8125240435471088 2.956946372710016 -0.6786945109449274 0 0 -1
486 0 2 0 -3.588573068315686 2.9115772224084093 1.0547463452841441 0 0 -1
100 0 1 0 -5.248094391108612 6.537284560808688 0.4082528758098025 0 -1 0
205 0 1 0 -3.3389776502795137 7.657611753358026 -1.464173115620592 0 0 0
86 0 1 0 -0.5713598493791316 7.546104432855978 -2.5060117249605067 0 0 1
377 0 2 0 -3.8575190955671506 4.083138634259825 -1.4376425875014744 0 0 1
275 0 2 0 -2.0668357524550984 6.920404613733757 -2.197861662945832 0 -1 0
575 0 2 0 -0.5147225541437557 5.128526504382743 -0.1666293755786299 0 -1 1
550 0 2 0 -3.6001091751643006 8.169122291922125 2.474181469601765 0 -1 1
494 0 2 0 -3.829237486352344 6.8202092675918795 -0.21807442025752266 0 0 0
18 0 1 0 -0.6310052073744217 3.554265632397639 0.23162873808106887 0 0 0
429 0 2 0 -5.308477739755583 5.180155576359724 1.264177610259944 0 0 0
513 0 2 0 -1.1255882038467089 3.2428002606495436 1.6875501442639038 0 -1 -1
317 0 2 0 -1.0401627427601987 7.540354316108674 2.380534864851139 0 0 0
401 0 2 0 0.7777770889957978 2.9691648775947037 -0.21361949627362442 0 0 0
101 0 1 0 3.107213947876712 8.23545477050627 2.2291730851478935 0 0 -1
669 0 2 0 4.727220963828273 4.004004710542736 -1.977462855381419 0 0 0
250 0 2 0 1.6209266281165178 7.711687498144936 1.8964864038287566 0 -1 0
507 0 2 0 3.1958034353927403 3.7582743602781843 0.21998903410458226 0 0 0
514 0 2 0 1.8727922148141296 4.220692964896246 -2.2737076397428204 0 0 0
91 0 1 0 2.076008403983611 3.5659311592367757 -0.840335629621725 0 0 0
117 0 1 0 3.69406522104536 3.3161778414027516 1.7354508426546982 0 -1 0
460 0 2 0 2.3091941766948203 3.473302571539312 2.472645242088518 0 0 0
612 0 2 0 4.754961289716608 4.437910066323109 2.22967849875201 0 0 0
25 0 1 0 5.389976982420535 5.452830666218217 -2.1724111811706113 0 0 1
450 0 2 0 4.017476350020075 6.9291770610119485 2.563066298344925 0 -1 0
15 0 1 0 0.48410182698727766 7.27677642695269 2.9530189058716285 0 -1 0
653 0 2 0 5.687038167063747 6.327893742278574 -0.7966300787025178 0 -1 0
261 0 2 0 6.515125982501303 8.265929987409372 -2.556563089108799 0 -1 1
473 0 2 0 6.218180006750099 -8.31810820967441 0.7524332151611492 0 1 0
355 0 2 0 8.12494961789076 6.638239134693858 -0.14900192499628062 -1 -1 0
52 0 1 0 6.678906462703392 7.327312490973997 -0.09715761964897496 -1 -1 0
609 0 2 0 6.480719603429183 3.366888412457156 -0.19345025479420386 0 -1 0
188 0 1 0 7.644427397084684 3.0414449046905006 0.8377826601265408 -1 0 0
709 0 2 0 9.102491115017447 3.1773839067793457 0.11897069264422022 0 0 0
189 0 1 0 9.471561846265868 6.513557243895784 0.6494102896332112 0 0 1
367 0 2 0 7.668657365671116 3.966143347162836 2.2105126079934365 0 -1 0
382 0 2 0 10.304446517838883 7.981522029324918 0.5322473149373153 0 0 0
58 0 1 0 10.65000045099551 3.716334515219133 0.07788284008669955 0 0 0
353 0 2 0 10.478285257342694 5.353106374941792 0.25916571917847797 0 -1 0
503 0 2 0 8.940212039653748 6.364930632510591 2.1526390847085164 0 0 0
491 0 2 0 11.150534928990187 6.273304291498258 -2.8361735362313256 -1 0 0
650 0 2 0 11.335844421595755 2.8757866626589035 1.3020071405728562 -1 0 0
474 0 2 0 15.76778350546131 2.807482429543036 0.4307528940136258 -1 0 0
409 0 2 0 12.489861408224073 7.52580572531679 -0.9403445496524725 0 -1 0
206 0 1 0 12.077936964822634 8.01802969680368 0.538332370587085 0 0 0
268 0 2 0 12.497742140484519 7.137351952583417 1.8303236551601287 0 0 0
207 0 1 0 13.384775325236799 5.899404419073173 2.3835169021548257 0 0 0
45 0 1 0 15.661836756663924 5.796317342300995 0.6699678134583849 0 0 0
376 0 2 0 16.54506653415421 4.973657792131879 -0.44171382089909006 -1 0 0
654 0 2 0 15.463460426836726 7.3735539857325545 0.4248217896220936 0 0 0
53 0 1 0 12.619211936230194 6.593836611659411 -2.2964789739612232 -1 0 0
718 0 2 0 14.163139750697596 5.343757941724235 1.0485574188890325 0 0 0
677 0 2 0 13.250286150428781 5.128374796258969 -2.117263005093619 0 0 0
573 0 2 0 16.504076243677183 5.4351423259808875 2.0648366499869404 0 -1 -1
238 0 1 0 12.72115495503191 3.6279808425441296 -2.2664024303121337 0 -1 0
351 0 2 0 11.641829586458801 3.412782976341701 -1.094678009454662 0 -1 0
509 0 2 0 -13.312482876636551 -6.089287422500443 8.264810127399711 0 1 0
27 0 1 0 -14.523958422992958 -5.000789081339461 8.021770921543604 0 1 0
539 0 2 0 -13.721031511835893 -3.5949007475256742 7.969519519024383 0 1 -1
456 0 2 0 -15.113894142583796 -5.3278871568426425 6.604639177111958 1 0 -1
637 0 2 0 -13.69349173790077 -3.752347638354226 4.937073867642539 0 2 -1
214 0 1 0 -14.990424042435135 -4.74974175926251 5.138167430448995 1 0 -1
301 0 2 0 -14.702191351774497 -5.886862342803381 3.939796498136408 1 1 0
252 0 2 0 -12.380849613855778 -5.393560124230669 2.83325973421867 1 1 0
247 0 2 0 -16.371655644772783 -4.072556658622069 4.772468373500255 1 1 0
151 0 1 0 -13.34513922915163 -7.5167314358441235 7.534240678315939 0 0 0
574 0 2 0 -12.843383227130694 -7.708591967813924 6.00408673530346 0 1 -1
457 0 2 0 -14.935662415949045 -7.871011563670908 7.7003788106914595 1 1 0
375 0 2 0 -10.991455299704668 -3.3944442066545983 3.620097416829063 1 0 0
496 0 2 0 -9.910338037883474 -8.026509160524343 2.872571587862959 0 1 0
333 0 2 0 -9.78961244518429 -4.784051035198496 7.756120864467297 0 0 -1
210 0 1 0 -8.2151582290638 -6.751194859821614 7.67107625400706 0 0 0
554 0 2 0 -8.944620476937377 -3.7539872617321395 5.1104951714458515 0 1 0
692 0 2 0 -6.320333991442864 -3.0813673546191263 7.922166015836192 0 1 -1
483 0 2 0 -7.679271926810566 -5.839300082608665 6.448328128187391 0 1 0
701 0 2 0 -9.384119923238707 -7.647349491050989 7.12740400637432 0 0 0
651 0 2 0 -7.7627101155231415 -5.725580192717414 3.8558623400326937 0 1 0
110 0 1 0 -8.208543106159677 -5.114893592178069 5.1968394468766625 0 1 0
226 0 1 0 -10.344329245971817 -2.8753349268776462 4.923304270692311 0 0 -1
403 0 2 0 -2.8979178306659428 -4.416539116975448 7.725509189356588 0 1 0
298 0 2 0 -1.708216714068186 -6.888312872879662 3.0395732512838887 0 0 1
211 0 1 0 0.30758632980386125 -3.9841548861939176 -8.279259791060879 0 0 1
349 0 2 0 4.028949381744432 -8.35073476102371 8.29936288555485 0 1 0
169 0 1 0 5.387508058926791 -4.033167197914211 6.5427064919881115 0 -1 -1
431 0 2 0 3.5659412061072047 -6.821961144430929 6.07721284054252 0 0 -1
194 0 1 0 3.1215905549715686 -3.8834761666597606 3.5462754993118075 0 0 1
146 0 1 0 2.9327427814163833 -7.415409333749284 7.443711364854412 0 1 0
277 0 2 0 2.0150477558956794 -3.7594086401395854 4.693022589766505 0 0 0
130 0 1 0 4.005216719315044 -6.739969219244113 4.546808450498771 0 0 -1
286 0 2 0 3.116048008436046 -7.601735412962929 3.5267836187569728 0 0 0
717 0 2 0 3.957962955517125 -5.220470986911986 3.906633300675722 0 0 -1
560 0 2 0 3.715766208515493 -4.015290812193715 6.525145977896033 0 -1 -1
218 0 1 0 2.3081469038663514 -3.2618252723011514 6.16638993329844 0 0 -1
567 0 2 0 1.0670004093447396 -3.816076971681614 7.060023826838206 0 1 0
518 0 2 0 5.45031699352317 -7.390356073397378 4.4411234557201755 0 0 -1
535 0 2 0 5.622494686424396 -4.0372902850845644 8.120648196059923 0 0 -1
54 0 1 0 10.870291956161566 -4.803366359495904 3.069486709280966 0 0 0
373 0 2 0 10.599672628824997 -6.196134958262811 3.8379361469360376 0 0 0
613 0 2 0 9.65037313190885 -3.834000006123306 3.368405005656271 -1 0 -1
93 0 1 0 9.30048939408259 -7.1064606351685 3.4233968321990744 0 1 0
111 0 1 0 8.831778016447984 -7.804638704244707 7.645170413363173 0 1 0
665 0 2 0 10.637902592645464 -3.4883680337632166 7.953034602413959 0 0 0
308 0 2 0 8.943370924078888 -6.519035075658799 6.674115165991855 0 0 0
246 0 2 0 8.184875692956641 -6.24755403034823 4.263285179076387 -1 0 0
471 0 2 0 8.790554570554107 -4.1906625135841455 5.722558848482368 0 1 1
719 0 2 0 6.447182176849907 -5.299281214025278 6.132011865595285 0 1 0
55 0 1 0 7.987325317142194 -5.587727850630392 5.638727435057531 -1 0 -1
22 0 1 0 9.30611376819968 -3.0364664155535834 4.787751179075427 0 0 -1
264 0 2 0 6.428029337101801 -3.665788482071531 3.036130132418739 0 1 1
289 0 2 0 11.100841989294725 -7.9393115524579745 5.741401499171648 0 1 0
285 0 2 0 5.8739463755653105 -2.862547697021088 5.5710287095508075 0 -1 -1
384 0 2 0 12.259291041801777 -5.658516266879613 6.033031522139858 0 0 0
321 0 2 0 16.036379498827074 -8.129682881988868 5.343725911825993 -1 1 0
17 0 1 0 11.767468210939366 -6.73277484305717 4.952049665230955 0 0 0
622 0 2 0 14.704438370412664 -5.088584278800366 5.458123767940627 -1 0 -1
105 0 1 0 13.7311219594628 -5.524709912887321 6.631561804573561 -1 0 -1
208 0 1 0 12.282467794150183 -2.8050365342298553 4.719870185449972 0 0 0
618 0 2 0 14.188323817550398 -7.055261198012929 6.974426233416031 0 0 -1
488 0 2 0 12.991627420896027 -7.154535177448284 4.084898904839594 0 1 -1
249 0 2 0 13.63774113208424 -4.732445587763391 8.036353034117356 0 0 0
505 0 2 0 14.792586561630706 -3.292064890300172 3.4027169336251077 -1 0 0
140 0 1 0 15.545681549393372 -4.457986199395249 4.20408103910729 -1 0 -1
417 0 2 0 15.70168619684572 -5.514221234797416 3.0019199116958966 0 0 -1
463 0 2 0 12.065756141815328 -4.176005325880278 3.921067372400733 0 -1 0
540 0 2 0 -12.904100329469003 -0.8009444682040812 2.768820629537247 0 0 0
357 0 2 0 -14.998308230295377 -2.548054975831702 2.8839373769179506 0 0 0
436 0 2 0 -15.0173196245755 2.263965809035616 8.025472703584507 1 0 0
348 0 2 0 -13.573251064955123 -1.025152866396736 5.076746338945837 0 0 0
694 0 2 0 -11.859938792143236 1.1107292249584493 4.4874582265235095 0 0 0
544 0 2 0 -14.142720309710178 2.031781819954597 5.597881331548097 0 -1 0
212 0 1 0 -14.261127175191069 -1.2726691422290557 3.565147857668645 0 0 0
702 0 2 0 -15.309749738326527 -0.02891329147553634 3.6010029072617744 1 0 0
29 0 1 0 -12.490957873272265 0.0275892647885545 5.465701016532449 1 0 -1
586 0 2 0 -11.630524721202104 -0.14543248088445004 6.720389515929872 0 0 0
324 0 2 0 -11.170827191060816 -2.735846021838925 6.291523191763094 0 1 0
119 0 1 0 -13.893243381324488 2.8382103546790383 4.216989714043569 0 0 0
142 0 1 0 -11.220836481598676 2.6306771480182505 4.5144570020852655 0 1 0
626 0 2 0 -7.057302908863548 -0.4902433626539482 8.32230835810208 0 0 0
215 0 1 0 -8.560103346919632 0.13920781087868406 8.199022168835812 0 0 -1
128 0 1 0 -11.014043259230856 -1.5334499888667823 7.333411911795551 1 0 -1
323 0 2 0 -9.505164663056537 -1.0831694481726997 7.710170949376286 0 1 -1
362 0 2 0 -10.29414321769962 2.72674615922498 3.2645941838872723 0 1 1
464 0 2 0 -7.245207440254227 -1.5120120923297842 5.912061328734156 0 0 0
240 0 1 0 -8.252450761346449 -0.9606093710342805 4.834506435069427 1 1 0
118 0 1 0 -6.8744426890185615 0.9325600754553403 2.9616605300299543 0 0 0
700 0 2 0 -7.6640318678486175 -0.35880670871835996 3.5602919892498175 0 1 0
186 0 1 0 -6.372831832624103 -1.619768871649332 7.224321879752852 0 1 0
621 0 2 0 -9.741613948905322 -1.3021222752112935 4.759897218916162 0 1 0
708 0 2 0 -8.449688544870519 1.2499045343390467 6.96044941486111 0 0 -1
415 0 2 0 -6.090513436296382 1.4817122988664249 4.3213714787037 0 0 1
270 0 2 0 -6.239917144497301 2.408684315784292 6.740322520105291 0 0 0
177 0 1 0 -7.842555788933787 2.729762810303198 6.656218099205185 1 0 -1
369 0 2 0 -3.8037900784430683 1.7838825775137277 5.786344291626806 0 0 0
366 0 2 0 -4.847772106186152 -1.3490315507508024 6.90788061653714 0 0 -1
176 0 1 0 -3.724848631745168 -0.9121488061493936 7.954631909623336 0 1 0
182 0 1 0 -1.5150535733266963 -0.7835723450731304 5.8848702122648024 0 0 0
371 0 2 0 -1.9568042241363077 -2.201645630154079 5.26824265377355 1 0 0
703 0 2 0 -2.3765387462988965 -0.3686904286280832 7.21633892956954 0 0 0
390 0 2 0 -1.7113148527853905 0.4754057211742886 4.831002012323882 0 0 -1
213 0 1 0 -2.3026915257283633 1.9451331938924792 5.120491775743277 0 0 0
133 0 1 0 -5.251406900850846 2.36769776078933 5.4462809716072496 0 0 0
307 0 2 0 -2.6511970090693993 2.6623198591298998 3.7076393913627665 0 0 0
426 0 2 0 -1.3899285341789778 2.602710367522034 6.269588828479 0 -1 0
526 0 2 0 0.02908661199206719 -0.7945727333415187 6.337972193120239 0 1 0
659 0 2 0 1.5768297550041908 1.0827721286531045 3.4119979861076573 0 -1 0
662 0 2 0 4.180503789726362 -2.6300857811067617 3.6669836874472246 0 0 0
661 0 2 0 2.4693371398070525 -1.6190101880635854 6.049848446615641 0 0 -1
143 0 1 0 1.5437145497591303 -0.4006167392245654 6.638616429338329 0 -1 -1
452 0 2 0 1.8920849968378413 1.058685226261158 5.996802607897369 0 0 0
572 0 2 0 1.8375370569181513 -0.7031721029006457 8.215184149582258 0 0 -1
229 0 1 0 2.0123481769688176 2.0847298362420723 4.690562436092041 0 0 0
615 0 2 0 3.5829334006990976 2.5332109331106274 4.831799767484355 0 0 0
561 0 2 0 9.397170923663452 -0.7658250626325094 3.0917924126874787 0 0 0
506 0 2 0 10.74106441633241 -2.4001536753084523 5.28586394361901 0 0 -1
167 0 1 0 5.776486520586083 -2.527578742874084 4.033539179377829 0 0 -1
478 0 2 0 6.4811208642868685 -1.0692972396949534 3.576753177899752 0 0 0
495 0 2 0 7.385177398546666 1.6581740494835397 7.0546097028412 0 0 0
343 0 2 0 9.927211348103839 1.7490791670557186 7.051394117094819 0 0 -1
244 0 2 0 9.360961587373303 -0.6222493879581155 6.932295041638135 -1 0 -1
691 0 2 0 8.204557625080469 0.662616775521851 4.966394146656459 -1 -1 -1
175 0 1 0 8.618241941657374 0.813705156403854 6.544245753965255 0 -1 0
203 0 1 0 7.958724053545065 -0.5989675715157592 4.058594097860199 0 0 0
273 0 2 0 8.278555774630277 -1.864003879962305 4.98507102537911 0 0 0
187 0 1 0 10.706964992139287 -1.0368438595724863 6.22021156929145 0 0 -1
342 0 2 0 10.749795485701167 2.4408339030874053 4.228303943784331 -1 0 -1
656 0 2 0 13.16285032500599 -2.8705895195773214 5.9787226001780684 -1 0 -1
61 0 1 0 15.831219725001993 -1.6707574786016686 -8.358596701699707 0 0 1
407 0 2 0 11.27839939824283 0.0028715181227561004 5.150398538331652 -1 0 -1
576 0 2 0 16.2774878985109 -2.3995841055069667 7.0871421411469715 -1 0 0
424 0 2 0 16.0352700709918 -0.02314903704504445 8.325930906653165 0 0 -1
296 0 2 0 15.453661709183187 -0.7926007679928571 3.2864627151128847 -1 0 0
712 0 2 0 11.913540000340856 -1.0824309973010715 7.222713331444428 0 0 -1
50 0 1 0 13.393614295403097 -1.6268224389264248 6.939308700111633 0 0 -1
339 0 2 0 15.888609807706167 1.0320313013276472 5.043561375813159 0 0 -1
185 0 1 0 14.43265777537341 1.003943442745861 5.707473431931749 0 0 -1
716 0 2 0 14.42296937898793 1.710456158141021 7.137019886792482 0 -1 -1
605 0 2 0 14.102506144314269 -0.5117032516402231 6.043806248014528 -1 0 -1
389 0 2 0 13.260167631043966 1.5749180622379004 4.761810543326787 0 0 0
248 0 2 0 12.881496749017355 -1.7391505809510504 3.6484949898278902 0 0 0
12 0 1 0 16.51423832464949 0.43192130337641466 3.715202083682673 -1 0 0
125 0 1 0 11.765098973417043 1.1902638676515664 4.245858141854679 0 0 0
453 0 2 0 -12.500288542238852 8.149933615492504 8.230957017762803 1 0 0
124 0 1 0 -11.55632752873479 3.6920949274104338 8.17072715559683 0 0 0
442 0 2 0 -14.93988857534133 3.3304585940021134 3.2109107069842793 0 -1 0
332 0 2 0 -12.488128140585241 3.5494799654057907 4.308908375202298 0 0 -1
606 0 2 0 -12.473839801709342 8.091534571386536 3.755180156637776 0 -1 0
4 0 1 0 -14.365283001200599 3.0848700880873494 6.86035517326901 1 1 -1
326 0 2 0 -12.912939856886377 3.548759118793633 7.359634809727304 1 0 0
578 0 2 0 -15.034604478351174 4.25726135137139 6.0395333833611 0 -1 -1
178 0 1 0 -15.035505832833397 5.842775498273928 5.7534255769940135 0 0 0
565 0 2 0 -16.265947700381354 6.034422743704376 4.667604998433442 1 0 0
497 0 2 0 -14.990678636476048 8.107657589757782 3.7677443560180546 1 0 0
26 0 1 0 -15.919977872831236 7.76676871907409 7.998942393871554 1 -1 -1
525 0 2 0 -13.492669074040345 6.4426401217918965 5.4751339329406825 1 0 0
56 0 1 0 -12.3348469079433 7.7200212975339895 5.331830574927153 1 0 -1
548 0 2 0 -15.473340050559077 6.522386878741397 7.144955627015012 0 0 0
236 0 1 0 -16.502489059564542 8.399887320854413 4.012800802884767 0 0 0
500 0 2 0 -11.157063576130266 6.130321034663567 2.682401469085274 0 0 0
657 0 2 0 -6.923489005462232 4.046565001763346 2.9156520965112946 0 -1 0
687 0 2 0 -10.474680121438084 2.890166431368508 5.904650499654281 0 0 0
145 0 1 0 -5.878866476751492 8.246124220082304 8.249913737216074 0 0 -1
152 0 1 0 -10.035067406404792 7.202492600102065 3.1566190246773065 1 -1 0
121 0 1 0 -9.178127748927832 5.209666925297062 7.946907174643515 0 -1 -1
434 0 2 0 -8.921158323010918 6.481219730131823 7.017622866283693 0 0 0
636 0 2 0 -5.750389306631584 8.007517150578739 6.610322021051674 0 -1 -1
300 0 2 0 -7.860160312343764 3.51189912320992 5.23075742633425 0 0 0
34 0 1 0 -6.540384430966508 7.50836558513803 5.262812154825742 0 0 0
448 0 2 0 -8.071345017641706 8.151776664495689 5.343326573731561 0 -1 0
664 0 2 0 -10.717406966579137 4.9360859066612015 7.805892768022195 0 0 0
290 0 2 0 -10.767783722577118 7.431478987342315 5.4956296725629645 0 0 1
304 0 2 0 -8.37721084581061 3.806940487934776 7.726708999079937 0 0 -1
302 0 2 0 -6.777031774540934 5.914577528367939 5.2543833429558 0 -1 0
159 0 1 0 -9.361321760248181 7.871985442890647 6.219238277968623 0 -1 0
39 0 1 0 -6.808015404602042 4.476259121310131 4.459571649803246 0 0 0
262 0 2 0 -5.7356225673286705 7.805460324570678 3.9348611210490265 0 -1 0
555 0 2 0 -2.041468313520724 4.1120727142463185 8.333113956513921 0 -1 0
114 0 1 0 -2.137253440930646 8.376633828074219 3.144015523219597 0 0 0
156 0 1 0 -1.8518822757197686 6.54782946138501 5.669535679731656 0 -1 0
330 0 2 0 -3.0981745169532005 6.007646232090931 6.523046661452325 0 -1 0
88 0 1 0 -0.9294978254678625 3.081724339146799 7.681015996909588 0 0 0
499 0 2 0 -2.352740927021511 7.6464214777536625 4.604925553546453 0 -1 0
303 0 2 0 -5.3474361963569255 3.8451431448430693 4.787857662326719 0 0 -1
680 0 2 0 -0.7637501979331844 7.2483932185506745 6.631971042501325 0 -1 0
616 0 2 0 -0.9545529507172841 5.271309277791714 5.1020531309675246 0 -1 0
449 0 2 0 1.7451639414993174 8.362148678959025 7.123910982604402 0 -1 0
490 0 2 0 0.5599087924723349 8.240319017587996 4.202511009172417 0 -1 0
579 0 2 0 0.5460279410556694 3.662889599285487 7.9005069078088805 0 0 0
462 0 2 0 3.870340919440057 3.7574391868113857 7.078236655487888 -1 -1 -1
580 0 2 0 4.377607986927856 5.101022067182745 4.674770949999335 0 0 -1
522 0 2 0 1.3792138215655037 5.838817261046563 5.94861459861162 0 -1 -1
715 0 2 0 0.811943792397603 5.777564500380487 3.3969683917027833 0 -1 0
123 0 1 0 0.651424767721668 4.964991899715212 4.82762845987458 0 0 0
551 0 2 0 0.7846207846988236 6.344114627562 8.383689571921026 0 0 -1
678 0 2 0 0.9842193792034628 3.3502026193831824 4.809408601788368 0 0 0
557 0 2 0 4.382082979204174 5.844593208793775 8.219917161490125 1 0 -1
141 0 1 0 0.7941672303129046 7.059051336089816 6.93328179981566 0 0 0
222 0 1 0 4.859641245063326 5.672878489177334 3.188273140350274 0 -1 0
94 0 1 0 4.504652425655383 3.6818484140101475 5.5233845197812155 0 -1 0
556 0 2 0 6.434039400833491 6.108776435930526 3.1891633842173857 0 0 -1
79 0 1 0 7.889403077282019 5.3873449323338125 3.0464289309302597 0 0 -1
593 0 2 0 6.080495033275227 3.520346878768107 5.852618505834256 0 -1 0
191 0 1 0 9.839454483108561 3.1771324352055075 7.815790759849248 0 -1 -1
171 0 1 0 7.132553117365784 3.3346416324562913 7.0335808445450425 0 0 -1
396 0 2 0 9.455958321934222 8.261336193534277 4.027558632779183 0 -1 0
165 0 1 0 10.08622971630679 7.648319005625893 5.406065714469046 0 -1 0
645 0 2 0 9.026766099315733 7.741064795628059 6.666930969458193 -1 -1 -1
341 0 2 0 8.640971425765443 3.9800483548135936 7.024124993824495 -1 0 -2
408 0 2 0 8.536325888011966 5.15493324119444 4.488731708976022 0 -1 0
153 0 1 0 14.903118545016795 8.382130362213589 6.529897703575234 0 0 0
528 0 2 0 11.27413764500719 3.9212726080524636 7.934053491930273 -1 0 -1
363 0 2 0 15.837615488488794 7.908878808017221 7.750007059789818 0 0 -1
571 0 2 0 15.328486841861704 4.022306383701899 4.31617227236417 0 0 0
711 0 2 0 12.181157428854071 6.260442735769816 7.784630762231471 -1 -1 0
335 0 2 0 12.58857656573041 4.73046304015867 3.071426484254257 -1 0 -1
325 0 2 0 15.562218330423029 4.062314661077769 6.954902215083555 0 0 0
512 0 2 0 13.275930861895734 4.749639615850761 5.968505827674825 0 -1 0
223 0 1 0 15.99237566856685 5.3377770398523126 3.615647575440166 0 0 0
232 0 1 0 14.556527274672217 3.9116016388947212 5.711682174366031 0 0 -1
358 0 2 0 14.626812760171358 6.255068059610457 3.432908269401052 -1 0 0
257 0 2 0 11.184977577194516 6.424784150043122 5.394246932625563 0 0 -1
313 0 2 0 13.845124842133995 7.2561750249474315 6.109406081879904 -1 0 -1
68 0 1 0 12.567556397479546 6.225004481105307 6.192446221800404 0 0 0

Velocities

327 -3.5133727783936126 1.7933561180942827 4.664160451947126
585 -1.575729106485557 3.2550509720884557 10.011610446845566
634 4.459309098892895 -1.299895777574008 -2.7840702525068814
485 0.09105956039937592 -6.443151616497682 -5.105019956370213
681 -7.507445232341013 -5.593304639342663 -0.6072646358391273
190 8.186987458168687 -0.7325107516967474 0.7270531254931045
135 3.6803697479095887 -2.7188386588121656 -0.6744231861602351
566 2.653348810679158 -1.1518576265428333 0.7796132655657824
527 -5.9582833172183856 -1.0132828140394512 4.232934415789449
80 1.9336146250691284 3.5175335687370364 -0.8031483742556275
596 2.8625883216880115 -0.8801858187417311 -0.19805064402641506
314 4.010261311317943 4.655714511882496 3.960389132243918
170 1.7794081360628962 -0.2871792316502557 1.8944384876225726
388 5.679519404220894 -0.3347370573899639 -5.3499712150763195
476 8.857712275413004 -11.420321064552788 -12.233951685253029
368 6.7473971018145145 -0.24356641593153255 4.826178815562734
66 0.23391691101281506 -3.8353138443340695 -2.093848515087825
625 0.015531068178819708 2.285167226029616 5.097317640600807
470 -0.8939315240181466 1.0826292649633618 3.5599910002707156
386 -1.5706642556675015 1.031924703638633 -4.66771101305393
82 -1.454662239066873 -2.621244478424091 1.5281621272850934
74 -3.8580347284398675 1.4759472278906407 -2.248212018710675
533 -3.7734116687305255 3.26834480608059 3.020796522349024
481 -2.9184463708715036 0.7755069950864159 4.121295266361877
2 7.552283332481251 4.2816914107917725 1.6546325009662612
446 4.313680805159418 -1.0444502964968652 0.341017635713388
359 -1.7788615371848542 -5.134913815572178 -1.5377253095428594
577 7.0000902281473705 1.7724994278043145 -0.14958046931230332
274 1.4285572867557956 2.7456287706504012 -2.654042067889588
293 -2.2910814446803167 2.453747733824862 -5.0234160183872625
89 4.606208653596531 -2.4767180942360683 3.136975831986462
595 -6.514020781963826 -2.9111872330672752 -0.17166366688372606
113 -4.358686927822749 -2.057710857993793 5.110572943389109
432 2.2569465121208414 -2.5306594627889707 0.9517228930047573
674 -1.710345949431645 4.107407984449984 -0.07459788163828217
221 -3.2172240768073284 -4.637798925502838 -0.18448908326858035
400 -3.990133334752694 0.22286716813216775 -3.658524666326269
545 -0.5980663625503917 -3.6707068740785322 0.9586614951386961
638 4.755132845343955 -0.582159123194485 2.8207222364891034
37 2.3929670449420426 2.804347002439343 4.9421167391942955
414 1.1931405164642892 -1.741504040058991 3.9206278776043053
148 -2.4897688747989393 2.993453052063123 -1.980554919995152
402 -0.02759311839660547 -6.602963955981199 -5.620635328732372
519 -2.219413223977636 -3.2637061359494397 -4.569506370805725
394 -4.749270511267148 3.7269631724951133 -6.100069498473671
33 -4.472837256024753 -0.3534255532262816 0.02950507830466632
352 5.660438873125243 -6.284429521301855 3.595362663552114
109 -5.569712371214224 -3.8103565999702105 2.2015404212204728
251 2.325265167323331 -0.41354457370823344 -0.4488019779143467
600 -0.5510179519368542 -0.6607819581025635 5.676634960999901
546 2.0512312866681572 4.044737934521692 -7.733391545959129
69 2.7974700272246475 -0.6394710961818948 -0.15453190840798553
493 0.8331700486366741 -1.5357825478198373 0.06185375330960247
67 2.590595924477767 4.051204315842826 -2.9353953272273414
144 -3.5592203294377662 0.8680854776349798 0.15558471840506888
647 -1.7560807473533857 1.297668614659032 6.570882715075671
364 -1.1302335358430966 12.533875605391644 3.8310395043006524
404 3.4937591508761456 4.541027823021054 -3.35292456841092
607 -2.104243874706056 1.2545410311949674 -3.021416644721803
520 6.9574753691277715 1.5534262828266654 0.4585166530424613
309 11.150545323089286 4.721089252370125 -4.209812739592367
534 0.7135247221554047 -4.449251797101038 1.192987635000115
155 -0.3154867257018325 -5.928819656837017 2.8113457156453308
350 2.8565915312035295 -1.7834260586056971 -4.467598229367973
604 2.5974011735038656 1.4140432768342148 -4.564992113133276
649 -2.903164572601677 -0.2213363059037207 5.062467170152585
147 -2.492654201267807 0.8065011274903507 -2.1774668624219387
60 1.4884636627490446 0.4680864547501604 -1.3413756437409687
126 3.9464666824517267 0.14971845333588968 3.100738652209193
472 -1.8952142307165696 -0.04554081557844846 -6.3917679043870725
288 1.2560939588803925 -1.1164624910211542 -10.848197425494321
231 1.727253038568226 -1.5001372490512013 2.3890587739911084
531 2.2908138111191754 -4.975033190762265 -4.141070377641411
272 2.7096701551779954 -0.7919812514622064 1.0646227973471676
666 -0.0645387304952433 -3.138429418915124 -7.0711142991404055
354 -4.390688202440127 2.1997035336290542 -1.8971561310901068
334 7.821703677087492 -12.698836575583982 -8.162321517859995
95 -0.9212870305076364 2.337541565924016 3.31883961400493
588 -1.214644052748211 -8.467221692609977 6.252434986185785
92 -0.7345349201620753 -1.3357242617544587 -2.3416974904680616
563 -7.03623721352666 -0.08226324460698824 3.292940842208201
641 2.5179266067323396 3.4879551513794085 -5.172227653429324
195 0.7772138203593625 0.8860324188532385 -3.996836586759636
549 -7.572573103494741 -3.038449395982686 -1.4090994849154186
163 -0.006371651174294999 1.8171250264166356 -4.53132270186735
699 2.448414691527176 -3.1786456102893363 2.940250443952336
587 0.5880379220470352 -1.5303401747573637 0.8742059809658264
381 -4.579471929307207 -1.9830083280861486 -0.846656311254366
157 1.2310531405435143 -0.4958342709122439 -2.2487349430966046
115 -5.957698467797097 2.03063394974465 1.0355373136444295
611 1.3126784809557233 0.7978978599469639 -8.123165496731785
338 -2.5267535029275816 9.87875613731742 0.6257942095420266
279 6.162750072196197 -1.1069732616227355 4.340566910999846
287 2.6026056239625346 5.448553858595767 -1.7780937595612998
276 2.8558116022112072 -3.5285561180713145 -0.157224838118781
197 -5.335742956609704 -1.8117637972248959 5.04524055948506
529 -5.885850763014852 -4.465836395610214 3.2407595032101026
31 -3.6305710471432953 -3.6266904644782096 -2.112675562273875
297 3.101507227034612 2.647204084907238 4.770504215126982
644 -4.520572689250761 -2.0988748920422893 -3.1199193303791333
173 0.3305494241001518 -0.7664759925008556 -4.491544735581732
627 -9.555624257397039 0.8416353778412842 -1.8209058793495783
310 -3.4496722065769436 2.0038973579709745 -3.7354049037994823
372 -0.9594450110197286 -0.8271058995265417 -2.6426660951121472
36 2.7624735393830178 -1.8356498787822206 -1.9535500680475484
468 1.4493650469902115 2.3899771105359386 -2.998642307448985
405 3.011513984648899 -4.568978892941456 -0.0515793266878804
245 0.5955596745781857 4.46273219680967 -2.8957060030756065
511 1.0227167662434613 0.9686271213494534 -2.759932167832029
137 -4.9869155700453645 -3.1719829955973617 5.3021787045397195
668 4.977240815023554 -1.4261699188589732 -4.481110111055324
690 -1.621555315533415 -2.7090672416086456 4.966100705054918
43 4.057099417344265 -4.210225789716976 -1.8879211831207943
603 -10.451026025724882 -2.5295424432764277 -4.805440944024078
710 7.740748110084397 5.779739777088673 -3.7304946688031873
673 2.214945652298549 4.523560290293233 1.4966511463136023
77 -2.919612322694456 -3.6932183517508057 -2.642129108222541
685 6.465208256491061 -7.869890113445264 -1.4930662422342735
233 -0.1318668313880282 -0.14915434803170996 2.0214923351846035
319 1.0950979482300185 -6.474417407707251 -2.0099850565559176
420 -1.4150664157390052 -2.2160900845712965 -1.8425072984257698
663 1.4809112109721148 -2.392019187444308 13.20938009818446
230 -2.1469780848881412 -3.717556370022547 -5.367163847969986
49 -6.893781396970813 4.51611945813315 1.791609891787394
411 -2.872091796351909 1.6247660858388568 3.3477006556368964
684 -2.123590084823595 3.1980560590245486 7.497652807050789
655 -1.7532035461988342 -1.0008562394536413 -6.993974598357344
559 1.3039491624071524 3.722821281604891 3.4538391149519203
116 7.157109065229798 -1.0428043188524558 0.8104162507104132
428 5.143102341038481 2.8882786021571434 0.9921655065276055
361 -0.7551702841289331 5.162163462702546 -0.26635100679366924
97 2.5612340868427683 0.1294648508615277 5.299735134179526
311 -5.133751840054083 8.234844177249546 -6.231480385302856
425 -0.13470412138264218 -4.053612144722796 -5.330695328479391
107 -3.7243627687464946 3.8041140071688564 3.28797379100791
225 1.1105078723421178 -5.336604925171149 -2.8561171940205656
601 1.8762384073126075 -4.9707747156542785 0.8570539496100711
71 -5.7526155908207555 2.406138339140421 6.321843672277424
648 -1.9301329125808442 -1.5911052134471118 5.930814692961791
200 -0.760938661382744 -0.5076178703437108 2.910945114597948
541 -8.106856373613683 0.4168643115658396 0.8440031789594702
498 -2.1239681712764216 0.9749888228849015 -1.6088125030569767
410 -0.6346696601727397 3.4589258346497833 6.5381666023355445
451 1.8141190231166815 2.8328903043532176 -4.591763197787688
108 1.5023094857553216 -0.4563630413430928 -5.569026899217669
713 -3.086869604912517 -1.377470159610521 8.009331862599689
418 -1.3977897114068465 -0.6223492960787977 -1.7687089729773173
260 2.3184039205790645 1.2864149807477985 -6.086940575822779
542 -2.6267886920225134 1.982086300180734 -4.607263563296043
515 -7.3771859633768395 1.0954711590349546 -0.3004587109617316
103 7.490588279997519 3.4765465386755383 -8.052140006813465
10 0.37610951890509553 -0.9518469648268691 2.868182471847023
569 -0.21425050465338358 -0.9000293386464475 -3.933612863700212
458 1.158049447785979 4.379748595384388 -9.502517232535707
570 -4.447332399268876 1.179238213569938 -1.1265009388015643
59 -5.4878881808419 1.9595311191139204 2.683662117412241
480 -6.829172904946664 2.2017762876502727 -6.061516671841715
584 -3.679996808459384 -4.40120641435741 -6.107828675529293
714 2.239663204895718 3.762297305581877 -1.279657448989064
38 -0.15346920492193977 3.8451446622957235 2.9221962715205123
83 -6.2228764136838475 -2.3477163083622488 -1.8101770258974064
209 -0.6238171265611943 2.5538167191911363 0.006806922898791183
553 -3.053227183409526 -8.649179005939834 4.955620591757748
635 -2.8672024656666033 1.3328851988775652 3.697889251119175
698 2.897505931081728 -4.883358740762486 -2.6026978266883622
676 -1.320481210242809 4.026074875167698 6.11505478917519
76 0.001383261364972423 0.45628679065255556 -3.64641075778411
196 1.6270232605968167 2.0107309836424467 3.9313528621545775
461 9.763699531467802 -0.48024517867155864 8.949971130334083
387 1.061626709032897 1.6490968581771765 3.5612642661030134
568 1.9337938983751386 0.40735376103501236 6.036302675469845
254 -9.177732329844767 1.8529569346881645 1.934477553461982
122 -1.7160597380388478 1.0053757735961413 -0.48846543902390593
469 -2.215014121218526 -3.3533068867383804 -7.662454569521054
21 -4.815740520955217 -3.831678593195792 1.3559762426926771
28 3.9952229132778805 0.39998356003213426 -2.0211293882116403
679 0.26294076798808014 -0.15448824765941782 0.7097153994667738
256 2.8848077616164356 -5.536761567266812 5.483435658149992
378 -3.7029194646399417 -0.90832144502219 -5.155514039379463
16 1.0991744568500026 1.1975459172100178 5.4532702606506325
337 5.09605750053784 -1.9711640081714876 -0.19834666682814017
370 0.954942799032405 1.2624743282504587 1.3651930927428673
132 -1.6943608528793823 -0.31228267828344736 2.7337820230860874
412 -1.8981050334867609 -8.732999766557084 3.8728177577969882
35 1.1643019707731495 0.4734372264734843 1.7193674231408007
219 -6.080323335526603 -2.086239476821696 -3.2592195581956216
345 -6.174336583564032 -4.751813157082726 -2.100499887451224
241 3.790259714389721 0.5020225965541704 -4.0722608650227485
204 -3.9968857416727217 0.25371065549084704 -1.3476815345641333
675 -1.8252720600300496 -3.527006240989968 -5.972544101327694
267 -1.1702017081342744 2.646943413961386 5.055269390394123
224 -0.2706874865277441 2.776114122965644 2.5067742776763002
617 0.3866327889253817 1.0312359779638012 1.5293702036147436
447 -3.144507400596024 -7.8478732003265605 1.9874304852233375
672 -4.31820434028092 -3.536457508528628 0.5051860841743369
475 1.5693903570704004 0.053866809397399795 -7.519301908966901
510 -5.457990154379417 0.6197811455346677 -9.061979432864778
184 -6.412004342594334 1.6221634023537985 1.0051550906992135
477 4.686157862676821 -2.631700859676059 -5.080459129821252
688 -0.3697610536689984 8.880788743205533 3.3482740395649175
670 8.970125665762398 -3.5416002910525757 3.0005398876809375
291 3.914190327344952 -1.334641436658356 5.777781475397328
72 0.5063403891291909 -3.4744134638395696 5.177545156993316
278 4.879347647717854 -1.7791626303953232 1.4186840269543344
282 0.5507625933698725 -0.8991328380208532 -0.1862469343841704
258 -6.530192278114139 4.433402337977877 5.414607618332915
193 -3.9266870147698936 -2.932788724728223 1.482138281054316
87 -2.3632226722470002 5.688600144295749 0.5410921312547701
227 0.13773804408659546 2.869077556314955 6.738554953323189
640 3.2530457722252466 5.8425655485181105 -0.9527084380049202
161 2.5567127211357894 2.458493642008523 3.3959323479884427
179 -0.3168058845175774 -3.6142230104181303 1.8454788750077056
614 -5.05765874699248 -4.2299346328472085 -5.360572502602052
216 1.1026383110466114 0.4787782755737693 -1.7284717783964383
253 -7.33794802442745 -0.3687950138736954 2.5737569615490967
501 -1.5734724830231246 1.9288442441193399 -0.3065069793953114
392 -0.1971460036367203 10.617775581007633 -4.904449050060573
136 1.646223805270641 -0.680644141099212 1.2575781977038953
47 -3.0836768639309207 -0.8121631223762515 -0.8589220053785097
628 8.988659517195213 -0.9795855045259889 -6.849647193617618
14 -2.67146733067088 1.764266519646413 -1.683160082667412
443 -2.261716709647816 1.649722316005092 0.917543287172867
11 -0.7474952641762935 -0.7146643416406433 1.22469968458287
217 -3.110375622910841 -0.9251421939575714 -5.595301961497005
5 -0.8309178447454595 2.9002485415653583 2.839466361277733
427 3.5109244447616352 -0.06437079401650489 1.7679329916220463
597 2.5415775527890427 3.9095825311214005 -3.81217918688311
406 6.8159356529219055 -1.2731269701523766 0.0029228677757214337
78 3.5086932067716745 -3.4020900479127154 3.9153143827016827
63 0.4972044171353955 5.81297763036506 -2.359633926216192
623 -1.465681678434401 -4.732372704424011 -0.9359434570152276
328 -3.638754357336336 -0.8935475380794726 0.524576059377602
435 4.988783521966507 -2.9932512853202122 6.364909281924655
583 -0.2965879253627007 1.5316485934283506 -3.963407299021271
704 -4.472657303392294 6.068662335873929 -1.763354416161804
465 -0.6516918524100278 1.7492021583652486 -2.90612985522322
693 4.841658954598132 -4.99124097412442 -2.985655613176799
347 1.8897510241060131 -2.3406608267563387 1.948948478682262
619 -2.478647582442752 -1.5519000463855537 1.4487116683237526
433 2.3349432972851822 6.178970086235934 -1.1938384126189874
374 2.984981659791843 2.1299726818337192 0.409816705048208
594 -3.5129452361256504 3.4663422858194415 4.2433627621185
438 1.130162609719292 2.0758577123349036 -4.966364917755918
99 -5.276287357321619 4.951139989164562 -1.5916745358913253
51 -5.0667322414136535 -3.7756928960674445 2.0457710621572454
547 0.5298291966362776 5.95050261564557 -1.7552084318048473
340 -2.247141429031798 -1.8419723915470734 0.271829191294858
23 2.527009022997361 -1.218026542995261 -4.785905004695334
1 -2.5155025865768867 -0.7046160051062831 3.6537793099330993
283 0.3141620033066808 2.9348905176544333 -9.847323765285394
134 0.5339137802887696 -1.8782806485994628 -0.6311480040584125
284 -0.9416775719908302 4.21168538496382 -8.45800308226715
380 3.1950797127610695 -5.592389002039921 -4.150914326286594
336 2.8388547060300158 2.7168331578840634 -1.7977680329689518
8 1.388451503553445 1.8949234442576288 3.911314723400946
521 -0.816425453723838 -1.6216973332885058 -3.265220011643396
85 1.3237484837475744 -3.5451678255724257 1.3094189030168266
112 2.4764077834479625 5.448622935555972 2.8470439614638816
706 4.822812651046283 -8.484074332358935 8.090096918847074
168 1.3634325916593466 1.0851835217835768 1.4561703458612822
98 1.9797388797576825 1.491391402369198 3.618104690753254
299 1.9232491585952796 3.369915983002411 -11.099123869189324
416 -1.6754849162004273 5.358416472162259 4.502024375623993
3 1.0347633199064576 2.4729397043196957 -1.6025416330106697
552 2.8892273261713144 -1.9842878016854173 -2.6937341319390935
398 0.9076220891194813 -1.970032714829801 -1.57785879058171
30 -5.685947085042408 -1.0563803139377475 3.281883632296775
543 2.3285751907457812 0.8490901989322467 1.5143964490117177
322 4.1496785764672 -4.844781868137661 2.484319069650783
201 -2.3804683764493957 -4.340467086452487 -6.10059412251115
312 1.1118351401360136 9.514749288410185 1.5916020577368364
294 -3.6100619365851796 0.4382135088381579 -1.2535067899345302
683 3.62899533937916 2.9856134639272436 -2.7391259252673064
24 3.8765696259399136 3.593920757067422 2.6833947116274173
459 -0.6949491230035026 1.8059866577610468 -1.77671938651757
220 1.6840745709261014 1.439769222745219 0.42756515517464044
198 1.701556439689599 -2.4979437548120815 2.6155269942153883
633 3.306401896836586 -0.8822073887995131 -6.992889944979848
630 -2.47105986676247 -9.448877718808372 -1.7461566612768875
104 -1.908853446975886 -8.395845357018063 1.281716730134805
652 -4.964626504516956 0.057486837426890286 -4.392968377402836
255 4.81144997487914 -5.513306642282515 1.8073832109799024
631 1.6291146791854731 -0.42415238531839156 5.747934811568072
306 1.0648867968300617 -6.702946743907352 0.3344114918657406
344 0.36825266224802194 7.291069731420365 -4.494425668870435
96 -1.064172010781641 3.745316346668064 0.41075294386848643
487 8.29419726705576 1.0965241242393897 2.1220209247819213
639 -4.07451337841901 5.267296182019216 4.052780238111563
174 1.77183940017033 -2.0138217185875344 -1.3852612507812625
90 0.6869271611843559 1.259116380784207 -4.599226569248606
598 -10.160071616784549 -5.047477653371437 3.0986407673546656
356 -3.269160865168449 -3.9845144708365052 0.28763599858709143
129 3.131982659689135 5.006836588079905 -5.724228124951165
705 -1.2865300878402144 -6.878119372184867 1.061276116770161
479 -0.20130465441266587 0.6380709986341075 2.973964678444163
84 -1.5727527026401726 3.4376469819361115 0.09705382948869248
482 -8.121005970817087 5.183068392715524 1.6802161100863915
484 -0.6068949438660408 -2.43855493360431 -5.062726434946768
316 0.5379954181940152 -8.517500599499598 -4.6238583040379
397 -3.74742534936362 1.6452647870643586 3.959093253033981
164 -2.3339309228063247 4.186869901437647 -0.1920846127928797
599 3.7427678720754356 3.2483861550239297 -1.5702489484650453
385 1.233010645771944 -1.4667400297630284 0.22054615459758994
582 -1.4328766702141706 -2.805428627379555 -0.040425770868702186
13 6.458419024537109 1.0190536626235245 -0.4996817826919443
441 -6.032410310981226 -1.0127201869157052 -2.649899334030196
138 -3.942037768910709 0.641537273690953 -2.075173003042333
440 -2.509865565521126 6.105151957654213 1.5504368574011747
305 -2.719434328049221 -2.6276125394797814 2.903850158874856
150 -0.15974814804777251 0.34292713812924264 -2.082852782608595
516 8.983189703130186 -1.5248315482311878 0.12584351771324642
271 -3.7275904092253427 -1.3393340389275863 7.075578869563837
62 5.687305375881144 -2.6979747828502556 -4.248256199860797
41 8.855956851348308 -2.8566759244592244 2.3752341466072706
492 -2.5047029831044725 -1.7342894012287442 -2.1849723365533937
707 1.4013651328765724 1.213563761989531 -0.5140652134271145
608 0.3384742785077564 2.338199949738782 -2.8280913071766594
437 -4.060177378206604 3.026821470642534 3.8612634443266987
315 1.7577058342999543 -0.5820750122768747 -0.5409660256016696
70 -0.2265227021866196 -1.155952913242388 1.2624038526770485
538 -6.042836571089946 5.224379672839703 7.2427301015918335
564 1.3373894334767986 -1.2040670537997817 1.150277127316505
183 3.0156293577785767 -2.535798392612432 1.9627738748131538
243 2.401640790434558 -0.6161361923130771 -1.692857884769023
166 -6.552506869674377 0.7481215666702451 -2.273026672446191
590 5.411881704395693 -1.6561627363540545 4.06003189945103
562 -2.5082809847602787 -2.2231639163137342 3.0213863222538957
160 5.223474556594086 -0.6043286390586632 -3.113032017309962
180 -2.521211519663996 -7.104358747068935 -0.7736226849622049
360 0.4106313476497103 -1.9741598982489608 -2.1042317857314696
281 4.643208438339472 -5.385663391228475 1.2981052937925415
444 -4.792954471257031 -3.2835398406266547 2.101448398836258
181 1.69026002989709 -3.6520335304672207 -3.2371063909801268
602 1.6819988279987006 0.7261139751302106 1.6052068462712952
242 -0.8545514376785872 1.0551521609490446 8.040803109902992
558 -2.356359538506056 -2.9946033940053356 1.2862716758033976
149 -5.343594962389496 11.00946719805862 1.8399765102525227
489 -1.3054804088101308 -0.5267444504253631 -3.1876338627109146
139 -0.719798057074265 0.9517039470290233 0.6483672695806224
581 2.5205607984346226 -7.68508645092434 1.6646982150459473
632 -0.5004131148052573 1.6518914473017716 -0.021699823980950946
346 2.0536855805710825 6.226161698166273 5.463937321679974
423 -0.9223886693858621 -6.647909585827638 -1.0403507380698742
40 -2.473644504210013 3.290329533588951 -2.3042141032344987
266 7.739084129841137 2.656331034211546 -0.5137562504825192
643 -2.6444309786752624 -2.1942626273294845 -3.1934881308401923
682 1.7503947762059997 5.339027312996986 9.068695965091488
199 1.0323928206378599 -0.05552916421065483 -0.6626279369639021
720 2.758058934399311 6.033168988487498 -2.193880389708069
46 -1.4740533506258922 0.07497302083762679 -1.4334833317810667
667 0.6523815018125614 0.913170201760145 -0.788581890233915
536 1.9665572979610502 3.8991695695734707 -3.864819167209931
454 2.123071151632905 2.089689047434392 2.2078709090146016
695 1.3025645317942205 3.979604953418057 -1.3954360424847243
234 -1.7888005563925098 0.26919561282004906 3.5444588149553082
202 5.3369799132653775 1.3712385747511424 2.2003518879542883
686 -2.667854010726414 -0.7223879088064805 7.445500595986298
671 2.5106260516135097 5.995831042049098 3.8643556536627233
192 -0.260546390330648 4.583384813369742 2.9052343197711332
591 2.702974966751406 0.5859812735272364 3.8877928061879157
393 7.341931050876851 -7.85858937358318 -2.171541029911013
365 -2.8772334323279574 1.891981241516134 5.497145557093619
106 -4.5402202447970685 -0.42354894136228055 1.2966745480805848
395 -4.068059730271569 -0.469026436648255 -4.51074825362373
120 -5.165692076929669 0.017253646947867053 -1.2705919452317032
329 0.6789647150938077 -0.7125328723809787 7.948209955215194
19 -1.378434058790473 -8.830829180107585 -6.1267329794134255
530 2.26893642396423 0.9850274874609809 -4.478485487799494
689 1.8921356049883526 -4.072592371013378 -5.696433718955405
127 -4.378125291618694 4.319753705544746 2.423371584425739
331 4.990681355531641 -6.268009682050867 1.245004239536898
64 -1.284657038857637 0.5613476002168304 -2.185826230324869
658 2.8071858645825523 4.516634604088299 1.8623597624613601
131 -4.6348873784342555 -3.2074726445949664 -7.2762344942366655
455 7.884212861456884 3.4806005425118163 -1.639381108237005
660 -2.1705464807390635 -9.750986146739121 4.834110359369918
532 0.7339547742075639 -4.492854961618485 6.569809432676515
696 -2.498188271176484 -3.5980329364157235 7.45135530663366
237 -3.4997305639037055 -5.011395272740845 2.44408785719523
697 -0.5530131553756482 4.742906049744438 -1.7073609567792445
44 3.5859184049838833 -4.011022690174231 2.1934944500896902
610 1.9054180415908042 -6.045720365106272 3.0474651660125636
421 -2.916194281022035 -4.083285858600444 -6.40543109155728
48 4.182851232965803 1.6230417072918857 0.3139509229485886
379 5.635396190687843 -2.6040629925691454 -1.523293077565226
75 -5.003738793301295 4.093073399649322 -0.17761046944062486
228 2.770324439232634 0.0681560094370053 -3.512466882964977
235 3.135286903399809 -5.839995029692285 0.8975032873548474
413 7.438984268635929 -6.3768151673388225 -5.288926559832004
445 -1.671502580153194 2.3002705137768986 4.450613792213214
646 4.643736161894223 -1.3474833878370371 0.21382279765123682
620 -3.6049221650166876 -2.2530845263195665 4.971608146061038
504 1.3815324677104035 -2.450327042749877 -1.6354659115128345
592 1.7975210022830117 -4.230126287300941 4.826875022569533
265 1.9162859063878146 -0.7100547377343623 2.4808549027221147
419 9.542428466504562 -0.11593600056574392 6.270621144355635
466 -4.05771440987554 -2.9428938749243354 -4.20120425258537
502 5.673985026002913 -2.895188018152724 2.016209618265945
65 0.41464643801168355 -1.8995750384034915 4.101602605315568
523 -1.2646912970161412 -2.6639954215173014 1.6196158596007983
508 2.9415074402803287 0.5164922075912112 3.201478950782339
57 0.008898417687088008 -1.0524974282941484 1.076662087867948
589 -2.448907090945476 1.1503420280017966 2.579818836572103
73 2.6372044619930186 0.5022216637628181 3.008499026918987
280 1.8317321349198348 -0.906044675282375 4.006831429070303
517 -1.5223658093583832 1.646611149251585 -6.761942256664624
158 3.545701917492862 -3.352305830134554 -1.5927726023009976
399 -0.9570838903347185 3.7336547025407154 3.694105262770804
239 -0.5827447980490593 0.6345610795845721 2.3414779493682847
102 0.37296133098629225 0.019103293553547486 1.9899192311610994
295 -0.6714962139237406 0.8996692080980198 6.63517812578815
263 -6.643285412936915 6.902956515298933 -2.800253058126183
383 -2.641443471638363 -2.5217185739063224 -6.511642621112496
20 -3.813902374075979 -0.9468565627335188 2.4180260961530875
430 1.1669283856104153 6.045196234051436 -8.03812517597094
320 4.208550840878911 -1.034658777418288 -5.417141954326387
172 1.0097908956997403 1.5983043715771923 1.9961594341391415
642 6.831999788258883 -1.0404739438787687 -0.11194024648616006
624 4.736042795199325 3.7432645091360115 2.8699429636096494
32 -2.292604817560475 -2.115517608246797 -1.0087999957030087
391 -1.711644154896926 -0.8876154756444061 -0.3839833956258131
154 -6.483549888711828 0.8345621680027808 5.057628695347346
439 1.2299349358917953 2.8235197307307085 -3.0929538926772873
162 -0.27567732166726405 3.56688448571372 0.29814715803023756
537 -0.7715895537477154 1.729799514959714 -1.6010971822759932
81 3.2422430811953356 -1.0262008006103376 -0.9528071830352797
7 0.5544667030547228 1.491377315821241 -4.124780317660573
269 -1.5354009779525541 0.10823777664776021 2.300484799869121
292 1.085569063448804 -2.2984843133331774 -2.7417554895361693
42 2.6676326328369417 5.8480894847305205 -1.7856192220220741
422 -1.058948409710133 -6.779988304776137 -5.367131619580284
524 -6.588464514072028 -4.10563745126138 -0.0064736618382255995
629 -1.9257853723056062 3.6615110197539176 -7.314471826262498
259 -2.0234333120845034 6.277063351935127 2.5909565725526784
6 0.24728577150579867 -5.460049769887689 2.6014611437477844
9 1.0665138863576242 -1.8888148274293646 -0.025174271870698622
467 -2.4901247599233898 1.0568452388803606 -1.1185869695054482
318 -2.4664979133359988 -3.721833392613011 -12.839841166222955
486 6.703923047662739 -6.276932302142477 -1.4961297084368315
100 0.6589193640702349 -2.577177438103936 -1.0533473865622096
205 -1.3792655763234547 -0.28176791615121755 -0.6145897226829025
86 2.5264743420181794 1.291375054368433 -0.5684748221612342
377 -1.0506662449876338 0.7137717257747952 -3.240427662779929
275 -2.392961897476501 4.502630624679169 0.4975794877105899
575 0.6181650266696708 -3.461603989525418 1.1192702393687814
550 -4.395735319827438 4.061551640409095 -3.1507255958879448
494 -2.010428202178688 -2.8439867215741046 1.5333019242311492
18 2.7509493136743695 -0.6610954563594779 0.8532642941028129
429 2.4010584538189454 -1.4361797938105825 2.9087573960541446
513 3.502347013679965 2.98878876757661 -0.353763214477973
317 2.8552957090186983 -3.3320965275618546 2.1038553122039336
401 1.874998254878119 3.4772608258966806 5.758946214052966
101 1.231261256276403 0.12995393914202802 0.7292061205183555
669 0.025362211447362965 0.02170473175392385 -3.01177124415046
250 -4.1524850813218634 2.1286138941506474 4.575611017453436
507 5.605417815533241 4.952457740212722 0.6308494327716244
514 -0.7594194418877699 -0.9375595433406958 0.9581146341389642
91 1.2332695302663694 1.231083554097653 3.8314159090144795
117 2.7255286429062786 -8.266720134387327 1.3660685919082651
460 11.204915808649725 -3.613186348678382 2.7381052709484512
612 -3.9230658431852032 3.8434089123138144 -3.9964129275527918
25 -2.9127875363458093 -0.6513380251435075 1.2743665228549201
450 -0.5246224359681994 6.297938812562849 -1.6321676785036212
15 1.8983632641704455 0.08055159125786415 -0.7802980502997574
653 -5.803104429883771 -0.48223631186367216 -1.6544480878414396
261 -0.3450950634293898 -1.5058091496674586 5.3104832994175695
473 5.6266469489138355 -0.16824457197599188 -1.7399648028640542
355 5.910689047347413 8.25451165257823 2.898896732282919
52 -5.4079220161221935 -1.8154695862331494 5.798136835067927
609 -2.3574249166085193 -4.485857523682099 0.22922883278061815
188 1.663703116744612 -2.0948918432501213 -0.3556547262432676
709 -1.17710643935038 2.033906627356792 -1.7878532790570087
189 -4.359004785862405 -3.115313170063785 4.983873724132812
367 4.962887663572678 -1.3900104822942125 2.7443804745720084
382 -3.6671772466473507 2.139373561035593 -1.88449545012433
58 -0.8611677114940837 -4.377760959335643 1.2671990683212269
353 -4.674482739163953 -0.5583612127973631 -2.770161442617058
503 -0.44010554882606867 -2.84211617454627 -2.8852689057220466
491 -3.434498108475335 -0.45359187076210805 -5.908285279720023
650 0.03478099008169554 -3.377476896910499 -1.3683627537660588
474 -6.145962887478665 3.063231971155741 11.86006334309668
409 -2.2592155123189603 -5.360341917112128 7.442738048733172
206 3.4345112840590537 -5.930750554471573 2.76710098663295
268 -5.128918357846583 -4.844565248361483 -3.750942235893079
207 5.895572252867534 3.6396459003366557 -3.4279075233152105
45 0.9985226703235471 0.06740688951028817 -0.25431651841040387
376 4.585180050029272 6.100887448311218 -1.5029061165941744
654 6.0753561029885725 7.544234936874388 4.135412352253776
53 -2.9631174282754165 -3.012169868183129 -0.9990381944291075
718 7.571213079563423 4.742970103386711 2.087604139004619
677 -2.0363040876447056 3.3397187642703514 1.7713871796374503
573 -4.2120464888668385 -2.854646448609618 -8.781909494143454
238 -1.2792072473158058 0.2676367937748424 1.9017116423319802
351 -7.268453355213066 -0.9467176674857196 -4.20777989784743
509 1.3281993211649767 2.286449098757141 -0.19608704832125748
27 -1.4847115140266018 -1.1815707122132426 -2.5297896399583277
539 -0.19171460390215486 7.262141152619445 4.4181617033500515
456 -0.8622602250132344 0.9522113046363667 -0.6845577716212826
637 4.089500863062579 6.598061017451175 -3.064367892191105
214 -2.687232561896102 2.339859651896873 1.0746172115402595
301 -4.475427431634004 0.4776400097289878 3.1472898351496656
252 2.7635670583310126 -2.654697538866225 1.1237600960006198
247 0.2749389876693998 1.220944435141124 8.363298358283078
151 0.0017220328660164108 -0.21504828599606288 -2.85562399010776
574 0.49099266909936695 -1.0814485534081828 -9.972329793669273
457 -3.2003043589412083 -1.637024793804381 -4.502936183627445
375 2.648957866300841 2.919188831864834 -8.325155088891334
496 -2.304219501159286 2.2041134994202385 3.5510497027215284
333 2.158556135609959 -2.9043246187275704 -2.886548791815977
210 3.044256289790338 1.4057711027841393 -2.628900591033922
554 -6.03848063398847 -6.553373228575464 -2.615991887818934
692 -2.1641708799528567 -0.48731001152243547 1.8636967434848568
483 8.147456399097514 -0.5377034563593688 9.250984759896015
701 0.7048749083803935 -3.0781904080652023 -4.97361106182214
651 2.2418808512804107 -0.060668455226664884 5.703434588929972
110 -5.310747663800687 2.149587348907342 2.3172960585242226
226 1.641559905108216 4.528098694578289 8.142440415548435
403 -6.468257975880071 -2.9620781606367146 -1.0675641055139773
298 1.6078478419210547 3.482492047035137 -2.438637399500621
211 4.854136225300323 -3.403401281704358 -1.0174844232311868
349 0.6434041586924945 -2.5682971131569072 -2.7920289236129916
169 -0.38248818083905317 4.103243209742604 1.2336010956433439
431 -2.1248456580934363 7.196493018019543 0.10382577941201872
194 1.3390270124069452 1.5380343667847338 -1.7659524593016913
146 -1.0337058508570096 -3.077453724926749 -6.587783616197245
277 -4.1010718318959 -0.18030098246221565 5.011767577216316
130 2.277731846530954 -0.37706922919321756 -0.97214389234765
286 3.4395841852139886 8.722382089128542 -1.4732411405571266
717 1.8761668170690895 5.349064220979645 -3.6727622387446823
560 2.88034070347389 -0.9187200134514595 -9.911913430990111
218 -1.240705287738119 0.8475978760755385 0.49057461998664187
567 -1.6911173797726464 -5.7437362837075705 7.147721294861244
518 4.518206880715005 -0.8113579741324394 -0.14983144226686734
535 2.7254743864723237 1.788979306290773 -0.998446559369767
54 -2.2373256253585367 1.8023899020050076 0.8588237203861001
373 1.8552270589606028 5.698012873162133 -0.2789232078259143
613 3.9941520287766594 9.490039274969059 -4.029033668522983
93 -1.7074383248860694 1.9354899668666357 3.0961635606912474
111 2.637260464930056 -0.2745802713520254 -2.642151831268793
665 0.3654220166940245 -0.9953829738888652 -0.21060100461817743
308 0.7388634367737594 -0.8169831306624734 -3.036014063309176
246 -0.5382258735212753 3.993873061625147 2.6591713282623326
471 3.526523135832084 -3.493777121985655 6.140315647665747
719 2.177552789459965 2.6563349007567925 0.31582419744366363
55 1.2540728782995925 4.063123739419662 -0.611406317324621
22 -3.687752105136649 0.8437635988298099 4.944823844862629
264 3.497854601074804 -2.5996672936276206 6.749574655555651
289 2.1119200098141078 1.4904683043030915 -4.0719713373708535
285 4.3347867932506565 6.256610604291383 -0.3222701423648415
384 -2.894632120221724 -0.6594620838906614 -0.7615296575203082
321 0.06442327660880078 -5.135028056103001 9.474245553462573
17 -2.2540390847536678 4.723217013624516 3.408850007275654
622 0.6172215495241764 1.1901487355912608 1.2864608127705277
105 -0.7355947656753253 -0.3337617324043465 -5.199613878656022
208 -3.9369190225318587 -0.8472944488830685 -1.795082061591743
618 6.514138014019063 -9.412040913462448 -1.389885878764635
488 -0.15212476457160518 -8.764332422044554 -0.7854450194608948
249 -2.8595106468177827 0.9746602239179953 -4.77077251751659
505 0.20780928833963713 1.9343491643932458 -0.6902126042623923
140 -1.068467479364304 -4.956499542339919 1.3295690327721048
417 -0.8251381782228553 -2.47751128164535 4.886343116728073
463 1.7096586025126375 5.021902561320876 1.5067887315534048
540 3.1881729269857213 0.04195132296904796 -2.707230688272498
357 1.315267308762844 3.8419619740854043 -5.428041907745563
436 1.157793759121467 0.73993832281803 -2.024335761089194
348 -1.0640802401461327 -0.11662456656167788 3.4344064873005866
694 1.2495844142683339 -0.6548479150995792 -0.7310092124685683
544 4.734515123368181 -0.8279289655607162 -7.775096444078047
212 -3.7743433831425524 -0.7657080860203475 5.4422827020431646
702 -2.2650186339760086 -1.369763202490902 2.028964085332986
29 2.6100756038014694 2.155463965567788 10.350839811996517
586 4.133465494568446 1.0729942956713432 -3.612738745533355
324 -0.7237025907609509 -2.4493948142498647 -0.7358132696814045
119 -3.8661903080854785 3.3782637289200173 -4.312810934737631
142 -1.516986639316441 -4.027485592936828 2.072784255503393
626 3.345497187550473 -3.5256692066677737 -1.0913009349405058
215 4.116385076107645 -9.724012528389453 0.5628038906439197
128 -1.390323038168391 3.8041813266598394 -0.6952840078686553
323 -8.561382189629454 -4.718543047233678 3.750024997636433
362 -0.6423760508188607 -0.7323323610240903 -0.02064321057630665
464 -5.060354732825581 -2.7630398317909957 2.1823669320440096
240 -3.619075348427773 -0.29785493898895604 0.6996478843738864
118 1.7175035942009553 4.192975718025194 -5.593306424329985
700 -2.322340700976145 3.6599921573891403 -6.556180300631659
186 -0.03970207720941091 3.6799217839187746 -3.336378363893844
621 -3.1590158222734406 1.0882552499008717 3.696260285664459
708 -2.914129581067168 4.485838794093233 1.3687224766024848
415 -4.290522563384151 0.3029109017898752 -3.803014925594063
270 -3.219796536199689 5.675096223159049 -1.3110772133952886
177 -1.6234761934021142 -0.45482569293323594 -0.09194440506369148
369 3.323900058542202 2.223937539516775 4.234186350017431
366 -3.9310053663412647 3.4868896730633816 -1.0028641661287596
176 0.25531640559329827 0.6170651158671433 0.2822646025095034
182 -2.404549331189036 -2.817681423055314 0.6736698397704465
371 2.2387211098071154 -3.1856687750897317 5.341896589288848
703 0.5222557059408693 2.6282005436813587 -9.058223370628742
390 1.5296548360216018 -0.746114214706503 -4.567903456055607
213 -6.8362956979926945 -6.334991745225698 -5.660170895407961
133 6.0521689959341565 4.617086701534006 1.073470593060032
307 -0.5120202697029332 2.6099089221852116 1.0425292310842431
426 1.876079228664684 -2.778035852076393 1.5806754476880607
526 1.0587819548127468 2.8711672795356247 2.7475305093966638
659 4.854706770451725 -2.381870631908597 1.9265634680950399
662 8.055842091700203 -2.054515060345437 0.138995940089977
661 1.4279965542977826 1.9437628354667844 -5.328274179711786
143 1.5054494487578405 3.059295710283304 3.2336162252440537
452 -4.2364975038405905 1.7847124530501632 -1.4998405415221585
572 -0.3218140620948589 3.57332011628215 3.487350389729131
229 -0.9428846269959569 0.15535384745027486 3.2023355016086272
615 -4.026402293371759 -1.317067961935785 -6.798721069491149
561 6.405393112109724 4.115737844204229 0.2585298270986722
506 -0.7314655602688324 -0.32942176057704564 1.8983363683839924
167 1.4353234805305064 0.10806830831449314 3.865643549996961
478 8.244909468085925 3.859417709300918 -7.1719137185249116
495 5.640787704290597 0.7941676907263575 -3.692281872104898
343 4.884068062610472 3.83243024008338 -7.949112160147957
244 -7.687943818890239 4.902169524717319 -1.29962721586504
691 6.304663374457593 3.822345524475929 1.1752784291429959
175 0.8435043970545323 3.970826489477883 -1.4653448023126898
203 -4.033203279904214 -0.2829122520107279 -2.5637285917704933
273 -7.362680194235233 -0.10359463492258124 -6.426913394508374
187 2.2902455291644115 -1.2628446923602537 -1.2608935211730778
342 -2.372071778183979 1.2025731320373199 3.7462385556564906
656 -5.845660909726495 1.925787599936088 -2.4234680914774773
61 1.0728747957321831 3.0414496528508104 -3.0400449628213186
407 -3.7052780742004816 -1.0314998482206903 -0.56725418083041
576 3.9851525367358063 7.4466360707526995 -3.70459742256588
424 -6.7914829760758915 -1.957827866207284 -0.9295041810728789
296 4.320287625273367 1.9752491279792934 1.968533322016162
712 -3.4468630486666805 4.932946810091249 -4.981182087267843
50 -1.7282799025269027 0.8668719618600093 -0.3893217072935818
339 -1.5935951230142018 -0.574574205519045 -4.771425486120061
185 2.213101150489431 -0.7386520635009818 1.6674596635738315
716 -0.04208684142983849 0.7131553154196464 1.2755156584178489
605 2.9021920188624892 1.856818204921854 4.600789166903953
389 5.797900507156065 4.904235519078136 3.7946331651226592
248 1.494518368470191 -4.503666661229159 0.35384737268963107
12 2.145900106891098 1.9734430251997248 5.715352381312334
125 4.037440541239166 -2.369727603950135 -1.074045172570923
453 2.198589202253131 -1.1641755696587892 -0.07105478704804637
124 0.37077365939665324 -2.1015298713461834 2.654803033512283
442 -2.9063744425268494 -0.8663883316867077 -3.9505279157047437
332 4.128711292857628 2.840528214289877 3.3641206552030054
606 -4.409482820171688 0.6272674051681632 2.9702186628397826
4 -2.715603398117486 5.2749367834046925 0.2742443292933726
326 -4.1301937876680395 -0.25562242115847505 4.941677008562168
578 1.3232971920920489 5.953396459574852 -1.060120454450685
178 -7.894118535987921 5.055324267851465 3.5756104847162136
565 2.4149044267918414 -4.580289680034565 2.8666429878638877
497 1.8386205110867506 -0.4218463428591838 -3.588355134383941
26 -0.08751645739263737 3.536347630724557 0.787220213006476
525 -4.89484612391904 0.21056251603575674 0.32099337040882675
56 2.5780343425934023 -3.0760140115599777 2.1054336927541093
548 -1.755902117300459 -1.6218032676285123 1.381798192212846
236 -1.0169506025763628 -0.6249020896040702 -1.4425855678714299
500 -3.048070014343705 8.958497076811256 -5.305643189752282
657 1.1909833423269502 -2.173075061228886 1.9235368952113103
687 1.610202042555168 -0.9747784297097007 2.889446388932796
145 0.7334090102308125 -2.68236757317363 -3.4194455007574156
152 -2.5537073170495592 -4.208904771788001 -2.4759889086409337
121 5.590230004383491 3.2112880347922177 -5.132464790751658
434 -0.8893854392434534 1.329914502538597 0.1755366912607259
636 -5.54158876148557 2.0387003327484634 -3.329841681855251
300 1.42898561670434 2.724579828761626 -3.5431183181752064
34 0.9305647578595011 -2.0660450915423323 -0.03838559962666424
448 4.4574221295319925 -4.946294746416574 -1.9508841033149695
664 -3.8477205625185955 0.5845509238847321 -3.1996275475784595
290 1.1995256096089344 5.142037859253858 -0.08927942437691666
304 0.35981273386619367 -0.39085880552354185 -0.4375627576554812
302 -1.3591866502902712 2.738133093863603 -5.080495928814773
159 5.750937143852318 4.792173870224296 7.846241257543408
39 0.5811371472140844 1.8748795465216617 2.6179324276485842
262 -0.5413684724259772 -5.796789424898441 0.8243984734714838
555 -2.9599289475720862 7.751576973120996 -0.883691935659089
114 0.23496505043733162 1.529994343138892 3.615208687371995
156 2.602640005276909 -1.439426240335804 -2.5007204866674875
330 -3.082511195128012 -2.2114965862520926 1.2247230684707755
88 -0.10429201956516836 3.7906055877810627 -2.1131451363952762
499 3.9416055557390486 7.074524573713671 -1.4568252000413056
303 4.362678585555939 -3.399798316958534 -3.081010829282839
680 4.6177276428152805 -1.9177542252462592 12.42812617770451
616 -1.3392836083147488 -4.225011195293441 3.9064398003187604
449 -6.724581565632546 1.6446819946021245 -1.6008654256094421
490 -3.140165238980938 -0.07403268980718278 -4.560034020962941
579 1.9339656066707351 -0.004371628171179861 -1.0485854048844214
462 -5.19929313766825 -0.6663127262661829 1.3073366338395689
580 1.6612105657173961 0.4935919964607143 5.131665804686562
522 1.7063042751538053 -6.708469509996593 -2.1773391149303074
715 1.6450674125561786 2.69015617827645 -0.8726345599834535
123 -2.2093626203363246 2.593695593611358 -1.5435901732904036
551 5.5430583759219045 -0.03535638831352212 2.986473042005093
678 2.7186523609220172 3.5933215364680144 -1.232555082100403
557 -3.723235747758271 -2.9893757977870132 -2.0900006159164874
141 -7.0091210890560385 -3.2658699124918957 0.4818013065492243
222 2.702432680743457 -2.662290417695814 0.4250272129857892
94 -0.5971904181935633 -0.9542450651409756 -1.0666249493083906
556 2.6754442970709467 -2.729225834032615 3.896064605017082
79 3.7955832322384184 -0.38926441199670586 1.9224498688320402
593 -2.96571973325029 0.17013000239222376 -2.5027931235934227
191 0.04706986550032952 1.7099171806861517 -0.812163042427186
171 2.4600626501446623 4.179940967703676 -2.250631832824103
396 -0.8062111758384909 3.366628890907274 4.56249256377843
165 -0.5295645629290112 1.6371204016878187 -2.2458902378454164
645 0.704635062470049 1.2545174274277184 -0.6558675559400068
341 -6.272494073934148 2.283727944230164 -3.5471124373208096
408 -3.6219078691395175 -3.1837642128418038 -0.035298719006137146
153 0.45724400491029427 -2.6175851365775444 -0.8687507534375635
528 0.343126832072916 3.2150206289244254 0.32536445690740345
363 2.8746562766575066 -6.006225040733453 1.6073166983520886
571 -0.2523320960438082 -2.547984118301821 9.074998609574049
711 2.047776232242924 6.084833158076243 -8.819740312531911
335 3.3222262674476424 -4.779554785283036 -3.2678380392130544
325 5.963757777835394 -2.300490952785423 7.08341427074739
512 -2.2732966744001457 -1.9295600143988298 5.560623856397958
223 2.4298074965446803 -3.63977552482586 -3.595886486835783
232 -2.3100080943147456 0.3836562414443177 5.367281075368607
358 5.9004797896994505 -1.9782774067371314 -1.6432080419952684
257 -0.16511723263935385 0.5389245954788859 3.942561061939905
313 1.576145654195757 -4.819084843259502 -1.7438724194101942
68 -5.622638863963444 -3.7767620647675715 -3.429553168192891
