ITEM: TIMESTEP
25000
ITEM: NUMBER OF ENTRIES
116
ITEM: BOX BOUNDS pp pp pp
-2.1659880786948438e+01 2.1659880786948438e+01
-1.1125721167720103e+01 1.1125721167720103e+01
-1.1125721167720103e+01 1.1125721167720103e+01
ITEM: ENTRIES index c_dphi
1 -158.636 
2 -27.5458 
3 82.6871 
4 105.277 
5 -22.4456 
6 -138.415 
7 94.315 
8 -21.654 
9 -137.962 
10 -149.964 
11 94.0669 
12 -22.2414 
13 93.9351 
14 -31.1031 
15 -146.068 
16 -144.877 
17 -17.7106 
18 94.5877 
19 121.528 
20 -1.487 
21 -108.441 
22 128.543 
23 4.27169 
24 -118.744 
25 -65.2711 
26 56.2 
27 -102.273 
28 141.331 
29 27.1985 
30 -108.834 
31 137.034 
32 7.56218 
33 11.7503 
34 -102.382 
35 128.146 
36 -100.026 
37 146.572 
38 23.3165 
39 -146.956 
40 96.894 
41 -23.6424 
42 -77.6286 
43 -89.7972 
44 153.711 
45 43.0972 
46 32.577 
47 -83.9144 
48 165.471 
49 149.477 
50 32.9856 
51 -154.52 
52 83.2766 
53 -41.0136 
54 145.233 
55 -86.1644 
56 33.8598 
57 76.88 
58 -46.4573 
59 -168.904 
60 71.6503 
61 -50.7967 
62 -165.012 
63 -173.759 
64 63.7942 
65 -50.4216 
66 -179.836 
67 67.0031 
68 -54.9187 
69 -151.687 
70 -35.2607 
71 83.5104 
72 160.273 
73 39.9558 
74 -77.8897 
75 -143.387 
76 95.4338 
77 -21.6077 
78 -145.245 
79 97.7133 
80 -24.066 
81 -29.9316 
82 -146.973 
83 91.2476 
84 -52.7946 
85 82.0849 
86 -166.898 
87 166.108 
88 -68.8915 
89 46.1301 
90 -158.708 
91 69.2499 
92 -49.4059 
93 -170.851 
94 70.4928 
95 -38.809 
96 -43.9994 
97 -162.655 
98 88.0429 
99 159.25 
100 46.5107 
101 -81.749 
102 169.706 
103 45.9379 
104 -72.3847 
105 57.8358 
106 -63.2733 
107 167.663 
108 61.2542 
109 -67.8093 
110 -177.637 
111 177.889 
112 48.8256 
113 -61.0018 
114 11.3395 
115 131.368 
116 -100.345 
ITEM: TIMESTEP
25100
ITEM: NUMBER OF ENTRIES
116
ITEM: BOX BOUNDS pp pp pp
-2.1659880786948438e+01 2.1659880786948438e+01
-1.1125721167720103e+01 1.1125721167720103e+01
-1.1125721167720103e+01 1.1125721167720103e+01
ITEM: ENTRIES index c_dphi
1 -178.375 
2 -64.1773 
3 61.9277 
4 125.311 
5 1.84244 
6 -114.598 
7 124.496 
8 8.05494 
9 -112.035 
10 -118.79 
11 124.769 
12 4.67846 
13 57.982 
14 -66.0368 
15 179.409 
16 -132.971 
17 -11.0082 
18 102.485 
19 133.404 
20 12.4996 
21 -104.759 
22 134.337 
23 16.2499 
24 -104.654 
25 -60.9997 
26 66.6161 
27 -140.083 
28 99.5803 
29 -29.3146 
30 -133.078 
31 98.0271 
32 -12.7416 
33 -13.1361 
34 -142.031 
35 107.2 
36 -94.0257 
37 145.25 
38 22.3407 
39 -132.919 
40 104.318 
41 -16.3642 
42 -105.449 
43 -99.7183 
44 135.351 
45 12.3563 
46 20.3862 
47 -104.545 
48 132.461 
49 142.476 
50 17.5451 
51 -178.348 
52 68.2654 
53 -51.8006 
54 142.762 
55 -95.7334 
56 25.0364 
57 79.9705 
58 -28.1827 
59 -159.695 
60 85.4657 
61 -46.0469 
62 -166.381 
63 -148.425 
64 80.0621 
65 -40.2721 
66 -158.345 
67 78.9095 
68 -36.9172 
69 -178.226 
70 -58.9639 
71 67.4732 
72 173.581 
73 53.2073 
74 -59.0536 
75 -177.899 
76 64.0322 
77 -54.3713 
78 -177.269 
79 64.3274 
80 -59.2006 
81 -58.8482 
82 -177.252 
83 59.2203 
84 -31.4268 
85 88.1083 
86 -156.347 
87 -160.811 
88 -43.6487 
89 73.106 
90 154.869 
91 42.6921 
92 -83.3226 
93 154.372 
94 28.3575 
95 -93.4511 
96 -81.3049 
97 152.68 
98 30.8719 
99 -163.324 
100 80.4717 
101 -30.7134 
102 -164.102 
103 75.5019 
104 -49.1585 
105 74.0074 
106 -39.6129 
107 -163.796 
108 80.7749 
109 -43.4084 
110 -165.605 
111 -155.573 
112 80.2432 
113 -41.9531 
114 33.7479 
115 149.013 
116 -76.857 
ITEM: TIMESTEP
25200
ITEM: NUMBER OF ENTRIES
116
ITEM: BOX BOUNDS pp pp pp
-2.1659880786948438e+01 2.1659880786948438e+01
-1.1125721167720103e+01 1.1125721167720103e+01
-1.1125721167720103e+01 1.1125721167720103e+01
ITEM: ENTRIES index c_dphi
1 -163.839 
2 -49.7052 
3 72.6931 
4 105.261 
5 -10.019 
6 -137.124 
7 104.962 
8 -22.1427 
9 -139.758 
10 -136.612 
11 96.2829 
12 -21.3326 
13 80.226 
14 -32.9507 
15 -153.087 
16 -135.005 
17 -18.8716 
18 104.385 
19 88.2418 
20 -30.8914 
21 -159.122 
22 81.7444 
23 -35.8331 
24 -154.966 
25 -54.6631 
26 63.4239 
27 -161.86 
28 78.4148 
29 -35.9194 
30 -164.208 
31 81.4582 
32 -44.4819 
33 -45.1225 
34 -159.457 
35 74.6031 
36 -68.277 
37 172.731 
38 48.1406 
39 -107.194 
40 137.988 
41 18.106 
42 -114.802 
43 -105.55 
44 133.157 
45 7.05453 
46 15.1461 
47 -106.147 
48 127.751 
49 132.593 
50 11.3003 
51 -136.364 
52 99.3633 
53 -20.3785 
54 108.977 
55 -135.414 
56 -19.6604 
57 104.071 
58 -8.14456 
59 -126.443 
60 112.456 
61 -5.84229 
62 -135.328 
63 -132.178 
64 109.523 
65 -19.9621 
66 -109.239 
67 129.543 
68 14.5427 
69 157.102 
70 -81.246 
71 36.7957 
72 142.811 
73 15.8758 
74 -100.526 
75 -163.915 
76 72.7831 
77 -45.5363 
78 -163.251 
79 78.4293 
80 -39.9498 
81 -39.7965 
82 -158.116 
83 83.505 
84 -71.3828 
85 51.7947 
86 165.718 
87 -130.69 
88 -5.48042 
89 108.981 
90 -134.207 
91 102.931 
92 -15.424 
93 -140.021 
94 101.624 
95 -17.159 
96 -15.4333 
97 -133.788 
98 107.429 
99 141.278 
100 17.4875 
101 -97.976 
102 -165.932 
103 80.6704 
104 -46.8771 
105 57.8739 
106 -69.4513 
107 178.413 
108 49.4139 
109 -62.7219 
110 176.739 
111 171.915 
112 59.7787 
113 -60.7602 
114 19.0094 
115 144.076 
116 -95.0921 
ITEM: TIMESTEP
25300
ITEM: NUMBER OF ENTRIES
116
ITEM: BOX BOUNDS pp pp pp
-2.1659880786948438e+01 2.1659880786948438e+01
-1.1125721167720103e+01 1.1125721167720103e+01
-1.1125721167720103e+01 1.1125721167720103e+01
ITEM: ENTRIES index c_dphi
1 -165.288 
2 -33.7556 
3 85.4628 
4 84.2805 
5 -37.5866 
6 -156.034 
7 83.9991 
8 -34.4478 
9 -154.134 
10 -159.037 
11 82.5158 
12 -37.1702 
13 82.6668 
14 -36.8531 
15 -159.887 
16 -140.562 
17 -21.1885 
18 98.693 
19 59.2835 
20 -55.1555 
21 174.224 
22 59.7851 
23 -61.3317 
24 -175.771 
25 -44.7307 
26 66.8287 
27 -163.115 
28 79.382 
29 -50.3093 
30 -163.723 
31 66.5859 
32 -46.2203 
33 -44.4545 
34 -174.146 
35 73.048 
36 -49.6636 
37 -165.516 
38 68.9853 
39 -105.03 
40 134.543 
41 14.4573 
42 -108.316 
43 -125.031 
44 120.625 
45 10.0875 
46 -3.13386 
47 -117.478 
48 131.984 
49 116.566 
50 2.22155 
51 -116.773 
52 122.22 
53 -3.99589 
54 124.148 
55 -113.89 
56 3.28162 
57 94.4532 
58 -20.515 
59 -141.954 
60 101.234 
61 -20.2052 
62 -143.797 
63 -146.126 
64 92.4346 
65 -31.1577 
66 -95.7396 
67 137.722 
68 27.4144 
69 173.571 
70 -69.7338 
71 58.6102 
72 172.044 
73 47.5165 
74 -68.7276 
75 -153.932 
76 87.4882 
77 -31.1465 
78 -146.834 
79 94.5317 
80 -28.2539 
81 -29.8644 
82 -148.499 
83 88.7152 
84 -71.7146 
85 61.9738 
86 172.276 
87 161.606 
88 -78.4708 
89 36.6028 
90 -122.171 
91 106.117 
92 -6.3907 
93 -133.258 
94 114.234 
95 -1.54691 
96 -10.9193 
97 -123.427 
98 120.792 
99 -52.4296 
100 -178.061 
101 60.3136 
102 177.869 
103 56.3916 
104 -59.9623 
105 75.0176 
106 -48.6735 
107 -165.998 
108 72.9458 
109 -44.3786 
110 -163.363 
111 -161.882 
112 80.7932 
113 -38.1913 
114 45.5568 
115 157.827 
116 -75.7344 
ITEM: TIMESTEP
25400
ITEM: NUMBER OF ENTRIES
116
ITEM: BOX BOUNDS pp pp pp
-2.1659880786948438e+01 2.1659880786948438e+01
-1.1125721167720103e+01 1.1125721167720103e+01
-1.1125721167720103e+01 1.1125721167720103e+01
ITEM: ENTRIES index c_dphi
1 -179.345 
2 -68.0788 
3 58.8666 
4 99.3136 
5 -28.4072 
6 -141.876 
7 97.3165 
8 -16.1521 
9 -134.963 
10 -148.342 
11 98.1891 
12 -20.6215 
13 65.2282 
14 -59.5945 
15 -173.073 
16 -130.435 
17 -6.16377 
18 107.537 
19 105.139 
20 -12.3054 
21 -129.061 
22 113.494 
23 -9.88372 
24 -127.329 
25 -49.3034 
26 67.6815 
27 174.417 
28 45.4702 
29 -68.7358 
30 160.918 
31 46.7117 
32 -70.136 
33 -82.0028 
34 163.791 
35 46.9435 
36 -99.1154 
37 146.132 
38 27.639 
39 -105.342 
40 129.694 
41 13.4997 
42 -89.0855 
43 -81.3779 
44 156.819 
45 36.0656 
46 35.7743 
47 -86.0289 
48 153.218 
49 153.471 
50 31.6678 
51 -127.522 
52 108.764 
53 -9.52601 
54 108.259 
55 -125.16 
56 -7.09667 
57 100.326 
58 -16.76 
59 -142.445 
60 95.8576 
61 -29.8271 
62 -147.057 
63 -136.865 
64 97.45 
65 -19.7795 
66 -83.0112 
67 164.743 
68 45.4168 
69 -151.514 
70 -31.3328 
71 92.0163 
72 -178.925 
73 65.2783 
74 -51.3984 
75 -148.546 
76 94.0764 
77 -23.8808 
78 -148.732 
79 93.3108 
80 -31.3547 
81 -32.3922 
82 -150.349 
83 84.9852 
84 -78.5645 
85 40.2923 
86 162.57 
87 131.338 
88 -109.345 
89 2.99302 
90 166.134 
91 48.0448 
92 -75.0355 
93 157.981 
94 34.9007 
95 -83.93 
96 -84.4284 
97 152.491 
98 33.6605 
99 12.2671 
100 -106.619 
101 143.514 
102 -154.773 
103 75.7662 
104 -30.1784 
105 63.523 
106 -55.8177 
107 171.865 
108 71.8334 
109 -60.4837 
110 -168.826 
111 -178.823 
112 48.8599 
113 -59.4823 
114 178.608 
115 -70.1698 
116 62.218 
ITEM: TIMESTEP
25500
ITEM: NUMBER OF ENTRIES
116
ITEM: BOX BOUNDS pp pp pp
-2.1659880786948438e+01 2.1659880786948438e+01
-1.1125721167720103e+01 1.1125721167720103e+01
-1.1125721167720103e+01 1.1125721167720103e+01
ITEM: ENTRIES index c_dphi
1 -169.559 
2 -48.4927 
3 72.7416 
4 72.3752 
5 -47.3183 
6 -165.358 
7 69.9261 
8 -48.1135 
9 -170.38 
10 -168.384 
11 73.5766 
12 -48.6902 
13 96.9584 
14 -30.8466 
15 -142.258 
16 -172.521 
17 -50.6137 
18 63.9763 
19 142.651 
20 25.8899 
21 -88.5727 
22 154.666 
23 29.7121 
24 -87.0494 
25 -48.4222 
26 67.3057 
27 168.257 
28 41.2365 
29 -74.9454 
30 145.719 
31 29.5373 
32 -87.2601 
33 -87.471 
34 156.347 
35 39.5498 
36 -148.092 
37 98.7045 
38 -21.2916 
39 -126.191 
40 117.597 
41 -1.68803 
42 -41.2121 
43 -40.179 
44 -155.309 
45 81.3258 
46 81.7512 
47 -33.3789 
48 -156.744 
49 -162.717 
50 82.153 
51 -139.837 
52 98.5528 
53 -26.4276 
54 135.145 
55 -96.8028 
56 19.6082 
57 86.1613 
58 -40.9284 
59 -159.486 
60 79.5891 
61 -38.969 
62 -153.321 
63 -170.985 
64 70.457 
65 -43.8953 
66 -91.0759 
67 155.577 
68 32.013 
69 -129.019 
70 -5.24455 
71 114.609 
72 -175.1 
73 61.6891 
74 -50.3074 
75 -139.837 
76 100.349 
77 -16.8009 
78 -140.477 
79 102.373 
80 -20.6624 
81 -23.61 
82 -140.76 
83 96.2046 
84 -74.332 
85 52.3299 
86 175.109 
87 112.745 
88 -129.087 
89 -13.2795 
90 147.477 
91 21.9373 
92 -110.674 
93 142.694 
94 10.083 
95 -91.7668 
96 -99.6474 
97 127.742 
98 25.8919 
99 -78.5214 
100 163.651 
101 43.4096 
102 -173.261 
103 63.3865 
104 -47.7288 
105 71.9129 
106 -48.2201 
107 -163.066 
108 74.6985 
109 -40.1475 
110 -165.169 
111 -164.348 
112 80.8064 
113 -44.2146 
114 164.438 
115 -78.5633 
116 45.0409 
ITEM: TIMESTEP
25600
ITEM: NUMBER OF ENTRIES
116
ITEM: BOX BOUNDS pp pp pp
-2.1659880786948438e+01 2.1659880786948438e+01
-1.1125721167720103e+01 1.1125721167720103e+01
-1.1125721167720103e+01 1.1125721167720103e+01
ITEM: ENTRIES index c_dphi
1 148.798 
2 -94.0638 
3 23.2179 
4 78.0739 
5 -40.5988 
6 -155.252 
7 87.3215 
8 -27.332 
9 -154.006 
10 -159.437 
11 85.9099 
12 -40.7638 
13 66.0295 
14 -56.8936 
15 -170.173 
16 -155.621 
17 -36.9961 
18 78.8965 
19 146.684 
20 26.5159 
21 -99.2763 
22 140.555 
23 28.3868 
24 -91.7814 
25 -31.9932 
26 89.7272 
27 144.72 
28 10.7439 
29 -107.82 
30 121.258 
31 2.69395 
32 -104.766 
33 -120.612 
34 120.824 
35 13.3635 
36 -130.879 
37 116.262 
38 -3.86376 
39 -85.2998 
40 150.592 
41 37.3025 
42 -5.00649 
43 2.40869 
44 -111.577 
45 121.301 
46 113.781 
47 -0.205305 
48 -127.327 
49 -123.898 
50 122.115 
51 -177.606 
52 54.4942 
53 -58.4403 
54 154.993 
55 -90.9361 
56 36.0623 
57 91.7283 
58 -25.5834 
59 -144.682 
60 88.5555 
61 -30.5427 
62 -154.133 
63 -152.352 
64 88.5497 
65 -35.0403 
66 -86.3902 
67 156.348 
68 34.5547 
69 -120.156 
70 11.2375 
71 124.019 
72 173.78 
73 47.6496 
74 -71.7063 
75 -151.131 
76 91.9608 
77 -30.4813 
78 -148.057 
79 89.5013 
80 -31.1481 
81 -22.261 
82 -144.703 
83 94.6476 
84 -95.8061 
85 27.9185 
86 145.398 
87 108.766 
88 -134.917 
89 -15.4364 
90 160.616 
91 32.9918 
92 -73.9933 
93 151.573 
94 44.5879 
95 -80.8031 
96 -91.4433 
97 161.572 
98 36.1807 
99 -43.2528 
100 -161.672 
101 75.692 
102 164.462 
103 45.8094 
104 -77.4971 
105 87.7129 
106 -26.7608 
107 -147.409 
108 90.4659 
109 -30.182 
110 -155.061 
111 -144.656 
112 94.6967 
113 -30.1819 
114 164.194 
115 -77.9598 
116 47.7935 
ITEM: TIMESTEP
25700
ITEM: NUMBER OF ENTRIES
116
ITEM: BOX BOUNDS pp pp pp
-2.1659880786948438e+01 2.1659880786948438e+01
-1.1125721167720103e+01 1.1125721167720103e+01
-1.1125721167720103e+01 1.1125721167720103e+01
ITEM: ENTRIES index c_dphi
1 158.453 
2 -86.8871 
3 37.198 
4 50.6527 
5 -73.3315 
6 170.421 
7 53.6051 
8 -62.6424 
9 177.589 
10 171.61 
11 55.3621 
12 -64.4062 
13 82.4076 
14 -32.2559 
15 -151.55 
16 -151.881 
17 -31.1627 
18 88.6098 
19 124.591 
20 9.20739 
21 -123.399 
22 121.217 
23 -3.28672 
24 -118.67 
25 -36.0989 
26 78.6871 
27 142.202 
28 15.6386 
29 -108.345 
30 137.474 
31 13.4906 
32 -95.9619 
33 -110.685 
34 125.331 
35 15.8787 
36 -112.737 
37 125.894 
38 11.0224 
39 -101.352 
40 139.866 
41 11.5803 
42 57.0861 
43 64.0056 
44 -58.9811 
45 179.489 
46 -175.612 
47 61.4016 
48 -60.1286 
49 -58.3969 
50 178.616 
51 -170.387 
52 63.9675 
53 -52.6134 
54 159 
55 -85.2086 
56 35.7042 
57 114.238 
58 -5.70333 
59 -119.456 
60 112.321 
61 -1.43176 
62 -127.738 
63 -127.634 
64 118.613 
65 -7.69338 
66 -87.8717 
67 153.707 
68 33.9508 
69 -126.229 
70 0.674248 
71 111.329 
72 144.263 
73 29.6809 
74 -97.5484 
75 -153.262 
76 87.6382 
77 -30.2038 
78 -152.331 
79 89.8271 
80 -33.2311 
81 -32.1883 
82 -150.03 
83 86.9115 
84 -94.8674 
85 29.5385 
86 145.432 
87 137.234 
88 -101.412 
89 12.7634 
90 -170.994 
91 68.7331 
92 -46.8993 
93 -164.169 
94 80.1983 
95 -43.8966 
96 -58.3694 
97 -174.002 
98 61.9033 
99 141.482 
100 12.3353 
101 -98.6874 
102 158.902 
103 39.1392 
104 -86.9583 
105 73.5862 
106 -46.2867 
107 -161.479 
108 75.3335 
109 -39.8584 
110 -164.794 
111 -165.643 
112 79.1651 
113 -45.7701 
114 144.234 
115 -92.2789 
116 20.5868 
ITEM: TIMESTEP
25800
ITEM: NUMBER OF ENTRIES
116
ITEM: BOX BOUNDS pp pp pp
-2.1659880786948438e+01 2.1659880786948438e+01
-1.1125721167720103e+01 1.1125721167720103e+01
-1.1125721167720103e+01 1.1125721167720103e+01
ITEM: ENTRIES index c_dphi
1 166.581 
2 -80.362 
3 35.2414 
4 65.9804 
5 -58.4248 
6 -173.496 
7 62.0333 
8 -53.0374 
9 -173.562 
10 179.538 
11 64.4674 
12 -56.0567 
13 83.9253 
14 -34.381 
15 -157.758 
16 -140.276 
17 -21.8139 
18 105.021 
19 79.1827 
20 -33.4521 
21 -161.686 
22 85.6795 
23 -39.7639 
24 -152.399 
25 -55.2841 
26 59.1323 
27 178.979 
28 58.7289 
29 -67.0871 
30 166.492 
31 40.6755 
32 -73.2582 
33 -56.7613 
34 177.423 
35 63.489 
36 -86.0353 
37 155.56 
38 33.1877 
39 -125.059 
40 116.149 
41 -2.57435 
42 73.2902 
43 79.3325 
44 -30.9747 
45 -162.792 
46 -160.652 
47 89.0409 
48 -42.7764 
49 -44.5853 
50 -154.893 
51 -157.865 
52 77.7044 
53 -39.3557 
54 179.773 
55 -61.9497 
56 51.2499 
57 126.963 
58 5.97221 
59 -106.6 
60 128.776 
61 16.2043 
62 -110.233 
63 -113.805 
64 133.623 
65 7.18557 
66 -87.0759 
67 147.86 
68 28.4966 
69 -137.67 
70 -18.5113 
71 101.657 
72 103.221 
73 -18.9509 
74 -136.834 
75 -165.131 
76 73.8131 
77 -45.4967 
78 -161.177 
79 79.5135 
80 -40.1209 
81 -47.0428 
82 -166.353 
83 74.013 
84 -59.1156 
85 67.2385 
86 -173.437 
87 -173.409 
88 -52.7328 
89 65.3619 
90 -168.287 
91 69.1435 
92 -52.1302 
93 -159.511 
94 79.2152 
95 -36.9413 
96 -50.4981 
97 -171.772 
98 72.0717 
99 33.2669 
100 -96.9277 
101 152.661 
102 172.873 
103 54.251 
104 -69.779 
105 66.8364 
106 -62.2917 
107 -172.905 
108 60.5501 
109 -50.0634 
110 -170.322 
111 179.042 
112 68.4287 
113 -51.8296 
114 105.394 
115 -125.216 
116 -13.3125 
ITEM: TIMESTEP
25900
ITEM: NUMBER OF ENTRIES
116
ITEM: BOX BOUNDS pp pp pp
-2.1659880786948438e+01 2.1659880786948438e+01
-1.1125721167720103e+01 1.1125721167720103e+01
-1.1125721167720103e+01 1.1125721167720103e+01
ITEM: ENTRIES index c_dphi
1 -167.289 
2 -43.4803 
3 71.978 
4 66.4703 
5 -49.7643 
6 -168.893 
7 70.5885 
8 -48.5402 
9 -173.177 
10 -170.256 
11 70.6152 
12 -54.0214 
13 74.8548 
14 -52.7808 
15 -164.134 
16 -120.48 
17 -0.343029 
18 112.064 
19 94.3295 
20 -25.8261 
21 -137.199 
22 102.646 
23 -27.2427 
24 -147.398 
25 -45.1185 
26 70.9941 
27 166.681 
28 45.7763 
29 -65.2835 
30 168.616 
31 57.5565 
32 -70.4794 
33 -70.6759 
34 178.264 
35 50.2283 
36 -116.435 
37 119.42 
38 -2.06854 
39 -138.185 
40 103.91 
41 -20.3874 
42 64.6876 
43 63.1437 
44 -49.3214 
45 -171.125 
46 175.936 
47 63.4711 
48 -58.3324 
49 -61.0437 
50 -173.509 
51 175.303 
52 50.9088 
53 -65.2012 
54 -170.721 
55 -49.9394 
56 69.3111 
57 127.633 
58 3.77381 
59 -109.092 
60 118.273 
61 5.4075 
62 -117.868 
63 -116.159 
64 130.975 
65 7.69968 
66 -71.6104 
67 171.389 
68 51.3458 
69 -132.085 
70 -11.6068 
71 107.587 
72 82.1602 
73 -49.6359 
74 -163.9 
75 -169.761 
76 74.9379 
77 -53.4292 
78 -161.433 
79 70.2001 
80 -46.1314 
81 -42.1818 
82 -170.549 
83 73.1196 
84 37.7591 
85 151.907 
86 -91.2792 
87 -162.166 
88 -46.2028 
89 79.7216 
90 155.43 
91 40.4116 
92 -81.3614 
93 158.805 
94 37.0321 
95 -86.1768 
96 -77.6214 
97 160.606 
98 37.3968 
99 51.3972 
100 -65.2967 
101 166.736 
102 172.896 
103 58.614 
104 -70.8023 
105 68.7655 
106 -61.618 
107 -174.145 
108 58.497 
109 -54.0299 
110 -171.12 
111 -179.13 
112 68.3436 
113 -48.746 
114 165.734 
115 -68.3287 
116 46.2963 
ITEM: TIMESTEP
26000
ITEM: NUMBER OF ENTRIES
116
ITEM: BOX BOUNDS pp pp pp
-2.1659880786948438e+01 2.1659880786948438e+01
-1.1125721167720103e+01 1.1125721167720103e+01
-1.1125721167720103e+01 1.1125721167720103e+01
ITEM: ENTRIES index c_dphi
1 161.136 
2 -79.2747 
3 48.0148 
4 87.1508 
5 -44.1388 
6 -160.073 
7 76.6411 
8 -39.2935 
9 -152.069 
10 -167.874 
11 76.1919 
12 -36.584 
13 87.6971 
14 -45.6665 
15 -154.301 
16 -161.659 
17 -36.296 
18 83.7749 
19 132.837 
20 15.7077 
21 -97.9041 
22 144.967 
23 19.0334 
24 -98.0957 
25 -40.1763 
26 78.3148 
27 140.575 
28 26.125 
29 -103.36 
30 145.331 
31 15.8456 
32 -100.219 
33 -86.4565 
34 144.058 
35 27.9937 
36 -179.765 
37 54.1292 
38 -66.1106 
39 -149.685 
40 91.1258 
41 -28.2263 
42 57.3765 
43 61.3578 
44 -64.1491 
45 -175.517 
46 171.444 
47 45.9372 
48 -65.4306 
49 -65.7489 
50 168.744 
51 131.532 
52 3.17381 
53 -110.767 
54 -164.69 
55 -51.2143 
56 73.3422 
57 121.04 
58 -0.849599 
59 -117.819 
60 118.794 
61 1.82402 
62 -119.317 
63 -124.425 
64 118.606 
65 -2.53514 
66 -91.767 
67 153.538 
68 28.053 
69 -93.8981 
70 22.1552 
71 143.389 
72 122.558 
73 8.92731 
74 -117.907 
75 169.844 
76 52.656 
77 -64.4774 
78 176.096 
79 58.9628 
80 -66.7161 
81 -63.9424 
82 178.924 
83 53.2453 
84 82.6511 
85 -157.807 
86 -41.7687 
87 156.077 
88 -88.0916 
89 29.1517 
90 120.307 
91 -3.29153 
92 -116.766 
93 117.608 
94 4.13369 
95 -118.793 
96 -119.773 
97 126.753 
98 3.8256 
99 57.0417 
100 -65.9812 
101 172.41 
102 -179.188 
103 61.1649 
104 -61.4391 
105 73.8956 
106 -47.3972 
107 -171.123 
108 70.4151 
109 -53.3111 
110 -168.292 
111 -174.454 
112 61.8201 
113 -53.1609 
114 167.192 
115 -74.9043 
116 39.3246 
ITEM: TIMESTEP
26100
ITEM: NUMBER OF ENTRIES
116
ITEM: BOX BOUNDS pp pp pp
-2.1659880786948438e+01 2.1659880786948438e+01
-1.1125721167720103e+01 1.1125721167720103e+01
-1.1125721167720103e+01 1.1125721167720103e+01
ITEM: ENTRIES index c_dphi
1 172.236 
2 -66.009 
3 49.9176 
4 64.3848 
5 -51.7677 
6 -174.773 
7 57.6886 
8 -65.3171 
9 173.841 
10 -179.326 
11 57.668 
12 -63.1739 
13 140.43 
14 27.0957 
15 -92.9451 
16 -175.122 
17 -55.6732 
18 62.7675 
19 155.589 
20 33.8122 
21 -88.3438 
22 149.88 
23 32.8053 
24 -88.9711 
25 -57.7173 
26 61.7067 
27 138.746 
28 10.3008 
29 -104.287 
30 138.842 
31 24.254 
32 -92.7126 
33 -109.177 
34 136.235 
35 19.2685 
36 171 
37 46.5598 
38 -63.5801 
39 -118.269 
40 130.021 
41 7.48599 
42 -17.2643 
43 -12.2379 
44 -129.249 
45 106.3 
46 100.395 
47 -16.6158 
48 -141.067 
49 -135.802 
50 107.187 
51 144.973 
52 25.4296 
53 -90.8947 
54 -162.193 
55 -56.2155 
56 72.8133 
57 128.392 
58 13.4448 
59 -111.624 
60 145.262 
61 20.1933 
62 -99.7908 
63 -106.686 
64 128.245 
65 8.26074 
66 -101.641 
67 134.128 
68 15.5361 
69 -87.2049 
70 38.6205 
71 154.394 
72 120.984 
73 2.60463 
74 -118.518 
75 -159.456 
76 78.7715 
77 -40.6995 
78 -163.877 
79 76.6521 
80 -42.1045 
81 -47.5415 
82 -167.012 
83 74.2309 
84 66.5406 
85 -175.541 
86 -59.5502 
87 159.004 
88 -78.7485 
89 38.6331 
90 88.7762 
91 -29.471 
92 -143.812 
93 96.0453 
94 -18.296 
95 -145.708 
96 -148.749 
97 96.9099 
98 -30.5016 
99 157.171 
100 35.226 
101 -79.2289 
102 67.0703 
103 -47.2986 
104 -176.952 
105 72.1127 
106 -57.5405 
107 -173.518 
108 -170.599 
109 59.748 
110 -56.2299 
111 28.7121 
112 -100.189 
113 142.126 
114 155.592 
115 -90.1223 
116 29.6482 
ITEM: TIMESTEP
26200
ITEM: NUMBER OF ENTRIES
116
ITEM: BOX BOUNDS pp pp pp
-2.1659880786948438e+01 2.1659880786948438e+01
-1.1125721167720103e+01 1.1125721167720103e+01
-1.1125721167720103e+01 1.1125721167720103e+01
ITEM: ENTRIES index c_dphi
1 177.884 
2 -65.44 
3 50.88 
4 77.7231 
5 -45.9563 
6 -163.565 
7 75.6629 
8 -41.9462 
9 -160.658 
10 -162.504 
11 79.8873 
12 -38.8242 
13 138.359 
14 24.0805 
15 -98.7403 
16 170.962 
17 -65.5631 
18 51.821 
19 121.685 
20 3.97991 
21 -119.591 
22 122.704 
23 -0.988062 
24 -118.693 
25 -77.0183 
26 43.1878 
27 149.017 
28 30.6208 
29 -85.7501 
30 146.781 
31 30.4102 
32 -94.8224 
33 -88.7068 
34 154.922 
35 29.6897 
36 -128.582 
37 109.148 
38 -11.9675 
39 -73.9458 
40 161.92 
41 43.9521 
42 -83.5744 
43 -78.7243 
44 165.832 
45 37.851 
46 39.6366 
47 -75.8072 
48 156.212 
49 159.85 
50 44.4065 
51 162.678 
52 46.6393 
53 -76.9199 
54 172.654 
55 -69.5299 
56 49.9191 
57 125.39 
58 6.3794 
59 -119.404 
60 124.662 
61 -1.1222 
62 -116.328 
63 -108.563 
64 125.653 
65 10.4468 
66 -46.5346 
67 -165.262 
68 69.1506 
69 -149.218 
70 -30.5629 
71 86.6724 
72 97.3047 
73 -28.4247 
74 -146.103 
75 -146.536 
76 95.7624 
77 -25.3772 
78 -139.094 
79 99.7666 
80 -21.3918 
81 -20.4538 
82 -141.593 
83 97.2482 
84 80.0855 
85 -162.458 
86 -41.0857 
87 163.6 
88 -79.6525 
89 43.7008 
90 24.1878 
91 -91.8087 
92 142.816 
93 33.536 
94 -91.8388 
95 149.533 
96 152.077 
97 26.702 
98 -91.9266 
99 167.682 
100 50.4643 
101 -63.0284 
102 55.8384 
103 -61.6227 
104 -179.137 
105 54.4772 
106 -63.0372 
107 171.938 
108 179.729 
109 62.2144 
110 -62.8103 
111 129.748 
112 1.45934 
113 -121.308 
114 66.0236 
115 -171.361 
116 -53.0321 
ITEM: TIMESTEP
26300
ITEM: NUMBER OF ENTRIES
116
ITEM: BOX BOUNDS pp pp pp
-2.1659880786948438e+01 2.1659880786948438e+01
-1.1125721167720103e+01 1.1125721167720103e+01
-1.1125721167720103e+01 1.1125721167720103e+01
ITEM: ENTRIES index c_dphi
1 -163.209 
2 -43.5672 
3 79.3927 
4 81.4851 
5 -46.4723 
6 -173.713 
7 72.04 
8 -55.2006 
9 -160.003 
10 -172.97 
11 59.7892 
12 -45.0128 
13 151.072 
14 24.5886 
15 -92.0816 
16 -162.609 
17 -39.5127 
18 79.9085 
19 74.1035 
20 -43.555 
21 -158.693 
22 83.6483 
23 -42.3947 
24 -160.053 
25 -100.124 
26 18.688 
27 160.854 
28 43.1456 
29 -72.7482 
30 163.647 
31 47.7529 
32 -78.6453 
33 -72.7002 
34 171.406 
35 45.0078 
36 -80.6665 
37 163.798 
38 38.2118 
39 -118.876 
40 127.704 
41 7.11649 
42 -44.8479 
43 -44.6383 
44 -168.041 
45 80.5453 
46 65.7074 
47 -57.6956 
48 -169.109 
49 -170.031 
50 66.5655 
51 -171.087 
52 60.7937 
53 -51.5382 
54 171.751 
55 -69.7204 
56 57.6128 
57 90.9552 
58 -34.7346 
59 -153.993 
60 73.5707 
61 -45.6876 
62 -160.739 
63 -163.913 
64 76.8291 
65 -38.2227 
66 -87.8783 
67 160.135 
68 43.5425 
69 -139.901 
70 -20.0143 
71 98.3413 
72 123.887 
73 0.460875 
74 -119.643 
75 -160.517 
76 79.434 
77 -39.0924 
78 -152.797 
79 88.6768 
80 -32.748 
81 -37.9387 
82 -156.465 
83 82.1101 
84 53.9923 
85 174.402 
86 -68.8621 
87 179.683 
88 -59.6288 
89 59.5319 
90 64.6503 
91 -52.5172 
92 -173.092 
93 71.5177 
94 -49.057 
95 -171.315 
96 -170.98 
97 68.4454 
98 -53.8123 
99 -160.775 
100 86.171 
101 -30.1793 
102 64.2957 
103 -46.7159 
104 -171.247 
105 70.844 
106 -53.6871 
107 -178.144 
108 -176.639 
109 58.8297 
110 -65.6276 
111 -175.928 
112 63.6333 
113 -61.3374 
114 9.91857 
115 131.705 
116 -105.998 
ITEM: TIMESTEP
26400
ITEM: NUMBER OF ENTRIES
116
ITEM: BOX BOUNDS pp pp pp
-2.1659880786948438e+01 2.1659880786948438e+01
-1.1125721167720103e+01 1.1125721167720103e+01
-1.1125721167720103e+01 1.1125721167720103e+01
ITEM: ENTRIES index c_dphi
1 -148.331 
2 -14.1523 
3 98.9573 
4 84.6165 
5 -32.8765 
6 -151.114 
7 81.7331 
8 -36.5046 
9 -160.774 
10 -166.415 
11 75.347 
12 -48.9223 
13 166.278 
14 43.4101 
15 -76.7485 
16 -136.316 
17 -19.3413 
18 98.4891 
19 69.5941 
20 -57.2406 
21 -164.466 
22 68.6993 
23 -43.9267 
24 -170.761 
25 -126.442 
26 -3.52352 
27 171.292 
28 52.4085 
29 -70.9222 
30 177.357 
31 54.0265 
32 -63.7597 
33 -68.8787 
34 167.791 
35 50.0045 
36 -79.7541 
37 155.188 
38 36.8638 
39 -102.994 
40 146.351 
41 29.2558 
42 -69.6714 
43 -83.3035 
44 161.223 
45 49.7007 
46 34.8282 
47 -80.6454 
48 167.832 
49 157.324 
50 41.8507 
51 179.298 
52 63.5767 
53 -59.4759 
54 162.297 
55 -82.3803 
56 29.0687 
57 80.1419 
58 -36.547 
59 -147.611 
60 79.5092 
61 -31.5552 
62 -163.802 
63 -159.429 
64 89.5068 
65 -42.7399 
66 -93.721 
67 145.639 
68 26.3045 
69 -153.439 
70 -35.9926 
71 90.6318 
72 155.172 
73 39.0175 
74 -82.0378 
75 -145.876 
76 95.2382 
77 -21.4338 
78 -143.74 
79 99.5876 
80 -24.8548 
81 -23.7985 
82 -140.47 
83 95.0871 
84 75.6005 
85 -159.673 
86 -46.7382 
87 -173.183 
88 -59.2446 
89 60.5248 
90 63.5418 
91 -58.8917 
92 -172.913 
93 66.7704 
94 -47.2509 
95 -170.796 
96 -178.857 
97 67.1217 
98 -56.4235 
99 -165.186 
100 72.886 
101 -43.9012 
102 45.8681 
103 -68.3835 
104 165.511 
105 52.2352 
106 -73.87 
107 166.487 
108 171.323 
109 45.2173 
110 -74.4259 
111 56.8744 
112 -61.6644 
113 172.118 
114 -20.0651 
115 99.1921 
116 -139.667 
ITEM: TIMESTEP
26500
ITEM: NUMBER OF ENTRIES
116
ITEM: BOX BOUNDS pp pp pp
-2.1659880786948438e+01 2.1659880786948438e+01
-1.1125721167720103e+01 1.1125721167720103e+01
-1.1125721167720103e+01 1.1125721167720103e+01
ITEM: ENTRIES index c_dphi
1 -153.77 
2 -33.4566 
3 84.5145 
4 86.9843 
5 -39.4232 
6 -155.002 
7 80.3201 
8 -35.2587 
9 -153.272 
10 -164.412 
11 80.0088 
12 -38.0049 
13 170.19 
14 53.041 
15 -70.6229 
16 -169.602 
17 -52.6642 
18 71.0006 
19 103.48 
20 -13.7414 
21 -138.714 
22 104.064 
23 -18.5 
24 -135.722 
25 -113.568 
26 -1.57343 
27 -162.602 
28 81.0433 
29 -41.6755 
30 -157.614 
31 79.667 
32 -41.2598 
33 -47.7019 
34 -170.421 
35 68.6525 
36 -82.1433 
37 160.808 
38 42.3343 
39 -66.071 
40 174.633 
41 57.3648 
42 -120.447 
43 -122.288 
44 127.692 
45 -0.222141 
46 -3.01451 
47 -113.034 
48 119.052 
49 117.487 
50 7.46682 
51 151.579 
52 36.7856 
53 -81.7132 
54 110.148 
55 -126.568 
56 -14.7935 
57 115.069 
58 -10.2548 
59 -119.282 
60 116.94 
61 7.91232 
62 -117.736 
63 -130.451 
64 120.521 
65 -5.12733 
66 -97.1071 
67 136.078 
68 21.7992 
69 -176.422 
70 -60.9922 
71 66.7663 
72 170.871 
73 55.7077 
74 -62.935 
75 -104.743 
76 132.216 
77 15.1571 
78 -119.694 
79 123.248 
80 3.34756 
81 6.03308 
82 -111.025 
83 129.074 
84 88.4685 
85 -156.16 
86 -41.4621 
87 132.88 
88 -104.623 
89 12.5579 
90 66.3878 
91 -52.238 
92 -162.38 
93 71.1579 
94 -38.9838 
95 -170.216 
96 -156.78 
97 93.0786 
98 -38.1538 
99 172.106 
100 60.0691 
101 -70.0007 
102 69.0703 
103 -55.0272 
104 -178.393 
105 59.5889 
106 -63.7765 
107 -176.314 
108 -176.911 
109 59.724 
110 -52.8132 
111 -31.8988 
112 -153.016 
113 84.6028 
114 64.3757 
115 -178.456 
116 -60.9651 
ITEM: TIMESTEP
26600
ITEM: NUMBER OF ENTRIES
116
ITEM: BOX BOUNDS pp pp pp
-2.1659880786948438e+01 2.1659880786948438e+01
-1.1125721167720103e+01 1.1125721167720103e+01
-1.1125721167720103e+01 1.1125721167720103e+01
ITEM: ENTRIES index c_dphi
1 -169.662 
2 -50.5668 
3 70.9331 
4 98.8236 
5 -27.4095 
6 -143.679 
7 82.8062 
8 -33.4629 
9 -150.961 
10 -158.776 
11 84.9545 
12 -32.5433 
13 157.27 
14 36.0564 
15 -77.3136 
16 -178.91 
17 -55.4605 
18 63.7841 
19 125.874 
20 1.67517 
21 -113.353 
22 122.449 
23 -0.711763 
24 -124.911 
25 -113.68 
26 3.33819 
27 -138.384 
28 90.7313 
29 -24.5867 
30 -152.796 
31 91.8865 
32 -21.9105 
33 -36.1701 
34 -151.488 
35 94.7149 
36 -97.2187 
37 148.749 
38 22.4378 
39 -73.3011 
40 176.325 
41 54.273 
42 -99.1732 
43 -88.5997 
44 141.927 
45 21.4581 
46 21.9757 
47 -107.498 
48 132.034 
49 150.769 
50 21.2953 
51 175.311 
52 55.6008 
53 -53.9107 
54 98.8201 
55 -138.465 
56 -16.1036 
57 112.761 
58 -12.4459 
59 -127.151 
60 102.521 
61 -12.1841 
62 -132.272 
63 -139.012 
64 106.282 
65 -13.8056 
66 -109.653 
67 142.527 
68 19.7417 
69 -174.768 
70 -54.3367 
71 69.2258 
72 -167.797 
73 69.5934 
74 -46.8752 
75 -107.165 
76 134.04 
77 14.242 
78 -103.418 
79 136.785 
80 15.3772 
81 11.6855 
82 -108.112 
83 130.48 
84 70.1349 
85 -171.354 
86 -50.6623 
87 93.6465 
88 -143.996 
89 -27.2653 
90 55.2652 
91 -64.5836 
92 173.895 
93 66.3249 
94 -55.1961 
95 -173.826 
96 -177.539 
97 60.9401 
98 -57.69 
99 -167.921 
100 76.2834 
101 -51.2477 
102 68.5512 
103 -55.347 
104 -170.596 
105 62.3959 
106 -52.8533 
107 -173.706 
108 -175.216 
109 69.5349 
110 -51.3178 
111 -11.5959 
112 -137.604 
113 106.72 
114 53.3922 
115 175.033 
116 -69.4402 
ITEM: TIMESTEP
26700
ITEM: NUMBER OF ENTRIES
116
ITEM: BOX BOUNDS pp pp pp
-2.1659880786948438e+01 2.1659880786948438e+01
-1.1125721167720103e+01 1.1125721167720103e+01
-1.1125721167720103e+01 1.1125721167720103e+01
ITEM: ENTRIES index c_dphi
1 -159.145 
2 -26.3413 
3 83.0489 
4 112.454 
5 -4.02576 
6 -121.993 
7 116.135 
8 -1.83211 
9 -127.386 
10 -134.188 
11 107.845 
12 -17.7086 
13 136.637 
14 16.3613 
15 -94.8319 
16 -162.069 
17 -45.4323 
18 76.8731 
19 109.954 
20 -5.21119 
21 -132.192 
22 112.643 
23 -17.3444 
24 -132.509 
25 -107.21 
26 8.08616 
27 -143.647 
28 96.2774 
29 -18.6467 
30 -151.89 
31 93.1861 
32 -31.8146 
33 -23.3786 
34 -138.303 
35 96.6967 
36 -83.6884 
37 161.828 
38 37.3439 
39 -106.71 
40 135.099 
41 22.5958 
42 -72.0193 
43 -84.1692 
44 158.966 
45 46.1763 
46 31.2652 
47 -85.6001 
48 161.611 
49 157.635 
50 40.77 
51 -159.966 
52 80.1783 
53 -34.3781 
54 75.2011 
55 -165.671 
56 -39.9483 
57 145.248 
58 28.2317 
59 -93.9892 
60 138.573 
61 16.3524 
62 -104.41 
63 -94.0107 
64 143.768 
65 23.0056 
66 -97.2285 
67 150.89 
68 25.3591 
69 160.728 
70 -79.9404 
71 42.9906 
72 -158.117 
73 78.0295 
74 -35.1867 
75 -89.3116 
76 156.571 
77 41.4896 
78 -79.9337 
79 164.985 
80 34.1835 
81 31.8505 
82 -83.2311 
83 145.968 
84 60.589 
85 -173.541 
86 -52.3531 
87 72.4313 
88 -177.016 
89 -59.9953 
90 46.5869 
91 -82.002 
92 157.026 
93 39.3474 
94 -81.6248 
95 167.936 
96 149.629 
97 28.6573 
98 -81.7816 
99 -140.15 
100 110.89 
101 -5.93493 
102 47.8504 
103 -75.3251 
104 176.843 
105 32.8723 
106 -74.9592 
107 156.048 
108 151.86 
109 44.029 
110 -84.9641 
111 -30.2618 
112 -149.739 
113 98.8104 
114 94.6504 
115 -143.457 
116 -32.0566 
ITEM: TIMESTEP
26800
ITEM: NUMBER OF ENTRIES
116
ITEM: BOX BOUNDS pp pp pp
-2.1659880786948438e+01 2.1659880786948438e+01
-1.1125721167720103e+01 1.1125721167720103e+01
-1.1125721167720103e+01 1.1125721167720103e+01
ITEM: ENTRIES index c_dphi
1 -155.623 
2 -34.205 
3 82.3903 
4 125.887 
5 8.43708 
6 -115.326 
7 132.533 
8 8.77008 
9 -110.017 
10 -111.721 
11 124.516 
12 5.72896 
13 142.407 
14 18.265 
15 -102.255 
16 -176.235 
17 -56.4913 
18 62.5664 
19 114.452 
20 -7.18694 
21 -131.3 
22 107.061 
23 4.25469 
24 -117.384 
25 -116.918 
26 8.11222 
27 -149.18 
28 91.3154 
29 -20.4965 
30 -139.56 
31 108.628 
32 -20.0556 
33 -27.2122 
34 -139.024 
35 92.2924 
36 -66.4782 
37 166.177 
38 47.9705 
39 -141.593 
40 99.6918 
41 -24.2233 
42 -73.7263 
43 -78.4686 
44 160.322 
45 44.3512 
46 37.9842 
47 -83.2255 
48 160.804 
49 163.454 
50 42.2442 
51 -143.116 
52 100.228 
53 -15.6157 
54 98.8421 
55 -145.182 
56 -22.9132 
57 135.153 
58 23.3193 
59 -96.5601 
60 145.577 
61 25.698 
62 -102.589 
63 -95.2173 
64 144.903 
65 16.616 
66 -113.435 
67 126.987 
68 1.70319 
69 169.317 
70 -74.8138 
71 45.6982 
72 -168.612 
73 71.5479 
74 -44.2646 
75 -102.699 
76 133.402 
77 20.2995 
78 -111.593 
79 135.304 
80 12.306 
81 4.14334 
82 -108.959 
83 128.043 
84 89.8496 
85 -151.325 
86 -35.2599 
87 75.199 
88 -164.179 
89 -48.6717 
90 66.6204 
91 -51.9415 
92 -167.795 
93 74.221 
94 -41.6327 
95 -167.217 
96 -174.815 
97 69.3312 
98 -56.2532 
99 -141.582 
100 89.8503 
101 -23.2921 
102 75.5425 
103 -36.5989 
104 -158.744 
105 85.0535 
106 -37.0917 
107 -162.805 
108 -156.95 
109 80.9048 
110 -44.8086 
111 104.968 
112 -17.5788 
113 -131.247 
114 -75.5707 
115 49.7269 
116 163.576 
ITEM: TIMESTEP
26900
ITEM: NUMBER OF ENTRIES
116
ITEM: BOX BOUNDS pp pp pp
-2.1659880786948438e+01 2.1659880786948438e+01
-1.1125721167720103e+01 1.1125721167720103e+01
-1.1125721167720103e+01 1.1125721167720103e+01
ITEM: ENTRIES index c_dphi
1 -179.878 
2 -67.9204 
3 47.7463 
4 130.591 
5 10.8048 
6 -116.19 
7 140.136 
8 13.1417 
9 -100.077 
10 -103.513 
11 129.493 
12 16.2739 
13 161.945 
14 35.8243 
15 -82.4502 
16 179.789 
17 -61.5627 
18 57.4447 
19 149.461 
20 23.7034 
21 -86.7796 
22 147.462 
23 37.3613 
24 -88.3967 
25 -111.65 
26 12.2167 
27 -76.3523 
28 172.459 
29 49.4319 
30 -73.2871 
31 163.686 
32 37.902 
33 45.9642 
34 -77.0626 
35 157.153 
36 -96.908 
37 154.853 
38 25.6393 
39 -172.991 
40 63.7742 
41 -61.4023 
42 -53.7602 
43 -46.1402 
44 -159.612 
45 67.3501 
46 66.277 
47 -47.1951 
48 179.767 
49 -167.251 
50 79.2773 
51 -135.85 
52 106.516 
53 -7.53644 
54 159.021 
55 -74.1738 
56 36.576 
57 127.248 
58 5.32476 
59 -109.328 
60 130.095 
61 15.4419 
62 -107.982 
63 -125.065 
64 120.282 
65 -3.14188 
66 176.84 
67 58.8558 
68 -56.8931 
69 -176.259 
70 -61.6779 
71 59.7757 
72 162.03 
73 38.3122 
74 -81.1213 
75 -112.425 
76 119.789 
77 10.2818 
78 -115.096 
79 135.397 
80 12.6901 
81 5.80857 
82 -103.699 
83 133.594 
84 104.222 
85 -136.027 
86 -20.0989 
87 92.0042 
88 -139.485 
89 -31.3144 
90 57.1896 
91 -63.4698 
92 -178.963 
93 45.9874 
94 -69.5056 
95 166.647 
96 178.062 
97 62.5692 
98 -61.2784 
99 -161.766 
100 71.9275 
101 -42.0678 
102 46.0664 
103 -57.7363 
104 -179.127 
105 63.9091 
106 -57.4821 
107 167.712 
108 179.237 
109 57.8462 
110 -76.9599 
111 -15.562 
112 -134.865 
113 108.996 
114 104.239 
115 -146.673 
116 -30.0911 
ITEM: TIMESTEP
27000
ITEM: NUMBER OF ENTRIES
116
ITEM: BOX BOUNDS pp pp pp
-2.1659880786948438e+01 2.1659880786948438e+01
-1.1125721167720103e+01 1.1125721167720103e+01
-1.1125721167720103e+01 1.1125721167720103e+01
ITEM: ENTRIES index c_dphi
1 -165.648 
2 -46.4897 
3 71.9748 
4 106.308 
5 -12.5045 
6 -128.634 
7 108.739 
8 -7.39092 
9 -132.449 
10 -137.075 
11 106.795 
12 -18.2627 
13 -173.766 
14 67.4024 
15 -54.3423 
16 139.996 
17 -98.5796 
18 18.0045 
19 -179.462 
20 58.7813 
21 -57.8614 
22 -179.618 
23 64.8055 
24 -56.951 
25 -122.343 
26 -0.349005 
27 -73.433 
28 162.494 
29 46.2264 
30 -82.9025 
31 160.83 
32 41.1709 
33 30.4522 
34 -85.815 
35 154.526 
36 -83.168 
37 160.373 
38 47.9919 
39 -155.51 
40 87.7153 
41 -34.1706 
42 -53.1599 
43 -53.6144 
44 -165.924 
45 67.0048 
46 60.2312 
47 -52.0779 
48 -179.15 
49 -173.779 
50 73.9117 
51 -131.005 
52 106.954 
53 -4.28482 
54 161.215 
55 -74.3226 
56 40.1697 
57 154.746 
58 31.6452 
59 -83.1275 
60 148.828 
61 34.055 
62 -88.0718 
63 -96.2008 
64 149.026 
65 26.8997 
66 -178.246 
67 66.9583 
68 -49.5708 
69 -173.401 
70 -59.4744 
71 72.9133 
72 152.462 
73 30.7845 
74 -84.5338 
75 -122.827 
76 121.227 
77 5.76539 
78 -114.92 
79 129.619 
80 1.02615 
81 3.5121 
82 -111.949 
83 119.458 
84 66.9119 
85 -173.596 
86 -57.667 
87 68.8389 
88 -176.986 
89 -62.4433 
90 60.373 
91 -52.3599 
92 -174.002 
93 65.1885 
94 -56.4537 
95 177.921 
96 -179.058 
97 59.3002 
98 -66.3248 
99 -178.049 
100 63.0849 
101 -54.1375 
102 72.3375 
103 -43.5027 
104 -155.218 
105 66.7481 
106 -44.9676 
107 -177.412 
108 -164.825 
109 83.4595 
110 -48.9846 
111 34.421 
112 -82.2389 
113 153.354 
114 23.0702 
115 137.751 
116 -112.256 
ITEM: TIMESTEP
27100
ITEM: NUMBER OF ENTRIES
116
ITEM: BOX BOUNDS pp pp pp
-2.1659880786948438e+01 2.1659880786948438e+01
-1.1125721167720103e+01 1.1125721167720103e+01
-1.1125721167720103e+01 1.1125721167720103e+01
ITEM: ENTRIES index c_dphi
1 91.6094 
2 -31.3132 
3 -154.394 
4 79.9988 
5 -43.0822 
6 -157.079 
7 -158.71 
8 78.2094 
9 -35.7869 
10 -70.81 
11 171.838 
12 54.8616 
13 -83.3155 
14 154.342 
15 36.4561 
16 -85.0169 
17 157.097 
18 37.3252 
19 29.7712 
20 -88.1152 
21 152.113 
22 158.76 
23 -78.4958 
24 38.0725 
25 -143.875 
26 -16.8108 
27 93.3523 
28 -150.001 
29 89.1952 
30 -37.424 
31 157.559 
32 -88.6535 
33 43.952 
34 150.596 
35 23.9754 
36 -89.9758 
37 143.404 
38 35.9332 
39 -90.687 
40 -107.045 
41 16.6347 
42 -146.916 
43 97.9483 
44 -17.726 
45 -88.5677 
46 -97.2681 
47 145.959 
48 26.4855 
49 23.1104 
50 -93.6626 
51 146.864 
52 147.679 
53 30.9056 
54 -132.924 
55 112.107 
56 -8.32875 
57 -168.926 
58 -52.8815 
59 67.0979 
60 141.218 
61 25.3935 
62 -97.9315 
63 143.787 
64 20.4615 
65 -100.389 
66 -94.9447 
67 141.73 
68 20.8799 
69 158.007 
70 37.4798 
71 -82.746 
72 -171.45 
73 60.9907 
74 -46.2441 
75 -127.449 
76 106.182 
77 -6.80607 
78 -130.749 
79 116.262 
80 -4.38099 
81 -24.8164 
82 -137.805 
83 101.552 
84 76.878 
85 -155.505 
86 -44.4561 
87 -77.3034 
88 173.744 
89 46.8539 
90 152.067 
91 30.6273 
92 -81.5929 
93 70.8843 
94 -50.3051 
95 -163.885 
96 72.8139 
97 -40.766 
98 -165.997 
99 -171.003 
100 75.4174 
101 -49.8133 
102 81.7604 
103 -158.905 
104 -44.2099 
105 74.117 
106 -163.456 
107 -40.3635 
108 64.921 
109 -56.3222 
110 178.207 
111 56.001 
112 -69.4703 
113 177.244 
114 -176.941 
115 57.588 
116 -55.6975 
ITEM: TIMESTEP
27200
ITEM: NUMBER OF ENTRIES
116
ITEM: BOX BOUNDS pp pp pp
-2.1659880786948438e+01 2.1659880786948438e+01
-1.1125721167720103e+01 1.1125721167720103e+01
-1.1125721167720103e+01 1.1125721167720103e+01
ITEM: ENTRIES index c_dphi
1 87.5997 
2 -35.4986 
3 -155.555 
4 88.0668 
5 -31.9894 
6 -148.835 
7 -155.541 
8 84.4024 
9 -32.4432 
10 -67.5401 
11 167.9 
12 52.555 
13 -104.71 
14 142.769 
15 38.0058 
16 -93.9223 
17 161.314 
18 18.5984 
19 18.8686 
20 -85.895 
21 131.389 
22 139.252 
23 -104.155 
24 3.39069 
25 -153.78 
26 -35.364 
27 82.8424 
28 -172.127 
29 71.1601 
30 -48.1137 
31 179.013 
32 -56.8657 
33 59.0821 
34 155.262 
35 43.4938 
36 -86.1206 
37 162.111 
38 31.1659 
39 -80.6024 
40 -116.617 
41 3.08613 
42 -151.272 
43 86.5923 
44 -32.4669 
45 -95.0509 
46 -92.3009 
47 148.417 
48 28.3263 
49 15.5983 
50 -103.683 
51 136.225 
52 144.322 
53 25.0402 
54 -126.318 
55 111.739 
56 5.57556 
57 -162.62 
58 -50.7031 
59 76.8863 
60 152.711 
61 34.2518 
62 -86.5794 
63 152.118 
64 31.2868 
65 -89.4232 
66 -85.9949 
67 153.174 
68 32.4638 
69 -169.167 
70 69.6856 
71 -48.7571 
72 -172.498 
73 68.4311 
74 -50.224 
75 -126.287 
76 105.737 
77 -5.3802 
78 -132.795 
79 116.088 
80 -4.81905 
81 -17.9493 
82 -129.066 
83 110.026 
84 105.957 
85 -124.786 
86 -15.0369 
87 53.3858 
88 -62.9433 
89 169.98 
90 140.531 
91 21.259 
92 -92.7707 
93 50.8726 
94 -55.5524 
95 171.306 
96 67.5555 
97 -65.5863 
98 173.98 
99 -175.734 
100 51.1247 
101 -69.3086 
102 -9.39015 
103 99.9754 
104 -130.24 
105 76.9038 
106 -161.558 
107 -47.0098 
108 66.3362 
109 -55.0977 
110 -164.713 
111 65.2316 
112 -44.3841 
113 -173.335 
114 -167.115 
115 83.2697 
116 -45.6808 
ITEM: TIMESTEP
27300
ITEM: NUMBER OF ENTRIES
116
ITEM: BOX BOUNDS pp pp pp
-2.1659880786948438e+01 2.1659880786948438e+01
-1.1125721167720103e+01 1.1125721167720103e+01
-1.1125721167720103e+01 1.1125721167720103e+01
ITEM: ENTRIES index c_dphi
1 139.142 
2 15.5033 
3 -97.5365 
4 140.109 
5 27.0692 
6 -96.2521 
7 -105.475 
8 141.485 
9 18.1639 
10 -137.412 
11 103.42 
12 -22.1858 
13 -97.848 
14 151.176 
15 33.3465 
16 -88.9037 
17 153.267 
18 22.0726 
19 34.6458 
20 -83.1834 
21 145.622 
22 148.801 
23 -96.4934 
24 15.7215 
25 -175.866 
26 -54.3016 
27 59.2664 
28 174.096 
29 50.3531 
30 -69.3429 
31 -174.918 
32 -45.9309 
33 63.5845 
34 173.107 
35 39.3966 
36 -63.9699 
37 162.32 
38 57.5464 
39 -76.164 
40 -101.465 
41 37.7425 
42 -143.904 
43 96.178 
44 -26.5962 
45 -98.7963 
46 -86.4369 
47 151.878 
48 29.2619 
49 29.2017 
50 -92.4834 
51 144.901 
52 145.505 
53 23.8197 
54 -118.772 
55 110.453 
56 -6.10621 
57 171.304 
58 -73.2535 
59 50.7539 
60 152.711 
61 36.7808 
62 -91.7837 
63 158.818 
64 30.2531 
65 -85.2526 
66 -78.3428 
67 153.093 
68 37.587 
69 -155.688 
70 84.3328 
71 -37.481 
72 172.842 
73 48.2541 
74 -69.1735 
75 -144.559 
76 98.8448 
77 -13.3605 
78 -140.414 
79 107.381 
80 -23.8173 
81 -13.509 
82 -125.714 
83 103.088 
84 121.842 
85 -119.652 
86 -10.1686 
87 61.1622 
88 -66.5919 
89 -172.09 
90 163.859 
91 46.9027 
92 -73.7845 
93 53.5299 
94 -62.9499 
95 176.588 
96 65.0103 
97 -55.4521 
98 -178.51 
99 174.717 
100 54.2546 
101 -68.8032 
102 102.414 
103 -143.177 
104 -11.6975 
105 73.7185 
106 -165.926 
107 -47.927 
108 66.8021 
109 -53.6508 
110 -168.687 
111 65.4529 
112 -49.5832 
113 -174.094 
114 -171.629 
115 73.3345 
116 -51.1765 
ITEM: TIMESTEP
27400
ITEM: NUMBER OF ENTRIES
116
ITEM: BOX BOUNDS pp pp pp
-2.1659880786948438e+01 2.1659880786948438e+01
-1.1125721167720103e+01 1.1125721167720103e+01
-1.1125721167720103e+01 1.1125721167720103e+01
ITEM: ENTRIES index c_dphi
1 162.943 
2 42.9801 
3 -81.2699 
4 163.395 
5 39.1451 
6 -76.642 
7 -78.7606 
8 156.989 
9 41.2023 
10 -100.438 
11 143.053 
12 28.8358 
13 -89.0464 
14 147.503 
15 22.4888 
16 -96.6909 
17 138.295 
18 26.7596 
19 12.7542 
20 -112.26 
21 136.205 
22 -153.293 
23 -27.8297 
24 91.3687 
25 164.95 
26 -67.7332 
27 43.6195 
28 154.694 
29 30.1558 
30 -85.3097 
31 -150.043 
32 -33.3021 
33 85.6687 
34 173.994 
35 60.6469 
36 -60.4236 
37 -173.77 
38 58.86 
39 -54.4867 
40 -153.678 
41 -45.0529 
42 169.414 
43 44.7949 
44 -64.7918 
45 -90.6672 
46 -100.372 
47 142.861 
48 28.6701 
49 20.933 
50 -95.8335 
51 149.975 
52 140.29 
53 23.5238 
54 -93.0224 
55 144.334 
56 25.9046 
57 179.54 
58 -57.2256 
59 53.6191 
60 111.507 
61 -13.541 
62 -127.009 
63 110.652 
64 -2.81659 
65 -124.3 
66 -135.634 
67 110.898 
68 -10.5854 
69 -150.426 
70 89.8253 
71 -30.3062 
72 -170.565 
73 77.0314 
74 -41.5327 
75 -154.831 
76 80.6507 
77 -33.1361 
78 -161.316 
79 84.8977 
80 -36.7968 
81 -45.4478 
82 -159.235 
83 79.071 
84 97.124 
85 -140.904 
86 -23.3708 
87 -76.5855 
88 160.453 
89 49.9449 
90 179.421 
91 65.4276 
92 -65.6857 
93 62.893 
94 -55.9907 
95 -171.326 
96 60.7804 
97 -54.5553 
98 179.664 
99 -176.637 
100 68.0276 
101 -57.753 
102 17.4764 
103 132.373 
104 -103.695 
105 78.0583 
106 -162.963 
107 -43.1044 
108 69.9771 
109 -48.4464 
110 -169.546 
111 69.9905 
112 -51.1087 
113 -171.586 
114 -179.012 
115 59.8884 
116 -60.589 
ITEM: TIMESTEP
27500
ITEM: NUMBER OF ENTRIES
116
ITEM: BOX BOUNDS pp pp pp
-2.1659880786948438e+01 2.1659880786948438e+01
-1.1125721167720103e+01 1.1125721167720103e+01
-1.1125721167720103e+01 1.1125721167720103e+01
ITEM: ENTRIES index c_dphi
1 148.046 
2 41.9072 
3 -83.6609 
4 154.056 
5 28.4881 
6 -99.8047 
7 -80.2713 
8 154.161 
9 25.8679 
10 -111.01 
11 127.577 
12 6.38966 
13 -104.605 
14 134.513 
15 11.2942 
16 -109.766 
17 127.015 
18 11.1156 
19 10.7545 
20 -112.465 
21 131.636 
22 -136.08 
23 -17.9646 
24 105.723 
25 162.461 
26 -80.2134 
27 37.0249 
28 -171.14 
29 65.2988 
30 -45.9308 
31 -159.838 
32 -49.5859 
33 73.0096 
34 156.951 
35 34.6914 
36 -82.3897 
37 155.35 
38 36.6912 
39 -85.5686 
40 -147.438 
41 -24.141 
42 -173.572 
43 67.9396 
44 -48.2914 
45 -89.8575 
46 -88.9194 
47 159.484 
48 33.2485 
49 27.746 
50 -83.8501 
51 149.914 
52 147.975 
53 36.3785 
54 -108.429 
55 126.68 
56 13.044 
57 175.545 
58 -62.4627 
59 50.8946 
60 81.4259 
61 -44.5217 
62 -151.254 
63 70.2221 
64 -36.5099 
65 -163.83 
66 -176.304 
67 76.9641 
68 -50.3563 
69 -133.669 
70 114.454 
71 -0.457141 
72 -128.044 
73 104.887 
74 -3.91759 
75 -139.213 
76 97.7036 
77 -21.2502 
78 -144.889 
79 96.1572 
80 -21.8052 
81 -26.6733 
82 -145.627 
83 96.4106 
84 68.8335 
85 -168.582 
86 -51.6865 
87 77.6213 
88 -47.3753 
89 -162.37 
90 -163.609 
91 75.4869 
92 -51.0965 
93 53.6312 
94 -66.3255 
95 -177.913 
96 56.4559 
97 -55.1312 
98 176.413 
99 175.892 
100 64.3052 
101 -64.1511 
102 76.1355 
103 -167.616 
104 -53.4323 
105 73.066 
106 -167.772 
107 -44.4613 
108 40.4584 
109 -80.1653 
110 159.391 
111 46.0906 
112 -74.3535 
113 166.714 
114 156.957 
115 36.5126 
116 -82.4195 
ITEM: TIMESTEP
27600
ITEM: NUMBER OF ENTRIES
116
ITEM: BOX BOUNDS pp pp pp
-2.1659880786948438e+01 2.1659880786948438e+01
-1.1125721167720103e+01 1.1125721167720103e+01
-1.1125721167720103e+01 1.1125721167720103e+01
ITEM: ENTRIES index c_dphi
1 136.913 
2 19.1459 
3 -102.422 
4 133.787 
5 12.2189 
6 -108.447 
7 -105.425 
8 133.008 
9 12.3423 
10 -91.3584 
11 150.034 
12 28.4273 
13 -108.454 
14 133.397 
15 16.6281 
16 -101.835 
17 141.396 
18 16.3146 
19 18.1133 
20 -98.6551 
21 136.263 
22 -173.958 
23 -57.0599 
24 67.5908 
25 150.258 
26 -91.0991 
27 25.4042 
28 -179.529 
29 54.0332 
30 -60.1461 
31 -179.884 
32 -55.5944 
33 61.7228 
34 -174.626 
35 78.008 
36 -51.5903 
37 -158.957 
38 67.8393 
39 -39.5271 
40 -147.757 
41 -43.4128 
42 -171.13 
43 75.1696 
44 -49.8561 
45 -75.8501 
46 -72.7261 
47 171.03 
48 47.6246 
49 46.4176 
50 -69.8258 
51 166.768 
52 163.799 
53 47.5558 
54 -121.421 
55 114.933 
56 -5.64214 
57 151.96 
58 -88.2932 
59 27.7199 
60 107.7 
61 -11.1041 
62 -124.68 
63 104.936 
64 -8.64014 
65 -136.26 
66 -134.137 
67 112.287 
68 -15.3332 
69 -150.509 
70 93.8148 
71 -29.4338 
72 -136.695 
73 99.1924 
74 -19.1681 
75 -138.265 
76 101.794 
77 -18.2381 
78 -140.907 
79 99.0614 
80 -20.9658 
81 -14.603 
82 -134.635 
83 105.338 
84 105.657 
85 -130.795 
86 -16.525 
87 52.6055 
88 -75.2859 
89 173.38 
90 -160.09 
91 68.192 
92 -42.2838 
93 47.4963 
94 -70.84 
95 172.342 
96 51.0892 
97 -65.7289 
98 169.425 
99 168.352 
100 51.5343 
101 -73.3114 
102 57.4256 
103 171.502 
104 -70.2309 
105 70.2745 
106 -170.214 
107 -51.0522 
108 82.7348 
109 -36.3755 
110 -147.611 
111 90.1482 
112 -21.0873 
113 -150.742 
114 -149.916 
115 98.8485 
116 -30.8058 
ITEM: TIMESTEP
27700
ITEM: NUMBER OF ENTRIES
116
ITEM: BOX BOUNDS pp pp pp
-2.1659880786948438e+01 2.1659880786948438e+01
-1.1125721167720103e+01 1.1125721167720103e+01
-1.1125721167720103e+01 1.1125721167720103e+01
ITEM: ENTRIES index c_dphi
1 128.043 
2 0.227687 
3 -121.648 
4 123.83 
5 1.95439 
6 -108.355 
7 -121.024 
8 117.101 
9 6.79124 
10 -100.491 
11 144.004 
12 20.3304 
13 -117.264 
14 123.776 
15 3.41396 
16 -125.067 
17 114.572 
18 -6.10606 
19 -2.86909 
20 -123.231 
21 116.092 
22 149.568 
23 -100.096 
24 26.0577 
25 155.032 
26 -84.2097 
27 36.9373 
28 -173.312 
29 70.2987 
30 -59.559 
31 -159.421 
32 -34.4604 
33 80.4921 
34 156.173 
35 31.8562 
36 -90.2643 
37 145.418 
38 34.9973 
39 -89.3199 
40 -113.076 
41 12.1135 
42 143.496 
43 19.0387 
44 -94.5911 
45 -25.3011 
46 -31.2653 
47 -144.701 
48 97.5308 
49 83.5927 
50 -29.8427 
51 -147.611 
52 -154.097 
53 92.4673 
54 -149.869 
55 85.0374 
56 -29.0045 
57 122.34 
58 -127.165 
59 -0.68054 
60 150.807 
61 39.0409 
62 -82.6323 
63 161.942 
64 40.2684 
65 -86.2923 
66 -82.0179 
67 156.309 
68 29.7483 
69 -145.098 
70 93.7777 
71 -28.1406 
72 178.989 
73 61.3493 
74 -58.0606 
75 -89.702 
76 150.704 
77 33.8291 
78 -93.148 
79 149.977 
80 26.4462 
81 27.5313 
82 -89.3433 
83 147.126 
84 99.837 
85 -135.924 
86 -22.3065 
87 -165.406 
88 68.1234 
89 -49.1499 
90 153.671 
91 27.4857 
92 -79.6266 
93 65.2267 
94 -60.3405 
95 -165.43 
96 57.9356 
97 -47.1542 
98 -176.497 
99 172.926 
100 67.8363 
101 -61.5067 
102 -17.5897 
103 102.094 
104 -143.281 
105 84.1921 
106 -155.146 
107 -32.0904 
108 87.316 
109 -33.355 
110 -152.559 
111 85.378 
112 -33.8262 
113 -153.951 
114 -147.952 
115 92.8438 
116 -27.281 
ITEM: TIMESTEP
27800
ITEM: NUMBER OF ENTRIES
116
ITEM: BOX BOUNDS pp pp pp
-2.1659880786948438e+01 2.1659880786948438e+01
-1.1125721167720103e+01 1.1125721167720103e+01
-1.1125721167720103e+01 1.1125721167720103e+01
ITEM: ENTRIES index c_dphi
1 120.684 
2 6.30634 
3 -123.211 
4 123.993 
5 -5.52458 
6 -121.63 
7 -119.804 
8 110.679 
9 -5.42629 
10 -122.055 
11 120.071 
12 7.74352 
13 -78.0006 
14 150.516 
15 37.9552 
16 -92.9151 
17 154.524 
18 38.5678 
19 18.8398 
20 -93.7214 
21 150.323 
22 167.322 
23 -65.0039 
24 56.656 
25 -168.075 
26 -36.5013 
27 82.0386 
28 164.197 
29 46.6886 
30 -74.0909 
31 -142.6 
32 -25.129 
33 93.3374 
34 135.391 
35 10.3697 
36 -105.98 
37 128.998 
38 13.3685 
39 -111.653 
40 -117.954 
41 21.579 
42 159.334 
43 38.4522 
44 -71.377 
45 -36.0473 
46 -42.8599 
47 -166.231 
48 84.8139 
49 75.0079 
50 -48.3628 
51 -157.318 
52 -163.721 
53 72.9082 
54 -154.66 
55 82.6581 
56 -33.4862 
57 165.444 
58 -79.3808 
59 49.3747 
60 142.029 
61 24.379 
62 -96.9439 
63 154.181 
64 32.8581 
65 -88.169 
66 -87.3476 
67 151.33 
68 30.3024 
69 -178.422 
70 51.8346 
71 -66.1296 
72 171.631 
73 52.52 
74 -60.3812 
75 -116.035 
76 123.343 
77 -0.416893 
78 -112.035 
79 124.206 
80 8.58714 
81 -3.76004 
82 -127.52 
83 116.862 
84 84.9024 
85 -157.116 
86 -32.9053 
87 108.587 
88 -11.3109 
89 -133.652 
90 144.473 
91 20.2299 
92 -96.7332 
93 66.2955 
94 -56.2738 
95 -167.112 
96 65.7894 
97 -45.049 
98 -171.641 
99 -175.316 
100 73.8453 
101 -52.7469 
102 17.904 
103 139.051 
104 -109.114 
105 106.086 
106 -126.634 
107 -2.56902 
108 50.1261 
109 -71.0778 
110 162.877 
111 48.4324 
112 -77.6124 
113 169.636 
114 162.478 
115 36.4332 
116 -76.3181 
ITEM: TIMESTEP
27900
ITEM: NUMBER OF ENTRIES
116
ITEM: BOX BOUNDS pp pp pp
-2.1659880786948438e+01 2.1659880786948438e+01
-1.1125721167720103e+01 1.1125721167720103e+01
-1.1125721167720103e+01 1.1125721167720103e+01
ITEM: ENTRIES index c_dphi
1 145.04 
2 27.7262 
3 -91.6525 
4 148.255 
5 28.876 
6 -94.4318 
7 -101.986 
8 138.635 
9 15.3272 
10 -80.328 
11 155.745 
12 43.7707 
13 -79.8066 
14 168.518 
15 52.7625 
16 -67.9061 
17 176.338 
18 43.769 
19 43.6313 
20 -72.1245 
21 155.306 
22 174.016 
23 -72.4147 
24 44.0666 
25 161.638 
26 -87.9929 
27 36.3911 
28 166.357 
29 49.449 
30 -77.7001 
31 -59.2294 
32 62.2054 
33 176.789 
34 56.0272 
35 -61.4685 
36 -173.872 
37 68.6318 
38 -55.9913 
39 -173.487 
40 -145.288 
41 -16.6148 
42 -178.428 
43 60.6954 
44 -48.0276 
45 -57.2205 
46 -55.1836 
47 -164.673 
48 59.7551 
49 70.1144 
50 -39.3748 
51 -174.947 
52 -172.159 
53 78.3516 
54 -153.483 
55 90.2684 
56 -33.0462 
57 -133.209 
58 -10.248 
59 108.906 
60 166.758 
61 44.7149 
62 -70.0652 
63 162.183 
64 47.4024 
65 -75.774 
66 -77.7919 
67 167.428 
68 44.2516 
69 158.763 
70 45.7859 
71 -80.9413 
72 147.627 
73 21.3519 
74 -95.0588 
75 -153.298 
76 85.9899 
77 -33.2053 
78 -145.1 
79 95.7048 
80 -24.388 
81 -35.8703 
82 -155.066 
83 84.8417 
84 69.5464 
85 -169.673 
86 -52.1558 
87 -15.312 
88 -133.117 
89 100.753 
90 178.428 
91 54.3832 
92 -67.4956 
93 39.0378 
94 -73.4407 
95 155.307 
96 51.0839 
97 -80.1688 
98 163.562 
99 174.308 
100 43.0553 
101 -73.2135 
102 47.6732 
103 164.187 
104 -72.791 
105 70.1385 
106 -167.792 
107 -48.7102 
108 56.9322 
109 -63.9566 
110 178.87 
111 50.7854 
112 -66.3878 
113 171.674 
114 -173.809 
115 69.0174 
116 -52.9206 
ITEM: TIMESTEP
28000
ITEM: NUMBER OF ENTRIES
116
ITEM: BOX BOUNDS pp pp pp
-2.1659880786948438e+01 2.1659880786948438e+01
-1.1125721167720103e+01 1.1125721167720103e+01
-1.1125721167720103e+01 1.1125721167720103e+01
ITEM: ENTRIES index c_dphi
1 143.798 
2 22.5499 
3 -102.493 
4 142.2 
5 17.1577 
6 -96.5513 
7 -101.961 
8 132.996 
9 19.2875 
10 -112.63 
11 136.599 
12 3.05892 
13 -77.9066 
14 161.883 
15 54.9635 
16 -86.8074 
17 166.274 
18 33.4036 
19 33.2863 
20 -73.6327 
21 153.497 
22 164.183 
23 -78.2554 
24 30.6519 
25 162.445 
26 -85.5057 
27 34.6322 
28 161.984 
29 42.0747 
30 -77.0683 
31 -80.566 
32 41.6941 
33 162.537 
34 83.3688 
35 -14.9548 
36 -156.369 
37 105.308 
38 -30.0159 
39 -128.34 
40 -115.317 
41 -12.7681 
42 168.159 
43 49.0509 
44 -66.6431 
45 -60.8553 
46 -58.5778 
47 179.571 
48 52.4547 
49 72.2865 
50 -49.5647 
51 -176.681 
52 -171.888 
53 66.2609 
54 -159.548 
55 91.2435 
56 -40.4751 
57 -138.06 
58 -21.3156 
59 100.328 
60 170.27 
61 49.9576 
62 -63.64 
63 164.711 
64 51.1131 
65 -74.9764 
66 -80.4678 
67 165.935 
68 39.8451 
69 173.249 
70 54.9455 
71 -61.2186 
72 141.084 
73 21.833 
74 -109.36 
75 -158.932 
76 83.3815 
77 -35.9902 
78 -156.069 
79 84.5591 
80 -38.3823 
81 -28.0899 
82 -147.462 
83 89.597 
84 101.821 
85 -136.179 
86 -19.8969 
87 101.824 
88 -32.8495 
89 -149.17 
90 167.85 
91 56.2863 
92 -74.4507 
93 59.9677 
94 -56.7108 
95 173.208 
96 68.0122 
97 -62.069 
98 -175.309 
99 -175.137 
100 54.7822 
101 -58.458 
102 -101.325 
103 7.92505 
104 148.188 
105 98.5143 
106 -138.625 
107 -25.7354 
108 25.9697 
109 -95.4363 
110 153.058 
111 40.784 
112 -70.722 
113 162.19 
114 163.046 
115 51.5403 
116 -75.5478 
ITEM: TIMESTEP
28100
ITEM: NUMBER OF ENTRIES
116
ITEM: BOX BOUNDS pp pp pp
-2.1659880786948438e+01 2.1659880786948438e+01
-1.1125721167720103e+01 1.1125721167720103e+01
-1.1125721167720103e+01 1.1125721167720103e+01
ITEM: ENTRIES index c_dphi
1 149.282 
2 26.9664 
3 -93.1076 
4 148.711 
5 28.6373 
6 -88.9734 
7 -90.4048 
8 149.521 
9 31.9104 
10 150.589 
11 25.1574 
12 -85.5464 
13 -89.8353 
14 37.6797 
15 148.376 
16 -121.722 
17 118.784 
18 2.91925 
19 -108.344 
20 133.356 
21 9.24558 
22 -110.577 
23 125.313 
24 7.72297 
25 14.586 
26 -109.524 
27 132.886 
28 129.578 
29 -110.142 
30 16.7053 
31 147.314 
32 -92.4545 
33 35.117 
34 105.926 
35 -3.4506 
36 -133.26 
37 117.363 
38 -17.2171 
39 -126.594 
40 -84.7174 
41 33.1484 
42 166.919 
43 47.832 
44 -77.0904 
45 -51.345 
46 -60.8552 
47 177.812 
48 64.3913 
49 60.2851 
50 -61.0472 
51 -174.468 
52 -176.592 
53 62.0762 
54 -136.356 
55 104.076 
56 -10.5294 
57 -151.541 
58 -31.128 
59 89.5558 
60 -162.973 
61 75.0954 
62 -39.6486 
63 -164.812 
64 80.4441 
65 -42.8801 
66 -51.163 
67 -165.907 
68 70.7688 
69 -144.177 
70 98.6814 
71 -22.9951 
72 121.634 
73 2.4284 
74 -115.028 
75 56.3864 
76 174.124 
77 -63.5689 
78 -29.1956 
79 -155.49 
80 87.9002 
81 78.9726 
82 -155.962 
83 -44.2566 
84 86.3704 
85 -35.532 
86 -154.651 
87 93.2492 
88 -25.8699 
89 -144.848 
90 -151.392 
91 89.4887 
92 -29.4897 
93 166.685 
94 54.3769 
95 -73.9818 
96 65.3686 
97 -51.6494 
98 -177.584 
99 67.1761 
100 -58.7586 
101 -175.806 
102 -167.653 
103 66.412 
104 -50.6354 
105 121.94 
106 -126.839 
107 3.51888 
108 -163.133 
109 78.2308 
110 -42.0213 
111 -166.223 
112 73.5245 
113 -47.5874 
114 -39.7508 
115 -160.003 
116 78.8852 
ITEM: TIMESTEP
28200
ITEM: NUMBER OF ENTRIES
116
ITEM: BOX BOUNDS pp pp pp
-2.1659880786948438e+01 2.1659880786948438e+01
-1.1125721167720103e+01 1.1125721167720103e+01
-1.1125721167720103e+01 1.1125721167720103e+01
ITEM: ENTRIES index c_dphi
1 132.939 
2 18.3961 
3 -106.547 
4 139.521 
5 14.5773 
6 -105.937 
7 -97.057 
8 138 
9 17.4858 
10 153.903 
11 39.562 
12 -82.0118 
13 -108.563 
14 7.35439 
15 127.921 
16 -166.908 
17 67.0656 
18 -44.7591 
19 -97.2774 
20 142.302 
21 16.9365 
22 -92.5 
23 142.134 
24 27.9206 
25 15.5208 
26 -109.845 
27 135.941 
28 157.014 
29 -87.9166 
30 43.4515 
31 150.295 
32 -76.2925 
33 35.6214 
34 166.744 
35 45.4144 
36 -73.0302 
37 165.64 
38 46.6561 
39 -74.6737 
40 -69.9582 
41 55.8417 
42 165.659 
43 41.1967 
44 -78.5 
45 -62.2963 
46 -77.3411 
47 164.496 
48 51.6569 
49 53.0747 
50 -65.088 
51 -177.927 
52 168.706 
53 50.543 
54 -123.495 
55 120.691 
56 -7.14496 
57 178.622 
58 -60.0733 
59 64.5715 
60 -165.593 
61 72.8689 
62 -46.5326 
63 -162.29 
64 78.3084 
65 -40.7515 
66 -44.2861 
67 -163.688 
68 77.2525 
69 -144.586 
70 96.5927 
71 -33.1658 
72 72.0278 
73 -49.4925 
74 -162.227 
75 80.845 
76 -162.566 
77 -36.1027 
78 173.12 
79 52.2639 
80 -59.006 
81 111.483 
82 -130.155 
83 -10.5392 
84 91.3554 
85 -28.3227 
86 -149.649 
87 93.1916 
88 -28.1344 
89 -147.13 
90 -156.431 
91 82.2433 
92 -36.7527 
93 140.927 
94 17.3626 
95 -99.6767 
96 45.7637 
97 -71.2909 
98 156.975 
99 56.2275 
100 -75.5061 
101 173.282 
102 176.217 
103 44.4831 
104 -66.7287 
105 -166.867 
106 -48.4765 
107 73.984 
108 -176.502 
109 63.2392 
110 -62.0335 
111 -177.456 
112 57.2716 
113 -57.1967 
114 -57.7432 
115 176.984 
116 62.5158 
ITEM: TIMESTEP
28300
ITEM: NUMBER OF ENTRIES
116
ITEM: BOX BOUNDS pp pp pp
-2.1659880786948438e+01 2.1659880786948438e+01
-1.1125721167720103e+01 1.1125721167720103e+01
-1.1125721167720103e+01 1.1125721167720103e+01
ITEM: ENTRIES index c_dphi
1 120.867 
2 2.47803 
3 -111.536 
4 121.029 
5 7.01488 
6 -120.581 
7 -118.577 
8 127.409 
9 -0.18722 
10 172.846 
11 53.9534 
12 -77.8215 
13 -93.0933 
14 22.1323 
15 140.078 
16 126.873 
17 11.6761 
18 -116.873 
19 -162.035 
20 83.3386 
21 -30.1706 
22 -153.066 
23 93.4246 
24 -38.4397 
25 -36.0646 
26 -149.574 
27 78.5618 
28 -174.073 
29 -55.607 
30 58.1608 
31 155.851 
32 -87.0443 
33 36.4259 
34 -178.202 
35 57.1243 
36 -54.0692 
37 -178.743 
38 65.4829 
39 -59.1909 
40 -18.0806 
41 107.737 
42 -175.953 
43 63.5456 
44 -52.7496 
45 -104.238 
46 -100.207 
47 138.35 
48 12.7273 
49 26.8276 
50 -94.6159 
51 139.761 
52 142.828 
53 21.3848 
54 -77.4854 
55 168.658 
56 45.3378 
57 146.744 
58 -90.9132 
59 34.301 
60 -172.919 
61 66.3844 
62 -57.3542 
63 -178.359 
64 57.9022 
65 -57.6622 
66 -60.9638 
67 175.298 
68 59.7332 
69 -94.2574 
70 152.212 
71 30.3687 
72 60.1995 
73 -60.1865 
74 174.605 
75 91.8232 
76 -150.534 
77 -34.4016 
78 -173.475 
79 67.7185 
80 -43.0651 
81 120.216 
82 -127.738 
83 -3.4512 
84 50.761 
85 -62.071 
86 170.639 
87 53.0112 
88 -74.279 
89 165.843 
90 171.488 
91 44.1978 
92 -75.6801 
93 137.455 
94 13.3708 
95 -98.7148 
96 41.8228 
97 -71.8482 
98 164.28 
99 54.0846 
100 -69.7876 
101 167.755 
102 169.393 
103 45.5211 
104 -76.9358 
105 -60.9287 
106 51.3496 
107 174.348 
108 152.124 
109 33.755 
110 -82.5954 
111 154.312 
112 37.9615 
113 -87.3191 
114 -84.1225 
115 159.527 
116 34.2465 
ITEM: TIMESTEP
28400
ITEM: NUMBER OF ENTRIES
116
ITEM: BOX BOUNDS pp pp pp
-2.1659880786948438e+01 2.1659880786948438e+01
-1.1125721167720103e+01 1.1125721167720103e+01
-1.1125721167720103e+01 1.1125721167720103e+01
ITEM: ENTRIES index c_dphi
1 113.384 
2 -18.3149 
3 -130.404 
4 111.776 
5 -0.312707 
6 -116.525 
7 -141.028 
8 106.883 
9 -9.32927 
10 -170.049 
11 69.6695 
12 -56.3966 
13 -64.1773 
14 68.6564 
15 178.357 
16 139.484 
17 9.56336 
18 -110.929 
19 -170.237 
20 68.5274 
21 -50.1913 
22 -158.13 
23 83.1515 
24 -36.8945 
25 -36.0743 
26 -154.793 
27 85.1611 
28 172.173 
29 -63.6339 
30 52.5358 
31 152.767 
32 -99.1244 
33 22.6072 
34 137.257 
35 5.81716 
36 -108.524 
37 120.037 
38 17.0954 
39 -114.344 
40 -16.9353 
41 111.776 
42 -158.308 
43 75.0865 
44 -38.6672 
45 -103.487 
46 -92.8221 
47 149.909 
48 13.2761 
49 30.241 
50 -87.0278 
51 136.339 
52 150.414 
53 33.1458 
54 -89.2057 
55 152.43 
56 35.9083 
57 167.772 
58 -77.9371 
59 40.5125 
60 178.108 
61 66.5709 
62 -50.7599 
63 174.286 
64 56.9552 
65 -74.1772 
66 -63.8623 
67 178.807 
68 47.6746 
69 -103.791 
70 141.936 
71 26.4206 
72 75.3732 
73 -40.2744 
74 -166.553 
75 86.7962 
76 -152.539 
77 -33.4047 
78 -178 
79 63.9926 
80 -46.7973 
81 112.108 
82 -136.149 
83 -20.0155 
84 54.9287 
85 -58.1419 
86 -172.561 
87 62.901 
88 -51.5177 
89 175.972 
90 177.801 
91 63.3826 
92 -69.128 
93 132.948 
94 12.2724 
95 -102.879 
96 64.6172 
97 -59.524 
98 -166.558 
99 59.6828 
100 -47.3507 
101 -176.176 
102 177.988 
103 70.9547 
104 -57.8706 
105 -88.3113 
106 28.5913 
107 140.732 
108 151.095 
109 35.1583 
110 -86.3598 
111 155.401 
112 33.8832 
113 -88.6623 
114 -84.8812 
115 153.601 
116 31.0552 
ITEM: TIMESTEP
28500
ITEM: NUMBER OF ENTRIES
116
ITEM: BOX BOUNDS pp pp pp
-2.1659880786948438e+01 2.1659880786948438e+01
-1.1125721167720103e+01 1.1125721167720103e+01
-1.1125721167720103e+01 1.1125721167720103e+01
ITEM: ENTRIES index c_dphi
1 97.4808 
2 -29.0259 
3 -146.259 
4 92.0644 
5 -25.1685 
6 -141.429 
7 -148.353 
8 94.4138 
9 -21.8466 
10 -167.088 
11 67.337 
12 -45.2521 
13 -82.6544 
14 45.6796 
15 158.245 
16 165.275 
17 46.5593 
18 -67.4088 
19 -134.924 
20 118.336 
21 -1.19537 
22 -122.333 
23 118.135 
24 -15.5937 
25 -10.8915 
26 -130.423 
27 95.8481 
28 159.17 
29 -91.9192 
30 24.674 
31 153.573 
32 -79.3668 
33 42.9496 
34 130.655 
35 8.32078 
36 -110.696 
37 126.97 
38 14.2706 
39 -108.063 
40 -16.7892 
41 108.202 
42 179.98 
43 59.2832 
44 -59.6447 
45 -46.5863 
46 -60.6504 
47 171.102 
48 66.6364 
49 67.0593 
50 -61.188 
51 -165.654 
52 -173.873 
53 57.8797 
54 -121.299 
55 122.514 
56 -0.424914 
57 -162.114 
58 -42.506 
59 70.4647 
60 157.6 
61 41.1284 
62 -71.5679 
63 156.509 
64 43.8126 
65 -87.0192 
66 -84.8148 
67 162.489 
68 31.6571 
69 -143.38 
70 93.1563 
71 -20.9607 
72 101 
73 -23.2174 
74 -134.234 
75 31.9797 
76 155.129 
77 -82.8967 
78 174.76 
79 71.8999 
80 -57.6762 
81 125.808 
82 -108.169 
83 7.9199 
84 93.1156 
85 -32.6072 
86 -144.715 
87 78.2165 
88 -33.8909 
89 -156.061 
90 -165.225 
91 82.6678 
92 -39.502 
93 151.096 
94 22.5456 
95 -93.3373 
96 74.1187 
97 -47.2617 
98 -160.005 
99 78.5346 
100 -34.2086 
101 -160.085 
102 -166.724 
103 80.5326 
104 -45.3439 
105 -30.4401 
106 86.7478 
107 -158.601 
108 155.408 
109 31.8334 
110 -89.3189 
111 160.844 
112 39.6915 
113 -75.5815 
114 -89.6423 
115 149.205 
116 33.9324 
ITEM: TIMESTEP
28600
ITEM: NUMBER OF ENTRIES
116
ITEM: BOX BOUNDS pp pp pp
-2.1659880786948438e+01 2.1659880786948438e+01
-1.1125721167720103e+01 1.1125721167720103e+01
-1.1125721167720103e+01 1.1125721167720103e+01
ITEM: ENTRIES index c_dphi
1 84.5759 
2 -33.5477 
3 -156.223 
4 90.0173 
5 -32.6584 
6 -151.859 
7 -152.453 
8 84.8717 
9 -34.3289 
10 -162.017 
11 82.2632 
12 -33.3666 
13 -77.6529 
14 40.8872 
15 162.379 
16 169.927 
17 48.3147 
18 -65.8057 
19 -82.6173 
20 152.644 
21 34.0126 
22 -81.2109 
23 160.158 
24 43.528 
25 32.9726 
26 -85.6586 
27 157.712 
28 154.627 
29 -78.8241 
30 44.2604 
31 171.316 
32 -70.0425 
33 49.3927 
34 115.097 
35 -1.00432 
36 -129.281 
37 114.617 
38 -10.1702 
39 -126.272 
40 -29.3298 
41 84.8753 
42 -159.272 
43 76.2053 
44 -40.914 
45 -94.0419 
46 -94.4984 
47 144.835 
48 21.0499 
49 27.0411 
50 -93.6257 
51 142.589 
52 150.41 
53 29.743 
54 -68.7662 
55 177.055 
56 58.5503 
57 -145.452 
58 -31.259 
59 93.7241 
60 133.199 
61 18.8234 
62 -101.362 
63 155.226 
64 35.0409 
65 -90.3983 
66 -91.5444 
67 148.271 
68 22.8313 
69 169.911 
70 34.0213 
71 -72.7427 
72 119.308 
73 -1.27519 
74 -119.285 
75 17.0566 
76 137.77 
77 -105.113 
78 139.938 
79 22.0942 
80 -104.463 
81 105.972 
82 -130.375 
83 -13.4374 
84 65.1515 
85 -52.1343 
86 -171.605 
87 69.0881 
88 -50.383 
89 -173.626 
90 -169.373 
91 71.1558 
92 -52.0872 
93 168.699 
94 41.1161 
95 -79.4872 
96 49.1536 
97 -70.2173 
98 169.44 
99 54.067 
100 -66.2761 
101 173.438 
102 174.538 
103 54.1953 
104 -66.0906 
105 -13.9479 
106 106.234 
107 -136.505 
108 164.335 
109 39.6525 
110 -75.8022 
111 163.122 
112 47.6672 
113 -72.1956 
114 -77.3068 
115 167.238 
116 47.3756 
ITEM: TIMESTEP
28700
ITEM: NUMBER OF ENTRIES
116
ITEM: BOX BOUNDS pp pp pp
-2.1659880786948438e+01 2.1659880786948438e+01
-1.1125721167720103e+01 1.1125721167720103e+01
-1.1125721167720103e+01 1.1125721167720103e+01
ITEM: ENTRIES index c_dphi
1 65.3112 
2 -60.9319 
3 -171.174 
4 56.7079 
5 -53.5345 
6 -177.049 
7 178.202 
8 67.9592 
9 -55.5552 
10 -175.167 
11 62.1981 
12 -55.6121 
13 -37.0969 
14 87.4936 
15 -156.326 
16 -176.066 
17 60.8087 
18 -64.2379 
19 -64.182 
20 167.028 
21 52.0252 
22 -71.6304 
23 173.367 
24 57.1598 
25 52.5633 
26 -62.4392 
27 -178.646 
28 -170.401 
29 -54.1658 
30 65.9947 
31 -173.484 
32 -57.0631 
33 59.6568 
34 75.1088 
35 -44.7135 
36 -160.22 
37 79.9577 
38 -51.4392 
39 -171.261 
40 -30.7525 
41 85.4379 
42 169.715 
43 50.9347 
44 -72.7756 
45 -71.66 
46 -66.934 
47 173.17 
48 44.9419 
49 55.3783 
50 -64.5172 
51 167.254 
52 176.464 
53 56.5685 
54 -74.94 
55 169.642 
56 51.4888 
57 174.508 
58 -60.9931 
59 59.5743 
60 123.317 
61 6.12415 
62 -122.669 
63 131.998 
64 3.20416 
65 -110.81 
66 -107.971 
67 123.235 
68 9.22142 
69 168.432 
70 53.1265 
71 -75.129 
72 86.6354 
73 -28.3762 
74 -155.96 
75 78.4778 
76 -154.47 
77 -38.305 
78 156.727 
79 38.642 
80 -73.7181 
81 116.587 
82 -128.815 
83 -3.33318 
84 63.0933 
85 -50.0751 
86 -179.223 
87 64.178 
88 -64.9696 
89 177.346 
90 -175.814 
91 55.0389 
92 -62.6452 
93 118.056 
94 -4.54489 
95 -128.751 
96 68.3319 
97 -52.7279 
98 -174.514 
99 73.8428 
100 -47.9434 
101 -165.097 
102 -170.169 
103 68.0449 
104 -49.1092 
105 -32.377 
106 87.7089 
107 -151.457 
108 142.857 
109 19.5741 
110 -98.156 
111 138.292 
112 20.5622 
113 -98.4253 
114 -98.5048 
115 143.765 
116 24.7777 
ITEM: TIMESTEP
28800
ITEM: NUMBER OF ENTRIES
116
ITEM: BOX BOUNDS pp pp pp
-2.1659880786948438e+01 2.1659880786948438e+01
-1.1125721167720103e+01 1.1125721167720103e+01
-1.1125721167720103e+01 1.1125721167720103e+01
ITEM: ENTRIES index c_dphi
1 115.612 
2 -12.7696 
3 -126.132 
4 100.712 
5 -12.651 
6 -130.907 
7 -134.517 
8 112.12 
9 -6.1357 
10 -164.579 
11 70.14 
12 -48.7878 
13 -85.1968 
14 45.2256 
15 160.461 
16 163.602 
17 47.8187 
18 -69.7364 
19 -82.1145 
20 160.266 
21 47.2353 
22 -86.938 
23 160.031 
24 30.6813 
25 40.8284 
26 -72.2026 
27 158.448 
28 -173.571 
29 -58.1837 
30 63.9611 
31 176.165 
32 -63.5926 
33 57.7989 
34 90.5603 
35 -36.6241 
36 -146.904 
37 85.912 
38 -30.484 
39 -157.668 
40 8.31162 
41 120.823 
42 -178.052 
43 65.5899 
44 -59.0589 
45 -61.4551 
46 -65.328 
47 170.005 
48 55.9141 
49 60.5176 
50 -64.1491 
51 -178.24 
52 177.303 
53 52.6359 
54 -92.3521 
55 146.756 
56 26.7746 
57 179.829 
58 -62.1666 
59 55.1436 
60 98.2467 
61 -17.7463 
62 -137.126 
63 101.678 
64 -17.7017 
65 -142.329 
66 -150.032 
67 90.5884 
68 -34.0386 
69 156.679 
70 41.1228 
71 -78.4066 
72 128.391 
73 9.61105 
74 -114.199 
75 58.2024 
76 -173.896 
77 -52.7457 
78 161.658 
79 59.5469 
80 -55.7597 
81 113.917 
82 -135.741 
83 -11.4205 
84 88.8994 
85 -25.2312 
86 -149.143 
87 77.0222 
88 -46.8892 
89 -168.847 
90 -162.749 
91 73.3396 
92 -48.6184 
93 138.95 
94 24.4302 
95 -102.874 
96 58.5347 
97 -64.9825 
98 175.036 
99 60.2557 
100 -59.7258 
101 -176.227 
102 -177.935 
103 62.084 
104 -54.4173 
105 -60.9274 
106 57.842 
107 -174.899 
108 153.605 
109 28.8764 
110 -86.3839 
111 149.654 
112 34.3933 
113 -85.6179 
114 -89.3438 
115 155.396 
116 35.3848 
ITEM: TIMESTEP
28900
ITEM: NUMBER OF ENTRIES
116
ITEM: BOX BOUNDS pp pp pp
-2.1659880786948438e+01 2.1659880786948438e+01
-1.1125721167720103e+01 1.1125721167720103e+01
-1.1125721167720103e+01 1.1125721167720103e+01
ITEM: ENTRIES index c_dphi
1 138.35 
2 10.763 
3 -107.182 
4 128.53 
5 10.585 
6 -103.882 
7 -113.97 
8 128.085 
9 13.6179 
10 -148.597 
11 93.2729 
12 -27.6306 
13 -89.9593 
14 31.5921 
15 160.237 
16 124.108 
17 2.0287 
18 -108.58 
19 -139.319 
20 96.1675 
21 -23.881 
22 -141.066 
23 98.8851 
24 -16.5529 
25 -24.0206 
26 -144.069 
27 100.493 
28 -175.651 
29 -58.1404 
30 71.4022 
31 153.993 
32 -85.3734 
33 38.5722 
34 75.3403 
35 -48.0897 
36 -163.927 
37 72.6431 
38 -44.0998 
39 -167.53 
40 57.7743 
41 179.235 
42 178.164 
43 59.1353 
44 -56.9959 
45 -40.9436 
46 -41.904 
47 -157.53 
48 78.4652 
49 78.047 
50 -37.5795 
51 -161.584 
52 -161.313 
53 83.0608 
54 -94.409 
55 144.839 
56 24.2667 
57 -159.548 
58 -44.7033 
59 72.2422 
60 81.1237 
61 -35.4152 
62 -149.298 
63 99.1293 
64 -14.7536 
65 -144.332 
66 -152.373 
67 93.7442 
68 -35.834 
69 163.978 
70 33.1539 
71 -83.1734 
72 146.055 
73 24.9547 
74 -91.4154 
75 67.0672 
76 -174.073 
77 -51.6638 
78 127.666 
79 26.274 
80 -83.4276 
81 108.677 
82 -125.207 
83 -11.2206 
84 111.072 
85 -16.2107 
86 -128.714 
87 91.0921 
88 -21.4114 
89 -141.625 
90 -162.633 
91 84.8633 
92 -35.3508 
93 146.943 
94 30.4324 
95 -95.9689 
96 67.5327 
97 -46.8931 
98 -179.524 
99 69.4072 
100 -63.2237 
101 -176.167 
102 -161.297 
103 66.0717 
104 -46.8716 
105 -4.43795 
106 113.045 
107 -118.326 
108 136.933 
109 15.5042 
110 -103.447 
111 141.588 
112 22.6373 
113 -96.9834 
114 -99.0431 
115 142.006 
116 22.3853 
ITEM: TIMESTEP
29000
ITEM: NUMBER OF ENTRIES
116
ITEM: BOX BOUNDS pp pp pp
-2.1659880786948438e+01 2.1659880786948438e+01
-1.1125721167720103e+01 1.1125721167720103e+01
-1.1125721167720103e+01 1.1125721167720103e+01
ITEM: ENTRIES index c_dphi
1 152.791 
2 35.274 
3 -80.5411 
4 161.36 
5 45.5444 
6 -81.1236 
7 -86.811 
8 157.374 
9 30.7059 
10 -130.116 
11 112.036 
12 -1.00766 
13 -93.4943 
14 23.3999 
15 140.319 
16 127.219 
17 11.0038 
18 -103.389 
19 -162.92 
20 81.2934 
21 -38.4618 
22 -159.436 
23 80.8084 
24 -43.6495 
25 -46.0786 
26 -165.834 
27 69.7083 
28 -170.227 
29 -59.5013 
30 62.9224 
31 144.216 
32 -96.4547 
33 20.9349 
34 85.054 
35 -32.987 
36 -158.881 
37 83.078 
38 -45.6985 
39 -163.739 
40 40.6106 
41 161.484 
42 177.897 
43 51.6951 
44 -62.2411 
45 -66.5511 
46 -63.3486 
47 173.645 
48 51.9403 
49 62.7625 
50 -60.2444 
51 178.051 
52 178.16 
53 55.1531 
54 -76.0201 
55 161.038 
56 38.299 
57 -178.375 
58 -58.06 
59 58.3917 
60 72.4539 
61 -51.5898 
62 -163.016 
63 74.056 
64 -37.37 
65 -161.9 
66 -169.277 
67 79.2973 
68 -45.2331 
69 -160.434 
70 83.281 
71 -39.9983 
72 135.31 
73 11.7561 
74 -107.19 
75 95.3663 
76 -145.941 
77 -29.0059 
78 50.1001 
79 -51.0705 
80 -163.822 
81 129.284 
82 -112.17 
83 1.80071 
84 78.7765 
85 -41.2587 
86 -154.178 
87 66.5082 
88 -46.4114 
89 -173.457 
90 174.131 
91 61.2117 
92 -65.8334 
93 161.371 
94 39.9684 
95 -79.7483 
96 50.2142 
97 -70.0544 
98 166.016 
99 48.761 
100 -75.1686 
101 169.03 
102 173.412 
103 49.4827 
104 -66.319 
105 -28.6385 
106 91.0038 
107 -140.385 
108 155.99 
109 35.3681 
110 -83.1991 
111 155.138 
112 36.5705 
113 -84.2405 
114 -78.8021 
115 162.631 
116 41.8196 
ITEM: TIMESTEP
29100
ITEM: NUMBER OF ENTRIES
116
ITEM: BOX BOUNDS pp pp pp
-2.1659880786948438e+01 2.1659880786948438e+01
-1.1125721167720103e+01 1.1125721167720103e+01
-1.1125721167720103e+01 1.1125721167720103e+01
ITEM: ENTRIES index c_dphi
1 -74.7586 
2 45.5651 
3 155.385 
4 -123.885 
5 113.074 
6 0.752499 
7 117.822 
8 5.84936 
9 -125.573 
10 50.3768 
11 164.729 
12 138.353 
13 22.5957 
14 -94.9136 
15 143.263 
16 25.7534 
17 -100.98 
18 -106.799 
19 135.692 
20 8.95789 
21 -170.079 
22 75.5616 
23 -58.477 
24 -164.784 
25 61.177 
26 -50.425 
27 -33.8621 
28 -167.901 
29 80.4973 
30 -170.876 
31 -46.9549 
32 69.6226 
33 140.031 
34 -104.056 
35 21.6717 
36 58.9006 
37 -54.2173 
38 175.293 
39 62.175 
40 -65.4134 
41 -178.531 
42 169.62 
43 50.1116 
44 -62.9038 
45 -73.5184 
46 -70.912 
47 169.737 
48 45.2038 
49 52.4974 
50 -66.8541 
51 168.613 
52 170.366 
53 51.0144 
54 -108.469 
55 130.355 
56 11.7029 
57 -178.925 
58 -59.8679 
59 64.7793 
60 86.1463 
61 -37.867 
62 -158.079 
63 76.7509 
64 -43.461 
65 -159.236 
66 -166.565 
67 73.223 
68 -42.5518 
69 -158.725 
70 90.6924 
71 -27.122 
72 126.407 
73 13.4557 
74 -105.77 
75 72.6251 
76 -164.211 
77 -47.4774 
78 58.1839 
79 -48.5632 
80 -171.118 
81 168.611 
82 -71.5879 
83 40.36 
84 53.0483 
85 -64.3873 
86 177.122 
87 40.8809 
88 -77.6094 
89 158.316 
90 171.51 
91 53.0196 
92 -71.0546 
93 164.1 
94 45.3032 
95 -73.0715 
96 151.314 
97 32.9393 
98 -89.889 
99 -84.1084 
100 157.517 
101 34.6886 
102 148.912 
103 26.8219 
104 -85.9421 
105 69.0197 
106 -57.6066 
107 -168.19 
108 64.7813 
109 -45.8017 
110 -168.592 
111 178.861 
112 68.2779 
113 -54.5128 
114 -70.6819 
115 51.0635 
116 169.556 
ITEM: TIMESTEP
29200
ITEM: NUMBER OF ENTRIES
116
ITEM: BOX BOUNDS pp pp pp
-2.1659880786948438e+01 2.1659880786948438e+01
-1.1125721167720103e+01 1.1125721167720103e+01
-1.1125721167720103e+01 1.1125721167720103e+01
ITEM: ENTRIES index c_dphi
1 -79.5029 
2 42.2185 
3 159.831 
4 -93.6107 
5 147.122 
6 25.4372 
7 135.213 
8 17.5227 
9 -114.662 
10 20.267 
11 132.995 
12 147.1 
13 24.0954 
14 -98.798 
15 138.506 
16 15.6129 
17 -98.4887 
18 -100.965 
19 136.141 
20 22.0398 
21 -155.622 
22 78.4887 
23 -33.8303 
24 -160.316 
25 87.3648 
26 -34.4268 
27 -46.4676 
28 -158.787 
29 79.4219 
30 -147.888 
31 -21.7998 
32 89.8946 
33 131.232 
34 -107.654 
35 7.43884 
36 37.9627 
37 -71.7572 
38 157.058 
39 47.3385 
40 -83.4402 
41 166.84 
42 -171.611 
43 72.9674 
44 -46.7975 
45 -84.4469 
46 -84.1334 
47 163.188 
48 38.7446 
49 35.925 
50 -76.7537 
51 158.803 
52 152.675 
53 39.9965 
54 -135.595 
55 95.5307 
56 -19.5691 
57 153.091 
58 -95.9793 
59 26.8175 
60 44.1941 
61 -67.8198 
62 171.773 
63 58.323 
64 -62.0841 
65 170.337 
66 -177.694 
67 61.8988 
68 -65.6802 
69 -177.905 
70 51.0679 
71 -69.7517 
72 149.607 
73 25.59 
74 -96.3648 
75 52.3602 
76 -179.656 
77 -67.382 
78 -67.4116 
79 -170.173 
80 76.3229 
81 -175.54 
82 -45.1559 
83 68.6237 
84 94.1509 
85 -32.6554 
86 -154.394 
87 75.1526 
88 -46.5862 
89 -158.041 
90 -176.642 
91 61.619 
92 -49.8359 
93 -161.037 
94 71.8282 
95 -36.2563 
96 -157.878 
97 94.0372 
98 -30.744 
99 -41.9753 
100 -150.06 
101 85.159 
102 166.025 
103 35.4211 
104 -75.2668 
105 53.0033 
106 -75.5555 
107 175.188 
108 55.0025 
109 -54.2539 
110 -176.439 
111 163.013 
112 53.7568 
113 -68.428 
114 -7.90876 
115 118.625 
116 -129.325 
ITEM: TIMESTEP
29300
ITEM: NUMBER OF ENTRIES
116
ITEM: BOX BOUNDS pp pp pp
-2.1659880786948438e+01 2.1659880786948438e+01
-1.1125721167720103e+01 1.1125721167720103e+01
-1.1125721167720103e+01 1.1125721167720103e+01
ITEM: ENTRIES index c_dphi
1 -77.6747 
2 53.4525 
3 170.407 
4 -107.981 
5 129.193 
6 13.6904 
7 179.703 
8 51.4178 
9 -64.4263 
10 5.33679 
11 136.758 
12 116.681 
13 -12.2139 
14 -131.741 
15 106.611 
16 -12.9153 
17 -124.494 
18 -128.836 
19 111.637 
20 0.0583533 
21 -162.671 
22 81.3305 
23 -51.182 
24 -147.866 
25 79.6215 
26 -31.8672 
27 -32.2179 
28 -164.73 
29 83.7809 
30 178.407 
31 -53.2993 
32 74.223 
33 175.241 
34 -65.1573 
35 52.8483 
36 41.1294 
37 -81.3495 
38 165.885 
39 43.4064 
40 -74.7588 
41 162.762 
42 171.883 
43 51.9747 
44 -68.6438 
45 -54.8905 
46 -53.1747 
47 -171.243 
48 62.9697 
49 69.6142 
50 -48.4542 
51 -174.241 
52 -171.035 
53 70.8967 
54 -120.298 
55 119.19 
56 1.89073 
57 144.754 
58 -94.8763 
59 20.6882 
60 32.5212 
61 -89.3724 
62 155.543 
63 36.921 
64 -78.1639 
65 158.815 
66 154.027 
67 38.9416 
68 -84.0798 
69 -161.851 
70 73.9984 
71 -44.3238 
72 169.258 
73 37.3334 
74 -71.6198 
75 73.6153 
76 -166.034 
77 -49.4217 
78 73.8386 
79 -36.575 
80 -149.69 
81 177.039 
82 -57.6273 
83 57.6373 
84 78.1085 
85 -44.7771 
86 -164.134 
87 72.9058 
88 -46.4512 
89 -164.209 
90 178.513 
91 59.1561 
92 -58.6012 
93 -148.016 
94 86.4461 
95 -25.9857 
96 -140.089 
97 107.479 
98 -14.5516 
99 -30.361 
100 -142.793 
101 95.1765 
102 152.793 
103 22.4248 
104 -89.0574 
105 76.3434 
106 -47.4162 
107 -165.317 
108 76.6824 
109 -41.2189 
110 -159.558 
111 -168.841 
112 73.2575 
113 -45.0817 
114 -44.6042 
115 77.4282 
116 -164.868 
ITEM: TIMESTEP
29400
ITEM: NUMBER OF ENTRIES
116
ITEM: BOX BOUNDS pp pp pp
-2.1659880786948438e+01 2.1659880786948438e+01
-1.1125721167720103e+01 1.1125721167720103e+01
-1.1125721167720103e+01 1.1125721167720103e+01
ITEM: ENTRIES index c_dphi
1 -69.0466 
2 46.1362 
3 164.097 
4 -80.2176 
5 164.305 
6 49.6975 
7 170.062 
8 52.1714 
9 -65.6014 
10 25.792 
11 141.895 
12 108.631 
13 -4.84099 
14 -125.551 
15 116.499 
16 -4.21063 
17 -130.028 
18 -128.368 
19 110.923 
20 -14.8951 
21 -178.906 
22 70.7682 
23 -42.1931 
24 -172.209 
25 74.8298 
26 -61.8833 
27 -51.8555 
28 -164.817 
29 58.4701 
30 148.346 
31 -108.095 
32 5.68559 
33 -153.036 
34 -34.2576 
35 79.5643 
36 15.7378 
37 -98.4751 
38 123.492 
39 9.27874 
40 -114.285 
41 131.502 
42 -162.851 
43 77.0156 
44 -37.7026 
45 -78.0862 
46 -80.6454 
47 162.194 
48 39.2476 
49 44.043 
50 -73.1175 
51 163.936 
52 162.021 
53 44.8603 
54 -84.1534 
55 153.098 
56 36.4259 
57 132.126 
58 -98.4154 
59 19.6791 
60 76.8034 
61 -49.9354 
62 -169.228 
63 56.904 
64 -62.3885 
65 -176.357 
66 178.088 
67 58.7956 
68 -55.1731 
69 -152.035 
70 93.1094 
71 -19.351 
72 175.137 
73 54.5606 
74 -66.0739 
75 82.1618 
76 -160.137 
77 -45.9245 
78 -54.7012 
79 -176.574 
80 67.8338 
81 134.194 
82 -100.843 
83 14.3081 
84 62.3013 
85 -61.4271 
86 -178.218 
87 63.0684 
88 -53.7229 
89 -173.203 
90 -176.033 
91 67.1758 
92 -52.3044 
93 -148.429 
94 89.3049 
95 -21.5822 
96 -154.354 
97 94.759 
98 -32.0883 
99 -31.6838 
100 -142.571 
101 90.5818 
102 173.416 
103 53.8497 
104 -71.0146 
105 64.266 
106 -61.1668 
107 -178.464 
108 52.291 
109 -65.0058 
110 177.724 
111 -179.672 
112 63.0316 
113 -54.2389 
114 -33.0909 
115 95.5167 
116 -147.607 
ITEM: TIMESTEP
29500
ITEM: NUMBER OF ENTRIES
116
ITEM: BOX BOUNDS pp pp pp
-2.1659880786948438e+01 2.1659880786948438e+01
-1.1125721167720103e+01 1.1125721167720103e+01
-1.1125721167720103e+01 1.1125721167720103e+01
ITEM: ENTRIES index c_dphi
1 -98.5929 
2 26.6031 
3 135.225 
4 -83.936 
5 151.051 
6 32.8235 
7 -174.208 
8 66.0222 
9 -52.1099 
10 -10.6529 
11 107.762 
12 149.413 
13 25.2971 
14 -91.7837 
15 152.695 
16 35.6143 
17 -83.1892 
18 -98.8374 
19 144.082 
20 25.2782 
21 -132.907 
22 103.499 
23 -11.1513 
24 -123.406 
25 121.943 
26 0.187681 
27 -3.00072 
28 -117.651 
29 120.593 
30 -145.761 
31 -27.451 
32 91.6077 
33 175.353 
34 -59.1207 
35 58.6469 
36 -0.274973 
37 -124.713 
38 117.111 
39 -7.32751 
40 -122.823 
41 112.739 
42 -111.889 
43 124.038 
44 12.1246 
45 -98.1591 
46 -101.757 
47 136.554 
48 21.4558 
49 13.8525 
50 -107.836 
51 137.066 
52 138.628 
53 16.9392 
54 -87.3262 
55 152.559 
56 37.8514 
57 160.06 
58 -74.4114 
59 43.4891 
60 35.1587 
61 -90.8053 
62 149.805 
63 25.8521 
64 -93.5381 
65 151.816 
66 143.628 
67 24.238 
68 -90.4078 
69 -169.096 
70 74.9633 
71 -41.8255 
72 153.031 
73 29.7247 
74 -86.9981 
75 86.6872 
76 -146.313 
77 -34.1569 
78 -4.4676 
79 -119.228 
80 120.16 
81 120.8 
82 -117.848 
83 -4.29077 
84 62.9885 
85 -61.9415 
86 -174.236 
87 49.0326 
88 -63.2614 
89 173.963 
90 -178.847 
91 68.8592 
92 -53.9167 
93 -158.905 
94 77.6321 
95 -33.8024 
96 -164.747 
97 83.8183 
98 -41.2844 
99 -43.8033 
100 -155.238 
101 79.6596 
102 -161.152 
103 80.2872 
104 -46.2433 
105 54.2335 
106 -72.1847 
107 176.545 
108 47.4919 
109 -63.7787 
110 173.91 
111 171.252 
112 59.9811 
113 -62.3302 
114 -115.679 
115 11.3128 
116 124.321 
ITEM: TIMESTEP
29600
ITEM: NUMBER OF ENTRIES
116
ITEM: BOX BOUNDS pp pp pp
-2.1659880786948438e+01 2.1659880786948438e+01
-1.1125721167720103e+01 1.1125721167720103e+01
-1.1125721167720103e+01 1.1125721167720103e+01
ITEM: ENTRIES index c_dphi
1 -93.358 
2 31.9169 
3 143.601 
4 -87.0262 
5 149.818 
6 38.8479 
7 -170.906 
8 57.6399 
9 -64.3583 
10 -10.2391 
11 110.098 
12 141.905 
13 21.2667 
14 -97.7023 
15 144.308 
16 25.3391 
17 -95.0539 
18 -106.734 
19 134.297 
20 13.9038 
21 -146.07 
22 88.0066 
23 -19.9337 
24 -146.181 
25 105.879 
26 -20.2572 
27 -23.5638 
28 -131.504 
29 102.36 
30 -162.485 
31 -49.3522 
32 81.5014 
33 164.664 
34 -71.2969 
35 48.0741 
36 8.17351 
37 -112.316 
38 134.704 
39 14.2147 
40 -111.272 
41 128.239 
42 -108.129 
43 134.239 
44 22.2324 
45 -99.0508 
46 -95.5831 
47 140.285 
48 22.3407 
49 23.0037 
50 -101.129 
51 140.927 
52 143.025 
53 18.8931 
54 -81.6321 
55 155.422 
56 39.621 
57 176.7 
58 -66.2833 
59 47.1108 
60 -12.2523 
61 -131.483 
62 115.385 
63 -14.2573 
64 -127.39 
65 104.973 
66 106.417 
67 -6.71556 
68 -134.353 
69 -135.634 
70 100.591 
71 -14.6128 
72 176.943 
73 56.1475 
74 -57.9044 
75 89.424 
76 -148.608 
77 -34.8151 
78 -54.7412 
79 -172.828 
80 81.9194 
81 145.302 
82 -87.8999 
83 36.2619 
84 77.2588 
85 -48.1664 
86 -162.152 
87 73.5346 
88 -40.4514 
89 -161.04 
90 178.442 
91 64.4557 
92 -56.1332 
93 -156.197 
94 77.33 
95 -34.803 
96 -158.475 
97 89.3923 
98 -32.0019 
99 -44.7393 
100 -156.872 
101 81.7334 
102 -169.657 
103 68.0324 
104 -53.4453 
105 56.7649 
106 -72.0326 
107 174.499 
108 55.8606 
109 -57.6077 
110 -175.342 
111 167.321 
112 53.8522 
113 -63.882 
114 114.969 
115 -119.207 
116 -2.28977 
ITEM: TIMESTEP
29700
ITEM: NUMBER OF ENTRIES
116
ITEM: BOX BOUNDS pp pp pp
-2.1659880786948438e+01 2.1659880786948438e+01
-1.1125721167720103e+01 1.1125721167720103e+01
-1.1125721167720103e+01 1.1125721167720103e+01
ITEM: ENTRIES index c_dphi
1 -79.4999 
2 39.6789 
3 161.063 
4 -97.7648 
5 140.765 
6 22.2907 
7 165.29 
8 59.2699 
9 -67.5431 
10 -55.6369 
11 61.9919 
12 127.165 
13 2.83285 
14 -108.555 
15 123.099 
16 11.7106 
17 -112.569 
18 -121.385 
19 127.227 
20 2.94721 
21 -90.774 
22 156.838 
23 34.5157 
24 -86.5777 
25 151.1 
26 25.8104 
27 32.6992 
28 -89.6231 
29 145.087 
30 -158.469 
31 -45.0867 
32 75.3331 
33 169.05 
34 -74.8428 
35 44.5916 
36 41.4197 
37 -84.049 
38 160.987 
39 35.5184 
40 -82.8414 
41 151.69 
42 -114.157 
43 126.836 
44 11.6986 
45 -119.374 
46 -113.443 
47 125.174 
48 2.87296 
49 1.47056 
50 -119.912 
51 117.787 
52 124.31 
53 2.92776 
54 -54.9479 
55 -174.163 
56 66.0132 
57 154.452 
58 -94.0209 
59 24.5634 
60 -0.684138 
61 -114.868 
62 132.029 
63 5.39282 
64 -107.71 
65 119.577 
66 130.014 
67 16.9112 
68 -115.802 
69 -140.833 
70 92.7752 
71 -22.6778 
72 149.242 
73 26.1018 
74 -89.3385 
75 113.929 
76 -123.614 
77 -3.75772 
78 -66.8896 
79 176.783 
80 61.5888 
81 144.134 
82 -93.126 
83 28.8078 
84 65.4387 
85 -58.2492 
86 -173.495 
87 65.1945 
88 -50.051 
89 -171.118 
90 176.445 
91 61.1999 
92 -59.8668 
93 -153.952 
94 80.1726 
95 -31.5104 
96 -153.126 
97 95.1913 
98 -27.2508 
99 -35.5147 
100 -147.198 
101 90.3603 
102 -178.043 
103 64.0321 
104 -60.5269 
105 80.9195 
106 -39.1942 
107 -154.302 
108 75.7098 
109 -39.3976 
110 -164.176 
111 -158.145 
112 86.7476 
113 -38.0312 
114 60.3056 
115 172.12 
116 -58.9016 
ITEM: TIMESTEP
29800
ITEM: NUMBER OF ENTRIES
116
ITEM: BOX BOUNDS pp pp pp
-2.1659880786948438e+01 2.1659880786948438e+01
-1.1125721167720103e+01 1.1125721167720103e+01
-1.1125721167720103e+01 1.1125721167720103e+01
ITEM: ENTRIES index c_dphi
1 -120.304 
2 -8.94096 
3 113.948 
4 -65.6599 
5 -179.79 
6 63.6911 
7 -170.784 
8 60.2602 
9 -65.231 
10 -70.2794 
11 41.0268 
12 130.818 
13 14.136 
14 -99.4221 
15 140.897 
16 27.3393 
17 -102.42 
18 -102.233 
19 144.209 
20 14.4497 
21 -65.2188 
22 168.055 
23 44.7338 
24 -64.7732 
25 171.906 
26 61.9531 
27 54.6256 
28 -68.6954 
29 -178.648 
30 -129.057 
31 0.307822 
32 117.499 
33 145.127 
34 -98.6226 
35 19.8733 
36 11.6935 
37 -105.863 
38 123.052 
39 5.49597 
40 -121.341 
41 121.103 
42 -84.1004 
43 152.823 
44 30.168 
45 -104.156 
46 -105.529 
47 137.127 
48 15.8566 
49 10.8712 
50 -106.472 
51 132.257 
52 134.458 
53 17.1144 
54 -98.0112 
55 144.472 
56 21.8879 
57 153.201 
58 -75.8372 
59 42.1586 
60 -6.59662 
61 -139.592 
62 108.932 
63 -13.4656 
64 -124.941 
65 119.53 
66 97.3167 
67 -14.1585 
68 -129.688 
69 -169.777 
70 67.5512 
71 -48.8716 
72 142.387 
73 24.8988 
74 -97.251 
75 112.454 
76 -127.995 
77 -6.88787 
78 -53.9925 
79 -176.948 
80 64.8476 
81 150.147 
82 -90.7324 
83 28.6629 
84 101.475 
85 -20.3889 
86 -140.428 
87 99.7102 
88 -20.3288 
89 -138.426 
90 -130.904 
91 109.057 
92 -9.04046 
93 -159.481 
94 83.5123 
95 -34.2241 
96 -160.723 
97 81.5405 
98 -43.7162 
99 -32.8982 
100 -150.635 
101 84.1088 
102 175.072 
103 52.9988 
104 -71.5351 
105 64.2273 
106 -54.3966 
107 179.756 
108 62.4155 
109 -63.4321 
110 -178.961 
111 -166.825 
112 67.3279 
113 -48.2007 
114 44.5505 
115 159.407 
116 -65.6692 
ITEM: TIMESTEP
29900
ITEM: NUMBER OF ENTRIES
116
ITEM: BOX BOUNDS pp pp pp
-2.1659880786948438e+01 2.1659880786948438e+01
-1.1125721167720103e+01 1.1125721167720103e+01
-1.1125721167720103e+01 1.1125721167720103e+01
ITEM: ENTRIES index c_dphi
1 -137.273 
2 -15.0954 
3 112.405 
4 -71.7225 
5 170.411 
6 51.1204 
7 170.179 
8 48.7937 
9 -66.4232 
10 -60.0596 
11 63.4637 
12 158.1 
13 31.1728 
14 -89.3511 
15 151.973 
16 31.4488 
17 -81.1 
18 -95.3635 
19 144.113 
20 31.5638 
21 -92.7545 
22 136.205 
23 20.064 
24 -100.26 
25 143.599 
26 30.7808 
27 17.5695 
28 -98.5714 
29 148.61 
30 -122.593 
31 -3.30877 
32 118.51 
33 101.475 
34 -142.714 
35 -20.7521 
36 17.2757 
37 -100.245 
38 136.155 
39 18.6336 
40 -98.2884 
41 144.19 
42 -65.0909 
43 178.171 
44 58.9665 
45 -106.945 
46 -97.7013 
47 138.937 
48 18.4648 
49 13.403 
50 -109.959 
51 129.569 
52 136.889 
53 13.5276 
54 -71.1643 
55 162.57 
56 48.4319 
57 157.036 
58 -72.104 
59 51.7293 
60 -34.8494 
61 -167.662 
62 74.9944 
63 -49.5866 
64 -166.93 
65 83.2264 
66 69.4579 
67 -47.8854 
68 -157.729 
69 -160.299 
70 85.7907 
71 -40.1625 
72 -178.967 
73 58.801 
74 -56.6063 
75 78.4309 
76 -159.414 
77 -46.3837 
78 -83.2539 
79 151.999 
80 42.8576 
81 160.806 
82 -76.5986 
83 34.1833 
84 81.392 
85 -33.379 
86 -150.415 
87 88.431 
88 -28.6053 
89 -156.798 
90 -152.441 
91 90.5224 
92 -37.6702 
93 -147.999 
94 88.0631 
95 -20.2993 
96 -152.208 
97 99.4294 
98 -28.27 
99 -38.018 
100 -146.38 
101 85.9203 
102 -165.17 
103 72.7878 
104 -43.28 
105 69.5428 
106 -54.5447 
107 -167.146 
108 70.2716 
109 -42.3297 
110 -165.641 
111 -176.093 
112 71.3061 
113 -52.0052 
114 31.1008 
115 154.028 
116 -92.7209 
ITEM: TIMESTEP
30000
ITEM: NUMBER OF ENTRIES
116
ITEM: BOX BOUNDS pp pp pp
-2.1659880786948438e+01 2.1659880786948438e+01
-1.1125721167720103e+01 1.1125721167720103e+01
-1.1125721167720103e+01 1.1125721167720103e+01
ITEM: ENTRIES index c_dphi
1 -107.597 
2 21.983 
3 144.26 
4 -69.2625 
5 159.833 
6 45.8783 
7 135.866 
8 19.0315 
9 -98.34 
10 -43.2274 
11 76.0991 
12 -177.711 
13 47.6192 
14 -71.6409 
15 169.77 
16 50.51 
17 -55.5603 
18 -81.4879 
19 159.252 
20 53.1817 
21 -113.356 
22 130.545 
23 14.7159 
24 -113.949 
25 130.222 
26 2.15037 
27 12.8071 
28 -103.022 
29 128.906 
30 -117.32 
31 5.48573 
32 116.821 
33 100.558 
34 -136.765 
35 -23.0179 
36 56.2176 
37 -61.1059 
38 -176.122 
39 66.554 
40 -56.3155 
41 -173.639 
42 -109.339 
43 133.952 
44 14.6065 
45 -85.5333 
46 -81.4402 
47 162.05 
48 36.5465 
49 35.0608 
50 -81.4493 
51 153.048 
52 156.48 
53 39.9698 
54 -85.6805 
55 155.918 
56 34.1681 
57 166.359 
58 -77.1848 
59 44.4622 
60 -40.7997 
61 -158.308 
62 83.7508 
63 -40.7528 
64 -158.694 
65 76.7554 
66 77.779 
67 -40.1623 
68 -164.713 
69 -150.477 
70 91.2787 
71 -35.6246 
72 170.401 
73 49.9601 
74 -73.7862 
75 113.025 
76 -126.602 
77 -1.87552 
78 9.23902 
79 -112.332 
80 127.864 
81 165.509 
82 -68.918 
83 45.2852 
84 49.76 
85 -70.1318 
86 176.349 
87 46.8588 
88 -66.6602 
89 166.751 
90 174.28 
91 60.7608 
92 -65.8283 
93 -142.177 
94 92.3976 
95 -22.4919 
96 -141.938 
97 103.173 
98 -16.5121 
99 -22.3334 
100 -137.223 
101 103.092 
102 -167.211 
103 66.1242 
104 -47.6668 
105 59.7672 
106 -62.9906 
107 -177.447 
108 65.7132 
109 -48.743 
110 -171.529 
111 175.754 
112 61.2982 
113 -61.4879 
114 81.7477 
115 -158.489 
116 -42.7806 
ITEM: TIMESTEP
30100
ITEM: NUMBER OF ENTRIES
116
ITEM: BOX BOUNDS pp pp pp
-2.1659880786948438e+01 2.1659880786948438e+01
-1.1125721167720103e+01 1.1125721167720103e+01
-1.1125721167720103e+01 1.1125721167720103e+01
ITEM: ENTRIES index c_dphi
1 169.823 
2 49.461 
3 -71.5148 
4 177.617 
5 56.6411 
6 -62.0207 
7 -71.4677 
8 167.557 
9 48.8948 
10 -145.409 
11 91.8248 
12 -25.7054 
13 -100.141 
14 139.034 
15 20.4331 
16 150.636 
17 18.4715 
18 -104.302 
19 -31.5997 
20 95.4343 
21 67.6733 
22 -59.7307 
23 -169.354 
24 63.2417 
25 -53.2665 
26 179.329 
27 -86.1628 
28 30.0076 
29 150.388 
30 -100.845 
31 134.341 
32 15.3755 
33 -91.6931 
34 149.341 
35 33.1207 
36 15.9978 
37 -102.968 
38 140.812 
39 -151.145 
40 -31.3226 
41 88.41 
42 85.4866 
43 -155.745 
44 -44.7578 
45 -57.7837 
46 -53.7543 
47 -163.177 
48 65.809 
49 58.4793 
50 -50.9432 
51 178.043 
52 -177.347 
53 73.2305 
54 -120.174 
55 119.49 
56 2.39699 
57 -179.53 
58 -63.8538 
59 55.194 
60 -53.0397 
61 -167.527 
62 71.2097 
63 -39.7969 
64 -161.06 
65 74.6902 
66 73.635 
67 -47.6284 
68 -171.878 
69 -135.206 
70 100.601 
71 -11.5346 
72 -169.241 
73 70.7304 
74 -50.791 
75 137.751 
76 -107.096 
77 20.1103 
78 -6.92148 
79 -125.048 
80 99.5598 
81 138.051 
82 -93.0296 
83 24.1485 
84 75.0836 
85 -56.0957 
86 -168.228 
87 60.2342 
88 -51.8985 
89 -168.586 
90 -169.898 
91 77.9695 
92 -38.7185 
93 -131.275 
94 111.671 
95 -9.04933 
96 -127.269 
97 112.011 
98 -10.2152 
99 -4.39819 
100 -125.118 
101 112.656 
102 166.238 
103 49.3125 
104 -74.7094 
105 68.9072 
106 -52.4332 
107 -167.107 
108 57.6918 
109 -56.982 
110 179.032 
111 -171.736 
112 73.5903 
113 -50.3955 
114 43.4782 
115 162.774 
116 -76.9139 
ITEM: TIMESTEP
30200
ITEM: NUMBER OF ENTRIES
116
ITEM: BOX BOUNDS pp pp pp
-2.1659880786948438e+01 2.1659880786948438e+01
-1.1125721167720103e+01 1.1125721167720103e+01
-1.1125721167720103e+01 1.1125721167720103e+01
ITEM: ENTRIES index c_dphi
1 159.577 
2 38.9199 
3 -68.317 
4 168.682 
5 61.4455 
6 -70.6603 
7 -79.6135 
8 173.15 
9 41.0438 
10 -140.708 
11 99.4097 
12 -23.782 
13 -122.3 
14 123.106 
15 6.52027 
16 155.481 
17 41.2603 
18 -85.8224 
19 -20.9331 
20 95.5436 
21 64.5486 
22 -55.548 
23 174.745 
24 54.6483 
25 -62.5349 
26 177.369 
27 -76.384 
28 45.3159 
29 151.817 
30 -80.0207 
31 159.247 
32 31.702 
33 -81.0445 
34 151.411 
35 39.6881 
36 39.6384 
37 -87.9061 
38 160.371 
39 -178.948 
40 -51.0005 
41 71.7239 
42 110.755 
43 -125.999 
44 -11.7037 
45 -86.9228 
46 -79.881 
47 161.267 
48 39.6555 
49 32.3126 
50 -86.5393 
51 151.849 
52 153.541 
53 34.6889 
54 -74.4267 
55 157.993 
56 43.6948 
57 -143.654 
58 -19.0379 
59 89.9696 
60 -43.0936 
61 -167.558 
62 76.6468 
63 -48.0505 
64 -163.846 
65 76.4135 
66 73.5732 
67 -42.2223 
68 -161.963 
69 -141.705 
70 91.3618 
71 -18.1401 
72 159.55 
73 46.7468 
74 -80.9435 
75 156.259 
76 -81.3516 
77 37.686 
78 -54.2455 
79 172.015 
80 57.7671 
81 155.285 
82 -92.0162 
83 34.0011 
84 1.70513 
85 -116.048 
86 125.213 
87 19.5041 
88 -99.2347 
89 137.257 
90 133.242 
91 14.5027 
92 -109.005 
93 -165.119 
94 75.0663 
95 -41.7802 
96 -166.599 
97 76.5547 
98 -46.7837 
99 -50.105 
100 -166.951 
101 69.7101 
102 177.144 
103 49.9404 
104 -66.9301 
105 61.2556 
106 -56.3768 
107 -174.905 
108 67.3231 
109 -51.2055 
110 -175.045 
111 -174.233 
112 67.238 
113 -56.601 
114 28.1296 
115 150.891 
116 -96.5874 
ITEM: TIMESTEP
30300
ITEM: NUMBER OF ENTRIES
116
ITEM: BOX BOUNDS pp pp pp
-2.1659880786948438e+01 2.1659880786948438e+01
-1.1125721167720103e+01 1.1125721167720103e+01
-1.1125721167720103e+01 1.1125721167720103e+01
ITEM: ENTRIES index c_dphi
1 158.591 
2 40.015 
3 -80.036 
4 165.331 
5 45.2795 
6 -76.0934 
7 -73.4307 
8 166.518 
9 45.1453 
10 -158.761 
11 80.392 
12 -38.7423 
13 -121.629 
14 119.286 
15 3.17109 
16 -178.011 
17 67.9595 
18 -56.4748 
19 -24.541 
20 98.6801 
21 31.3638 
22 -88.8181 
23 147.91 
24 27.728 
25 -92.1213 
26 147.697 
27 -66.2878 
28 50.2199 
29 173.552 
30 -63.4848 
31 -177.179 
32 59.616 
33 -56.9352 
34 179.86 
35 56.7594 
36 61.692 
37 -61.5126 
38 175.387 
39 -164.534 
40 -52.4853 
41 70.2819 
42 113.56 
43 -125.126 
44 -6.67242 
45 -69.0608 
46 -68.4976 
47 177.042 
48 55.7646 
49 40.4511 
50 -74.0097 
51 164.713 
52 166.677 
53 52.2161 
54 -87.6994 
55 145.603 
56 36.2847 
57 -145.521 
58 -27.9102 
59 95.5863 
60 -47.2103 
61 -164.62 
62 76.1725 
63 -41.6169 
64 -160.825 
65 75.7926 
66 69.2458 
67 -49.9619 
68 -173.345 
69 -159.544 
70 80.671 
71 -34.2265 
72 141.389 
73 23.1005 
74 -102.762 
75 -176.079 
76 -56.8087 
77 71.4082 
78 30.1372 
79 -108.464 
80 144.089 
81 177.919 
82 -63.3106 
83 63.2904 
84 -38.6962 
85 -160.284 
86 82.5986 
87 -22.6959 
88 -139.813 
89 98.892 
90 92.5635 
91 -24.5537 
92 -145.849 
93 -150.314 
94 89.9267 
95 -35.5846 
96 -151.628 
97 82.8603 
98 -31.8688 
99 -28.4715 
100 -153.983 
101 91.288 
102 167.03 
103 39.4796 
104 -69.2303 
105 65.1191 
106 -58.2673 
107 -174.679 
108 71.1939 
109 -45.2182 
110 -165.42 
111 179.7 
112 63.2876 
113 -56.9139 
114 -72.1916 
115 49.1111 
116 167.813 
ITEM: TIMESTEP
30400
ITEM: NUMBER OF ENTRIES
116
ITEM: BOX BOUNDS pp pp pp
-2.1659880786948438e+01 2.1659880786948438e+01
-1.1125721167720103e+01 1.1125721167720103e+01
-1.1125721167720103e+01 1.1125721167720103e+01
ITEM: ENTRIES index c_dphi
1 162.633 
2 35.9136 
3 -86.4114 
4 154.83 
5 32.5048 
6 -78.4507 
7 -82.4695 
8 155.205 
9 44.25 
10 -149.893 
11 96.8312 
12 -28.4096 
13 -92.7861 
14 145.112 
15 26.2113 
16 175.636 
17 43.9991 
18 -69.8118 
19 -57.4342 
20 65.3208 
21 18.4085 
22 -95.735 
23 142.153 
24 28.0092 
25 -104.981 
26 140.876 
27 -80.5984 
28 41.8821 
29 163.404 
30 -23.3264 
31 -141.645 
32 102.771 
33 -17.0675 
34 -132.652 
35 101.251 
36 99.6012 
37 -15.9833 
38 -142.08 
39 -142.598 
40 -28.3307 
41 91.6103 
42 125.453 
43 -119.825 
44 -9.49979 
45 -86.8444 
46 -77.3421 
47 168.853 
48 35.8024 
49 39.2774 
50 -74.5274 
51 152.422 
52 160.011 
53 46.2063 
54 -61.115 
55 173.999 
56 61.4371 
57 -159.279 
58 -44.1927 
59 78.447 
60 -38.9101 
61 -152.518 
62 85.1865 
63 -27.8954 
64 -150.191 
65 85.7125 
66 92.7615 
67 -29.5339 
68 -153.631 
69 166.003 
70 44.1437 
71 -81.1527 
72 84.9946 
73 -41.5198 
74 -153.851 
75 -163.241 
76 -42.1062 
77 77.9925 
78 -22.0416 
79 -145.098 
80 92.5541 
81 -158.428 
82 -32.9283 
83 91.3506 
84 -54.3038 
85 -178.282 
86 65.3858 
87 -58.6367 
88 -174.968 
89 65.3419 
90 72.0937 
91 -44.238 
92 -163.928 
93 -166.829 
94 71.2717 
95 -53.636 
96 -163.354 
97 71.7381 
98 -41.4548 
99 -47.0533 
100 -171.961 
101 74.846 
102 -154.862 
103 85.7646 
104 -32.3969 
105 43.5895 
106 -81.4461 
107 162.619 
108 37.2651 
109 -78.6701 
110 162.301 
111 153.89 
112 37.9549 
113 -81.0743 
114 74.6819 
115 -165.506 
116 -47.4242 
ITEM: TIMESTEP
30500
ITEM: NUMBER OF ENTRIES
116
ITEM: BOX BOUNDS pp pp pp
-2.1659880786948438e+01 2.1659880786948438e+01
-1.1125721167720103e+01 1.1125721167720103e+01
-1.1125721167720103e+01 1.1125721167720103e+01
ITEM: ENTRIES index c_dphi
1 146.336 
2 20.4665 
3 -94.0388 
4 146.266 
5 31.7609 
6 -87.8645 
7 -94.6563 
8 150.838 
9 31.213 
10 -153.964 
11 92.1181 
12 -39.7547 
13 -84.6446 
14 161.931 
15 37.2706 
16 153.421 
17 35.7862 
18 -88.1727 
19 -57.4155 
20 65.0777 
21 67.2967 
22 -57.0719 
23 -177.539 
24 58.0924 
25 -61.063 
26 174.568 
27 -90.2876 
28 40.1841 
29 152.928 
30 -58.2327 
31 174.65 
32 59.8693 
33 -59.5632 
34 -174.344 
35 67.5543 
36 58.2694 
37 -56.5111 
38 -174.613 
39 -161.433 
40 -34.8437 
41 77.3706 
42 119.792 
43 -119.908 
44 -11.0717 
45 -76.9115 
46 -75.9187 
47 171.775 
48 42.4153 
49 41.959 
50 -70.3472 
51 160.293 
52 164.754 
53 52.4482 
54 -66.5816 
55 172.843 
56 64.2385 
57 -163.308 
58 -40.1184 
59 80.7596 
60 -31.9525 
61 -152.505 
62 86.4774 
63 -35.7719 
64 -156.789 
65 84.7811 
66 88.8373 
67 -32.1798 
68 -150.61 
69 -158.386 
70 88.7843 
71 -35.6131 
72 106.391 
73 -13.9129 
74 -135.506 
75 -164.111 
76 -42.4511 
77 77.8599 
78 67.1577 
79 -55.3064 
80 178.3 
81 -125.106 
82 -5.51669 
83 114.929 
84 -67.9978 
85 172.168 
86 53.3826 
87 -60.5093 
88 -179.295 
89 59.3249 
90 52.1832 
91 -66.6022 
92 172.017 
93 -153.43 
94 90.3199 
95 -38.8022 
96 -141.059 
97 89.8191 
98 -24.8089 
99 -21.2209 
100 -150.343 
101 95.029 
102 175.554 
103 57.2723 
104 -67.4322 
105 72.6788 
106 -55.7563 
107 -173.063 
108 61.1531 
109 -56.1534 
110 -170.412 
111 -168.183 
112 74.5105 
113 -39.7478 
114 -92.4304 
115 31.0452 
116 148.439 
ITEM: TIMESTEP
30600
ITEM: NUMBER OF ENTRIES
116
ITEM: BOX BOUNDS pp pp pp
-2.1659880786948438e+01 2.1659880786948438e+01
-1.1125721167720103e+01 1.1125721167720103e+01
-1.1125721167720103e+01 1.1125721167720103e+01
ITEM: ENTRIES index c_dphi
1 140.312 
2 12.7766 
3 -97.4344 
4 134.164 
5 23.9534 
6 -98.3007 
7 -104.093 
8 145.696 
9 23.4417 
10 -167.887 
11 74.5921 
12 -47.3332 
13 -111.802 
14 135.04 
15 12.4605 
16 167.408 
17 42.449 
18 -69.2458 
19 -38.874 
20 90.2718 
21 73.1989 
22 -55.9747 
23 -177.277 
24 53.5493 
25 -53.8484 
26 176.978 
27 -73.5788 
28 46.7868 
29 162.61 
30 -49.0717 
31 -175.027 
32 75.9157 
33 -49.0945 
34 -158.151 
35 76.861 
36 62.0573 
37 -46.9997 
38 -171.987 
39 -150.847 
40 -31.0355 
41 99.4332 
42 88.516 
43 -138.084 
44 -31.5589 
45 -54.7556 
46 -69.7469 
47 178.956 
48 60.6752 
49 50.1603 
50 -61.1365 
51 -179.418 
52 174.822 
53 63.5255 
54 -82.9611 
55 160.496 
56 47.3298 
57 -174.62 
58 -48.948 
59 70.2837 
60 -26.5208 
61 -149.149 
62 93.453 
63 -30.4204 
64 -147.819 
65 92.2075 
66 81.8261 
67 -35.5722 
68 -155.546 
69 174.706 
70 50.2996 
71 -62.4834 
72 97.516 
73 -34.8824 
74 -150.8 
75 172.161 
76 -66.7832 
77 56.2523 
78 57.5204 
79 -66.4177 
80 176.015 
81 -94.1082 
82 28.0138 
83 138.068 
84 -75.3498 
85 163.285 
86 48.2974 
87 -66.1166 
88 178.896 
89 55.2485 
90 41.1104 
91 -73.8772 
92 162.476 
93 -153.668 
94 94.651 
95 -35.3721 
96 -136.284 
97 93.6931 
98 -24.6033 
99 -15.8333 
100 -145.856 
101 95.8473 
102 159.27 
103 41.1925 
104 -84.2708 
105 82.0432 
106 -30.8659 
107 -154.025 
108 92.9948 
109 -30.1643 
110 -154.096 
111 -144.699 
112 92.1422 
113 -31.7896 
114 -148.005 
115 -36.2336 
116 88.4412 
ITEM: TIMESTEP
30700
ITEM: NUMBER OF ENTRIES
116
ITEM: BOX BOUNDS pp pp pp
-2.1659880786948438e+01 2.1659880786948438e+01
-1.1125721167720103e+01 1.1125721167720103e+01
-1.1125721167720103e+01 1.1125721167720103e+01
ITEM: ENTRIES index c_dphi
1 125.302 
2 6.05816 
3 -111.383 
4 132.024 
5 14.5832 
6 -108.732 
7 -109.711 
8 132.848 
9 9.53274 
10 -171.985 
11 65.8274 
12 -50.5293 
13 -102.254 
14 137.602 
15 20.1622 
16 175.967 
17 61.5679 
18 -61.0006 
19 -14.95 
20 116.584 
21 76.2047 
22 -47.2853 
23 -163.111 
24 73.3987 
25 -46.1697 
26 -169.66 
27 -81.3277 
28 33.0891 
29 159.211 
30 -64.8158 
31 171.505 
32 60.1483 
33 -69.6 
34 179.043 
35 54.0793 
36 45.3603 
37 -65.9964 
38 169.04 
39 -133.029 
40 -20.5504 
41 102.462 
42 105.146 
43 -144.856 
44 -27.2476 
45 -67.0375 
46 -59.2744 
47 -176.433 
48 56.6628 
49 53.6889 
50 -63.4697 
51 169.626 
52 177.025 
53 59.8668 
54 -76.5743 
55 153.025 
56 47.7469 
57 -169.443 
58 -37.8431 
59 71.7041 
60 -45.7483 
61 -175.575 
62 75.5559 
63 -53.8281 
64 -162.697 
65 75.9985 
66 58.6873 
67 -50.1819 
68 -171.486 
69 161.188 
70 48.5105 
71 -78.3306 
72 86.864 
73 -28.2356 
74 -147.167 
75 -176.439 
76 -58.9278 
77 59.4253 
78 38.0475 
79 -85.0052 
80 166.527 
81 -127.48 
82 -0.847421 
83 110.024 
84 -33.549 
85 -156.652 
86 86.266 
87 -30.5796 
88 -147.662 
89 92.5229 
90 77.2396 
91 -39.8429 
92 -159.658 
93 -147.085 
94 98.2927 
95 -25.4577 
96 -148.054 
97 88.1953 
98 -33.4318 
99 -27.0563 
100 -150.807 
101 87.5663 
102 162.542 
103 41.051 
104 -75.1457 
105 49.1242 
106 -70.2027 
107 170.181 
108 55.0968 
109 -64.5195 
110 174.424 
111 163.734 
112 44.1179 
113 -76.939 
114 97.3413 
115 -142.274 
116 -20.4372 
ITEM: TIMESTEP
30800
ITEM: NUMBER OF ENTRIES
116
ITEM: BOX BOUNDS pp pp pp
-2.1659880786948438e+01 2.1659880786948438e+01
-1.1125721167720103e+01 1.1125721167720103e+01
-1.1125721167720103e+01 1.1125721167720103e+01
ITEM: ENTRIES index c_dphi
1 112.778 
2 -13.671 
3 -134.605 
4 116.856 
5 -4.0786 
6 -116.695 
7 -135.255 
8 103.81 
9 -8.80572 
10 176.271 
11 58.3835 
12 -62.3622 
13 -85.1511 
14 150.574 
15 32.0841 
16 -165.024 
17 84.4701 
18 -35.382 
19 -25.8845 
20 98.415 
21 51.7758 
22 -73.1577 
23 178.296 
24 53.3626 
25 -66.1076 
26 168.959 
27 -95.5313 
28 31.6821 
29 150.577 
30 -56.7717 
31 -175.988 
32 60.5456 
33 -68.1565 
34 168.377 
35 51.0594 
36 45.3983 
37 -78.0684 
38 164.614 
39 -110.455 
40 18.1577 
41 131.254 
42 140.247 
43 -101.085 
44 15.601 
45 -48.7104 
46 -45.1331 
47 -158.681 
48 72.83 
49 79.2026 
50 -34.3449 
51 -162.834 
52 -166.674 
53 79.7789 
54 -88.9185 
55 144.96 
56 30.8933 
57 -146.741 
58 -37.7809 
59 85.7512 
60 -102.794 
61 135.701 
62 21.6481 
63 -111.065 
64 134.882 
65 10.4404 
66 11.8924 
67 -102.161 
68 133.397 
69 172.502 
70 64.3437 
71 -65.3538 
72 116.904 
73 6.51889 
74 -108.584 
75 -147.325 
76 -28.2155 
77 91.3347 
78 32.8823 
79 -79.7337 
80 160.268 
81 -119.861 
82 10.05 
83 121.176 
84 -77.0484 
85 154.036 
86 42.5267 
87 -92.466 
88 156.025 
89 36.4495 
90 26.518 
91 -84.9913 
92 155.434 
93 -140.463 
94 95.9631 
95 -24.9147 
96 -151.131 
97 87.9915 
98 -27.5572 
99 -39.9774 
100 -160.855 
101 83.5961 
102 127.25 
103 4.45379 
104 -112.994 
105 64.9512 
106 -65.2756 
107 -174.545 
108 53.5225 
109 -55.7464 
110 -176.251 
111 175.279 
112 66.0102 
113 -54.494 
114 35.6114 
115 168.516 
116 -81.8001 
ITEM: TIMESTEP
30900
ITEM: NUMBER OF ENTRIES
116
ITEM: BOX BOUNDS pp pp pp
-2.1659880786948438e+01 2.1659880786948438e+01
-1.1125721167720103e+01 1.1125721167720103e+01
-1.1125721167720103e+01 1.1125721167720103e+01
ITEM: ENTRIES index c_dphi
1 118.171 
2 -7.69242 
3 -117.663 
4 115.972 
5 6.00131 
6 -118.164 
7 -129.303 
8 120.726 
9 -3.43947 
10 165.286 
11 44.6854 
12 -72.6729 
13 -89.998 
14 152.656 
15 38.9883 
16 -169.884 
17 65.8981 
18 -57.9043 
19 -5.75453 
20 116.221 
21 43.5006 
22 -78.1447 
23 150.819 
24 29.1738 
25 -83.2552 
26 155.099 
27 -93.3335 
28 24.1089 
29 141.139 
30 -75.8117 
31 164.655 
32 42.5111 
33 -68.3607 
34 169.495 
35 51.1725 
36 48.2649 
37 -73.8791 
38 167.798 
39 -77.3172 
40 43.4098 
41 158.877 
42 165.534 
43 -68.7591 
44 40.0303 
45 -69.022 
46 -64.787 
47 174.68 
48 52.9217 
49 53.9156 
50 -66.6174 
51 171.624 
52 173.269 
53 52.7363 
54 -35.2076 
55 -157.724 
56 87.7051 
57 -165.929 
58 -51.8562 
59 73.9578 
60 -118.374 
61 117.823 
62 -2.73018 
63 -122.597 
64 116.85 
65 1.20624 
66 -11.2983 
67 -131.852 
68 112.505 
69 176.304 
70 64.7244 
71 -68.2297 
72 125.285 
73 -1.00576 
74 -120.649 
75 -158.397 
76 -39.4108 
77 79.9833 
78 18.5392 
79 -98.292 
80 135.301 
81 -167.207 
82 -53.3626 
83 68.4208 
84 -90.8185 
85 152.505 
86 37.0174 
87 -85.972 
88 158.54 
89 30.7045 
90 25.8335 
91 -89.6542 
92 142.51 
93 -127.504 
94 112.905 
95 -8.51168 
96 -121.858 
97 116.726 
98 -2.26657 
99 -4.40009 
100 -125.817 
101 115.191 
102 94.1057 
103 -26.552 
104 -145.498 
105 86.2549 
106 -47.1983 
107 -158.128 
108 71.7773 
109 -39.152 
110 -154.77 
111 -162.627 
112 86.4435 
113 -29.1741 
114 63.258 
115 -162.994 
116 -51.9053 
ITEM: TIMESTEP
31000
ITEM: NUMBER OF ENTRIES
116
ITEM: BOX BOUNDS pp pp pp
-2.1659880786948438e+01 2.1659880786948438e+01
-1.1125721167720103e+01 1.1125721167720103e+01
-1.1125721167720103e+01 1.1125721167720103e+01
ITEM: ENTRIES index c_dphi
1 124.366 
2 4.74967 
3 -113.749 
4 127.944 
5 9.44544 
6 -112.44 
7 -119.05 
8 122.451 
9 0.565969 
10 127.045 
11 9.53969 
12 -111.251 
13 -92.1112 
14 150.193 
15 33.0954 
16 174.469 
17 55.3466 
18 -61.3529 
19 -30.2174 
20 85.7765 
21 32.7681 
22 -84.9321 
23 148.143 
24 30.443 
25 -94.8524 
26 147.447 
27 -67.0669 
28 52.127 
29 174.778 
30 -55.5221 
31 176.026 
32 60.1987 
33 -59.0412 
34 -174.869 
35 69.4104 
36 53.0217 
37 -62.8058 
38 -178.527 
39 -97.5199 
40 30.8712 
41 155.479 
42 149.988 
43 -81.9332 
44 33.9416 
45 -38.9298 
46 -44.7332 
47 -158.685 
48 78.4288 
49 81.0695 
50 -32.8822 
51 -155.769 
52 -162.092 
53 83.9564 
54 -101.355 
55 133.61 
56 18.0047 
57 171.402 
58 -68.6292 
59 53.201 
60 -80.7106 
61 149.646 
62 37.4657 
63 -81.0594 
64 166.761 
65 48.5843 
66 27.226 
67 -84.9539 
68 156.87 
69 -156.945 
70 81.3166 
71 -42.616 
72 134.608 
73 0.0660686 
74 -115.969 
75 169.835 
76 -72.0433 
77 44.2356 
78 21.1032 
79 -97.7644 
80 136.021 
81 -167.663 
82 -50.4458 
83 75.4746 
84 -35.5992 
85 -148.773 
86 79.3485 
87 -35.672 
88 -167.551 
89 77.5017 
90 94.3083 
91 -37.5702 
92 -152.518 
93 -123.158 
94 125.331 
95 1.21878 
96 -96.9846 
97 138.904 
98 14.5269 
99 14.1991 
100 -109.913 
101 125.711 
102 89.6516 
103 -37.803 
104 -151.328 
105 58.8428 
106 -66.0249 
107 172.112 
108 62.7644 
109 -59.099 
110 -172.368 
111 176.19 
112 54.3262 
113 -58.9427 
114 101.007 
115 -134.984 
116 -13.7281 
ITEM: TIMESTEP
31100
ITEM: NUMBER OF ENTRIES
116
ITEM: BOX BOUNDS pp pp pp
-2.1659880786948438e+01 2.1659880786948438e+01
-1.1125721167720103e+01 1.1125721167720103e+01
-1.1125721167720103e+01 1.1125721167720103e+01
ITEM: ENTRIES index c_dphi
1 -93.8464 
2 24.365 
3 155.386 
4 -68.0532 
5 173.526 
6 54.3008 
7 -166.476 
8 77.5915 
9 -52.2934 
10 -34.9133 
11 80.9719 
12 1.55626 
13 -118.444 
14 131.267 
15 11.2668 
16 -119.45 
17 120.55 
18 -67.8538 
19 160.03 
20 48.9024 
21 -81.5612 
22 167.311 
23 50.5551 
24 39.8556 
25 -71.272 
26 171.972 
27 144.516 
28 23.7682 
29 -96.3266 
30 142.571 
31 22.4757 
32 -96.6813 
33 -102.931 
34 136.974 
35 17.817 
36 135.893 
37 23.5724 
38 -99.0842 
39 -94.5359 
40 33.2858 
41 152.14 
42 177.733 
43 -69.8405 
44 50.7008 
45 -63.1104 
46 -51.7381 
47 175.333 
48 57.2178 
49 67.6334 
50 -65.2957 
51 176.589 
52 -172.066 
53 55.0046 
54 -65.9052 
55 167.751 
56 55.3079 
57 172.361 
58 -65.6682 
59 54.4855 
60 -65.5834 
61 165.265 
62 50.1481 
63 -67.3759 
64 177.508 
65 61.7762 
66 50.5993 
67 -64.5171 
68 179.751 
69 -157.194 
70 78.7059 
71 -43.1192 
72 132.739 
73 7.2772 
74 -111.343 
75 168.427 
76 -67.6321 
77 45.8563 
78 66.0449 
79 -61.9664 
80 -176.182 
81 164.915 
82 -79.638 
83 46.1535 
84 -56.2773 
85 -173.725 
86 66.8841 
87 -50.9891 
88 -170.38 
89 66.4587 
90 72.9829 
91 -46.4078 
92 -169.569 
93 -119.947 
94 119.248 
95 2.27072 
96 -118.709 
97 124.314 
98 2.09608 
99 7.06 
100 -109.918 
101 127.865 
102 105.505 
103 -8.82556 
104 -131.14 
105 70.6324 
106 -51.6714 
107 -177.018 
108 70.6074 
109 -54.7389 
110 -167.089 
111 -174.344 
112 60.3097 
113 -52.0402 
114 128.825 
115 -110.814 
116 16.2655 
ITEM: TIMESTEP
31200
ITEM: NUMBER OF ENTRIES
116
ITEM: BOX BOUNDS pp pp pp
-2.1659880786948438e+01 2.1659880786948438e+01
-1.1125721167720103e+01 1.1125721167720103e+01
-1.1125721167720103e+01 1.1125721167720103e+01
ITEM: ENTRIES index c_dphi
1 -91.5724 
2 24.8175 
3 149.414 
4 -89.2972 
5 151.827 
6 31.7814 
7 -160.291 
8 83.222 
9 -38.269 
10 3.49216 
11 122.387 
12 16.4834 
13 -101.97 
14 138.546 
15 20.0932 
16 -101.333 
17 140.214 
18 -82.7158 
19 157.006 
20 35.5227 
21 -87.1046 
22 151.412 
23 33.1735 
24 31.266 
25 -90.2174 
26 151.544 
27 133.203 
28 6.75322 
29 -99.3306 
30 126.48 
31 20.3962 
32 -107.071 
33 -122.319 
34 131.598 
35 4.1308 
36 131.671 
37 15.3693 
38 -106.489 
39 -122.78 
40 -12.6745 
41 116.526 
42 177.644 
43 -57.1246 
44 56.6362 
45 -53.6037 
46 -56.3018 
47 -177.106 
48 65.1288 
49 66.2993 
50 -54.5051 
51 -172.27 
52 -175.034 
53 64.1613 
54 -91.6333 
55 154.048 
56 27.6958 
57 177.546 
58 -65.6737 
59 58.6795 
60 -64.5116 
61 174.495 
62 58.429 
63 -74.7072 
64 169.227 
65 46.2861 
66 49.5945 
67 -66.4716 
68 170.588 
69 -173.238 
70 70.0623 
71 -50.395 
72 141.011 
73 23.4993 
74 -92.0766 
75 177.809 
76 -63.8825 
77 48.4464 
78 -17.4503 
79 -148.905 
80 100.892 
81 169.37 
82 -72.9204 
83 49.9296 
84 -23.2067 
85 -147.418 
86 99.5992 
87 -11.4188 
88 -124.402 
89 112.792 
90 99.1474 
91 -13.8356 
92 -136.642 
93 -121.028 
94 118.006 
95 3.82612 
96 -121.379 
97 124.441 
98 -0.412863 
99 -7.70576 
100 -121.885 
101 113.261 
102 107.706 
103 -11.4629 
104 -134.572 
105 72.9444 
106 -49.6629 
107 -171.551 
108 69.2119 
109 -52.6758 
110 -168.181 
111 -165.443 
112 72.6697 
113 -42.8354 
114 94.3316 
115 -146.307 
116 -22.7591 
ITEM: TIMESTEP
31300
ITEM: NUMBER OF ENTRIES
116
ITEM: BOX BOUNDS pp pp pp
-2.1659880786948438e+01 2.1659880786948438e+01
-1.1125721167720103e+01 1.1125721167720103e+01
-1.1125721167720103e+01 1.1125721167720103e+01
ITEM: ENTRIES index c_dphi
1 -100.987 
2 18.5374 
3 142.118 
4 -100.074 
5 138.696 
6 19.6921 
7 154.215 
8 27.0607 
9 -84.4253 
10 49.4819 
11 161.733 
12 45.682 
13 -70.5274 
14 165.75 
15 49.5408 
16 -77.9438 
17 165.847 
18 -101.763 
19 127.996 
20 5.80596 
21 -99.9267 
22 137.883 
23 30.3148 
24 10.3747 
25 -111.815 
26 140.616 
27 126.897 
28 5.61612 
29 -118.063 
30 130.053 
31 6.37417 
32 -108.666 
33 -113.108 
34 123.214 
35 8.1729 
36 160.218 
37 40.7901 
38 -86.2382 
39 -127.689 
40 3.32183 
41 122.466 
42 168.836 
43 -69.9472 
44 47.3615 
45 -70.7528 
46 -70.5195 
47 177.754 
48 55.7313 
49 45.9952 
50 -65.7316 
51 172.246 
52 162.996 
53 51.2696 
54 -58.5706 
55 173.407 
56 59.3158 
57 -178.878 
58 -50.7393 
59 66.6925 
60 -91.4108 
61 145.685 
62 26.1456 
63 -99.4066 
64 141.054 
65 23.4978 
66 16.0726 
67 -103.467 
68 138.977 
69 176.576 
70 64.4082 
71 -59.8801 
72 164.095 
73 45.6252 
74 -64.1676 
75 -170.67 
76 -50.2167 
77 61.5114 
78 34.8805 
79 -94.4074 
80 154.166 
81 -155.425 
82 -42.0062 
83 79.898 
84 -83.1144 
85 157.577 
86 41.1082 
87 -72.8259 
88 170.706 
89 46.483 
90 42.1361 
91 -74.3324 
92 161.445 
93 -115.318 
94 121.917 
95 7.73071 
96 -123.179 
97 122.635 
98 -0.413323 
99 -7.12605 
100 -121.312 
101 115.639 
102 118.325 
103 0.0175617 
104 -123.497 
105 62.8266 
106 -61.0817 
107 179.799 
108 56.7122 
109 -62.4069 
110 -179.38 
111 176.892 
112 57.7729 
113 -59.1997 
114 66.7485 
115 -168.195 
116 -50.4604 
ITEM: TIMESTEP
31400
ITEM: NUMBER OF ENTRIES
116
ITEM: BOX BOUNDS pp pp pp
-2.1659880786948438e+01 2.1659880786948438e+01
-1.1125721167720103e+01 1.1125721167720103e+01
-1.1125721167720103e+01 1.1125721167720103e+01
ITEM: ENTRIES index c_dphi
1 -112.79 
2 7.34549 
3 129.756 
4 -68.7721 
5 168.948 
6 53.3748 
7 160.124 
8 40.8498 
9 -78.4925 
10 13.51 
11 140.269 
12 75.4895 
13 -65.6994 
14 -169.325 
15 49.486 
16 -44.7037 
17 174.107 
18 -94.3374 
19 145.993 
20 24.9784 
21 -98.5239 
22 140.461 
23 21.1452 
24 17.8003 
25 -103.215 
26 137.469 
27 117.537 
28 1.35363 
29 -130.512 
30 127.38 
31 -4.4852 
32 -116.436 
33 -117.786 
34 110.348 
35 -1.60276 
36 163.567 
37 39.2868 
38 -78.5962 
39 -106.722 
40 12.0806 
41 133.573 
42 150.86 
43 -99.1493 
44 28.1645 
45 -75.8348 
46 -69.3112 
47 169.54 
48 44.809 
49 45.8057 
50 -75.3434 
51 159.926 
52 170.045 
53 48.8959 
54 -72.0724 
55 165.008 
56 51.8209 
57 -175.3 
58 -58.4723 
59 66.078 
60 -108.705 
61 136.264 
62 12.4821 
63 -95.9015 
64 140.316 
65 19.1289 
66 18.5713 
67 -105.211 
68 133.602 
69 -175.548 
70 61.5954 
71 -54.6485 
72 177.822 
73 53.729 
74 -60.4845 
75 -173.866 
76 -49.4169 
77 65.4533 
78 -47.7107 
79 -172.76 
80 73.2579 
81 -136.368 
82 -12.4854 
83 107.746 
84 -46.6634 
85 -170.043 
86 64.5737 
87 -56.1119 
88 178.505 
89 67.2678 
90 71.4038 
91 -53.9794 
92 -165.217 
93 -149.985 
94 84.9872 
95 -28.8414 
96 -151.846 
97 94.3253 
98 -26.8184 
99 -34.0588 
100 -147.887 
101 90.9689 
102 141.242 
103 15.945 
104 -102.145 
105 65.1707 
106 -55.1328 
107 -165.544 
108 64.8408 
109 -45.5706 
110 -174.856 
111 -175.408 
112 74.1804 
113 -55.1047 
114 89.4417 
115 -153.419 
116 -34.3564 
ITEM: TIMESTEP
31500
ITEM: NUMBER OF ENTRIES
116
ITEM: BOX BOUNDS pp pp pp
-2.1659880786948438e+01 2.1659880786948438e+01
-1.1125721167720103e+01 1.1125721167720103e+01
-1.1125721167720103e+01 1.1125721167720103e+01
ITEM: ENTRIES index c_dphi
1 -90.0884 
2 36.4008 
3 147.57 
4 -93.1309 
5 146.881 
6 35.5055 
7 118.97 
8 5.14497 
9 -125.045 
10 70.5882 
11 -170.279 
12 64.2354 
13 -54.7241 
14 -178.933 
15 62.1075 
16 -59.7822 
17 -178.742 
18 -124.246 
19 109.456 
20 -8.22245 
21 -130.417 
22 111.905 
23 -4.11928 
24 -11.0267 
25 -128.705 
26 115.271 
27 96.806 
28 -31.9545 
29 -138.152 
30 89.2221 
31 -16.9752 
32 -142.017 
33 -159.836 
34 93.967 
35 -31.0752 
36 143.135 
37 23.5427 
38 -99.3093 
39 -85.5916 
40 37.0858 
41 157.868 
42 144.523 
43 -84.497 
44 23.6324 
45 -27.7409 
46 -44.5945 
47 -153.542 
48 88.5373 
49 72.2012 
50 -36.7463 
51 -154.667 
52 -160.873 
53 90.1797 
54 -97.5513 
55 148.902 
56 29.9402 
57 -163.639 
58 -44.5753 
59 73.1273 
60 -108.827 
61 133.608 
62 18.7738 
63 -102.596 
64 142.569 
65 14.9682 
66 19.0812 
67 -95.7534 
68 136.646 
69 -165.709 
70 68.7104 
71 -56.3444 
72 175.339 
73 44.0581 
74 -70.8614 
75 175.55 
76 -54.8615 
77 56.395 
78 -51.8133 
79 -177.122 
80 62.0882 
81 -107.326 
82 8.6722 
83 128.183 
84 -77.9989 
85 163.863 
86 44.9482 
87 -70.9476 
88 170.137 
89 47.1904 
90 50.6163 
91 -68.2985 
92 168.754 
93 -179.416 
94 57.3034 
95 -58.9869 
96 -171.84 
97 71.8694 
98 -48.5595 
99 -54.7245 
100 -171.015 
101 68.5564 
102 146.659 
103 25.5845 
104 -89.4236 
105 77.0586 
106 -37.6602 
107 -149.623 
108 85.0269 
109 -26.9358 
110 -160.254 
111 -163.152 
112 84.8855 
113 -48.433 
114 158.859 
115 -86.6105 
116 29.3173 
ITEM: TIMESTEP
31600
ITEM: NUMBER OF ENTRIES
116
ITEM: BOX BOUNDS pp pp pp
-2.1659880786948438e+01 2.1659880786948438e+01
-1.1125721167720103e+01 1.1125721167720103e+01
-1.1125721167720103e+01 1.1125721167720103e+01
ITEM: ENTRIES index c_dphi
1 -97.962 
2 21.0138 
3 137.902 
4 -85.6567 
5 153 
6 36.7826 
7 104.269 
8 -14.0068 
9 -141.636 
10 64.5354 
11 172.025 
12 69.1258 
13 -41.4867 
14 -170.116 
15 79.2718 
16 -53.9551 
17 -164.568 
18 -140.975 
19 96.5292 
20 -23.4263 
21 -141.423 
22 98.6215 
23 -18.9274 
24 -20.0383 
25 -139.994 
26 102.457 
27 104.979 
28 -17.8544 
29 -136.298 
30 103.029 
31 -15.4145 
32 -134.137 
33 -137.538 
34 104.018 
35 -14.7051 
36 153.618 
37 31.0355 
38 -85.4663 
39 -77.5592 
40 41.0314 
41 167.019 
42 162.018 
43 -80.9681 
44 35.9537 
45 -53.687 
46 -41.3338 
47 -161.869 
48 75.3264 
49 69.4338 
50 -51.1013 
51 -173.906 
52 -170.347 
53 69.1176 
54 -73.6701 
55 156.625 
56 47.183 
57 172.371 
58 -57.029 
59 55.7085 
60 -98.1233 
61 133.048 
62 22.6828 
63 -114.717 
64 134.918 
65 14.1121 
66 7.03081 
67 -103.334 
68 135.86 
69 -162.742 
70 81.3584 
71 -35.4341 
72 -171.438 
73 63.1863 
74 -51.9325 
75 153.046 
76 -77.6922 
77 38.6442 
78 -48.3287 
79 -171.597 
80 67.8363 
81 -98.161 
82 21.5196 
83 133.848 
84 -74.5763 
85 162.562 
86 49.9866 
87 -67.1629 
88 -179.738 
89 55.6993 
90 47.343 
91 -65.2319 
92 170.205 
93 -162.729 
94 72.6706 
95 -44.5173 
96 -153.849 
97 88.9628 
98 -29.2491 
99 -41.3803 
100 -158.568 
101 83.2199 
102 156.963 
103 28.1306 
104 -88.3858 
105 57.4157 
106 -60.2108 
107 -168.396 
108 64.4109 
109 -43.7741 
110 -177.963 
111 -173.362 
112 78.4534 
113 -55.7352 
114 68.4562 
115 -173.542 
116 -62.2288 
ITEM: TIMESTEP
31700
ITEM: NUMBER OF ENTRIES
116
ITEM: BOX BOUNDS pp pp pp
-2.1659880786948438e+01 2.1659880786948438e+01
-1.1125721167720103e+01 1.1125721167720103e+01
-1.1125721167720103e+01 1.1125721167720103e+01
ITEM: ENTRIES index c_dphi
1 -91.1373 
2 37.9619 
3 154.047 
4 -75.8982 
5 163.191 
6 40.2077 
7 115.897 
8 -4.76492 
9 -126.1 
10 42.8123 
11 160.716 
12 84.6721 
13 -35.5449 
14 -153.986 
15 85.7967 
16 -37.7215 
17 -157.939 
18 -119.185 
19 116.289 
20 11.7577 
21 -122.145 
22 133.324 
23 2.38069 
24 0.610803 
25 -103.92 
26 125.137 
27 77.9191 
28 -53.1874 
29 -167.148 
30 71.3647 
31 -42.5963 
32 -157.529 
33 -166.819 
34 79.2203 
35 -35.7123 
36 166.173 
37 37.1487 
38 -76.666 
39 -81.4639 
40 42.7767 
41 151.443 
42 171.718 
43 -69.295 
44 41.1945 
45 -52.9897 
46 -49.7297 
47 -158.488 
48 66.5126 
49 67.5893 
50 -41.1692 
51 -176.168 
52 -169.232 
53 82.0095 
54 -85.9728 
55 155.334 
56 39.4011 
57 -171.222 
58 -50.4622 
59 71.7536 
60 -106.113 
61 132.484 
62 9.71945 
63 -106.262 
64 130.973 
65 15.1412 
66 23.1622 
67 -99.6025 
68 144.566 
69 -169.129 
70 73.2386 
71 -46.0042 
72 -177.593 
73 65.9042 
74 -56.5519 
75 154.584 
76 -80.861 
77 38.0163 
78 95.5899 
79 -18.2783 
80 -141.118 
81 -66.1965 
82 60.0993 
83 171.757 
84 -105.307 
85 129.327 
86 9.47428 
87 -112.397 
88 127.75 
89 12.9688 
90 13.5497 
91 -106.303 
92 138.916 
93 161.663 
94 37.5227 
95 -86.0139 
96 158.881 
97 35.3448 
98 -76.9785 
99 -86.1097 
100 150.354 
101 38.0304 
102 170.941 
103 48.4719 
104 -76.5844 
105 81.4323 
106 -38.9243 
107 -161.694 
108 81.6143 
109 -41.1557 
110 -158.029 
111 -159.851 
112 77.3791 
113 -39.4944 
114 -86.8236 
115 32.5523 
116 156.348 
ITEM: TIMESTEP
31800
ITEM: NUMBER OF ENTRIES
116
ITEM: BOX BOUNDS pp pp pp
-2.1659880786948438e+01 2.1659880786948438e+01
-1.1125721167720103e+01 1.1125721167720103e+01
-1.1125721167720103e+01 1.1125721167720103e+01
ITEM: ENTRIES index c_dphi
1 -108.612 
2 17.4211 
3 132.871 
4 -91.9101 
5 153.174 
6 35.1433 
7 101.523 
8 -31.1177 
9 -141.13 
10 80.8351 
11 -161.168 
12 72.8 
13 -41.6675 
14 -169.512 
15 76.0201 
16 -53.7865 
17 -168.254 
18 -114.753 
19 113.698 
20 -5.30762 
21 -111.326 
22 129.669 
23 20.2231 
24 4.58915 
25 -114.416 
26 136.138 
27 66.4732 
28 -53.2028 
29 -171.008 
30 61.2925 
31 -56.5132 
32 -179.032 
33 -169.922 
34 72.2719 
35 -50.2464 
36 147.636 
37 34.5367 
38 -94.3712 
39 -97.2718 
40 30.9132 
41 143.684 
42 -167.71 
43 -51.8674 
44 62.6103 
45 -47.8954 
46 -47.3774 
47 -168.267 
48 69.7072 
49 63.6179 
50 -57.2722 
51 -179.298 
52 -164.98 
53 74.1299 
54 -61.2499 
55 -178.922 
56 69.6828 
57 -176.327 
58 -56.7647 
59 60.4516 
60 -125.837 
61 119.451 
62 -2.39728 
63 -116.109 
64 122.043 
65 -1.39674 
66 -4.40676 
67 -126.255 
68 110.305 
69 -169.49 
70 67.9353 
71 -56.4716 
72 -167.529 
73 77.9738 
74 -43.2226 
75 -152.453 
76 -26.6196 
77 88.3512 
78 -50.7054 
79 -167.92 
80 71.6741 
81 -82.3751 
82 41.2784 
83 161.309 
84 -81.298 
85 151.955 
86 36.9933 
87 -89.2326 
88 155.806 
89 37.5149 
90 27.0535 
91 -87.9077 
92 153.801 
93 -179.579 
94 57.3058 
95 -61.8782 
96 172.063 
97 52.8789 
98 -64.822 
99 -74.9741 
100 165.842 
101 48.1411 
102 166.006 
103 48.2221 
104 -65.6987 
105 64.7347 
106 -62.8629 
107 175.886 
108 55.9111 
109 -65.3396 
110 -176.491 
111 174.287 
112 53.0367 
113 -58.115 
114 30.643 
115 146.623 
116 -85.3055 
ITEM: TIMESTEP
31900
ITEM: NUMBER OF ENTRIES
116
ITEM: BOX BOUNDS pp pp pp
-2.1659880786948438e+01 2.1659880786948438e+01
-1.1125721167720103e+01 1.1125721167720103e+01
-1.1125721167720103e+01 1.1125721167720103e+01
ITEM: ENTRIES index c_dphi
1 -119.155 
2 -1.71209 
3 121.713 
4 -97.7821 
5 137.177 
6 24.1171 
7 90.5735 
8 -36.2927 
9 -153.285 
10 111.476 
11 -139.013 
12 26.6225 
13 -80.3995 
14 151.217 
15 44.1948 
16 -91.3887 
17 161.589 
18 -115.444 
19 120.729 
20 5.04879 
21 -112.29 
22 132.03 
23 11.537 
24 -0.580615 
25 -116.261 
26 123.246 
27 117.135 
28 -7.58123 
29 -120.741 
30 111.372 
31 -1.78831 
32 -123.911 
33 -126.062 
34 120.778 
35 -1.34552 
36 156.327 
37 39.9584 
38 -82.8328 
39 -95.1426 
40 28.7737 
41 145.343 
42 156.275 
43 -77.7644 
44 38.0929 
45 -42.6108 
46 -46.1424 
47 -161.186 
48 80.6142 
49 71.6846 
50 -43.3589 
51 -161.559 
52 -169.368 
53 75.5889 
54 -98.0252 
55 136.391 
56 21.4201 
57 160.54 
58 -81.8275 
59 39.2696 
60 -147.501 
61 95.572 
62 -22.1051 
63 -145.71 
64 96.6132 
65 -28.7823 
66 -32.6426 
67 -150.32 
68 84.2849 
69 -169.106 
70 67.3861 
71 -45.9755 
72 -138.956 
73 98.5594 
74 -20.4125 
75 -135.381 
76 -9.95002 
77 109.174 
78 -62.0139 
79 -177.768 
80 52.5939 
81 -81.4813 
82 37.5817 
83 153.771 
84 -74.7565 
85 170.28 
86 52.4239 
87 -66.7071 
88 175.437 
89 48.2569 
90 45.4744 
91 -72.3812 
92 160.438 
93 -134.608 
94 103.528 
95 -15.199 
96 -136.526 
97 104.747 
98 -14.6618 
99 -16.7842 
100 -135.511 
101 105.08 
102 143.189 
103 18.2472 
104 -94.6024 
105 48.355 
106 -73.245 
107 163.609 
108 57.0736 
109 -66.0726 
110 178.674 
111 177.116 
112 53.9696 
113 -61.2841 
114 154.111 
115 -93.49 
116 32.6027 
ITEM: TIMESTEP
32000
ITEM: NUMBER OF ENTRIES
116
ITEM: BOX BOUNDS pp pp pp
-2.1659880786948438e+01 2.1659880786948438e+01
-1.1125721167720103e+01 1.1125721167720103e+01
-1.1125721167720103e+01 1.1125721167720103e+01
ITEM: ENTRIES index c_dphi
1 -132.892 
2 -9.31397 
3 107.205 
4 -68.7811 
5 175.657 
6 53.9351 
7 130.859 
8 13.2644 
9 -106.958 
10 31.4857 
11 154.069 
12 55.5619 
13 -64.8653 
14 169.4 
15 48.9729 
16 -69.7754 
17 169.797 
18 -100.487 
19 144.551 
20 27.8977 
21 -93.3875 
22 149.959 
23 21.5748 
24 23.3409 
25 -93.3126 
26 138.303 
27 130.589 
28 4.26339 
29 -108.741 
30 125.72 
31 12.7161 
32 -107.954 
33 -117.294 
34 129.702 
35 9.03192 
36 -179.103 
37 65.9209 
38 -53.8646 
39 -104.26 
40 12.9151 
41 132.974 
42 156.743 
43 -86.3946 
44 34.7836 
45 -81.2592 
46 -65.0306 
47 167.95 
48 44.9798 
49 51.1316 
50 -75.8874 
51 161.142 
52 168.73 
53 41.7114 
54 -84.9049 
55 149.62 
56 33.4054 
57 -153.482 
58 -36.6235 
59 78.2996 
60 -114.718 
61 127.012 
62 12.5117 
63 -117.021 
64 128.479 
65 1.24976 
66 15.3758 
67 -99.1242 
68 133.646 
69 162.871 
70 49.9127 
71 -75.2549 
72 -169.844 
73 56.4612 
74 -54.266 
75 174.338 
76 -67.077 
77 50.8804 
78 -45.5887 
79 -161.738 
80 74.5383 
81 -116.931 
82 -1.56757 
83 125.276 
84 -60.7604 
85 -173.001 
86 59.0885 
87 -51.8954 
88 -179.806 
89 60.3454 
90 61.2898 
91 -66.6206 
92 173.531 
93 -161.79 
94 81.4091 
95 -45.1528 
96 -146.445 
97 86.9932 
98 -29.6435 
99 -22.6836 
100 -149.246 
101 94.1177 
102 141.367 
103 30.0972 
104 -90.4928 
105 81.6975 
106 -35.2582 
107 -163.173 
108 84.6462 
109 -43.2685 
110 -158.398 
111 -161.196 
112 70.889 
113 -44.2405 
114 -178.964 
115 -62.0814 
116 61.328 
ITEM: TIMESTEP
32100
ITEM: NUMBER OF ENTRIES
116
ITEM: BOX BOUNDS pp pp pp
-2.1659880786948438e+01 2.1659880786948438e+01
-1.1125721167720103e+01 1.1125721167720103e+01
-1.1125721167720103e+01 1.1125721167720103e+01
ITEM: ENTRIES index c_dphi
1 153.719 
2 31.3311 
3 -90.6085 
4 -98.932 
5 138.254 
6 13.9001 
7 -96.7176 
8 138.929 
9 26.0967 
10 24.4695 
11 -99.8841 
12 147.284 
13 -90.2042 
14 154.973 
15 26.1527 
16 31.4258 
17 148.388 
18 58.9401 
19 -61.1101 
20 179.698 
21 59.6482 
22 -59.809 
23 -179.859 
24 -91.6588 
25 32.0341 
26 146.169 
27 154.361 
28 28.9376 
29 -86.7471 
30 155.623 
31 39.9378 
32 -78.9539 
33 -91.8523 
34 152.463 
35 33.5712 
36 163.629 
37 43.5209 
38 -72.5479 
39 -72.6724 
40 47.6468 
41 164.019 
42 149.155 
43 -90.8089 
44 27.5525 
45 -87.8904 
46 -91.7363 
47 152.736 
48 29.3889 
49 32.3126 
50 -83.2149 
51 153.438 
52 150.984 
53 35.4569 
54 -101.635 
55 142.935 
56 13.2858 
57 -149.466 
58 -29.6978 
59 88.9227 
60 -157.314 
61 80.9026 
62 -32.2059 
63 -157.664 
64 89.2271 
65 -35.8806 
66 -31.7532 
67 -144.862 
68 90.0306 
69 151.594 
70 26.7265 
71 -90.8038 
72 172.916 
73 60.5271 
74 -68.5631 
75 -151.172 
76 -36.509 
77 77.6898 
78 -42.3854 
79 -165.7 
80 79.1382 
81 -100.829 
82 26.1259 
83 150.833 
84 -153.042 
85 89.9939 
86 -27.6027 
87 -149.065 
88 93.3386 
89 -32.1007 
90 -35.7375 
91 -153.334 
92 81.2267 
93 139.747 
94 19.3117 
95 -106.622 
96 85.386 
97 -37.6054 
98 -162.393 
99 85.8393 
100 -38.9487 
101 -151.169 
102 -152.305 
103 82.9067 
104 -29.314 
105 -138.702 
106 -12.0415 
107 105.256 
108 -85.1318 
109 144.14 
110 28.0696 
111 -88.4549 
112 155.475 
113 42.2737 
114 24.9174 
115 -91.1526 
116 155.646 
ITEM: TIMESTEP
32200
ITEM: NUMBER OF ENTRIES
116
ITEM: BOX BOUNDS pp pp pp
-2.1659880786948438e+01 2.1659880786948438e+01
-1.1125721167720103e+01 1.1125721167720103e+01
-1.1125721167720103e+01 1.1125721167720103e+01
ITEM: ENTRIES index c_dphi
1 162.945 
2 48.4749 
3 -78.9362 
4 -66.8014 
5 178.504 
6 59.3454 
7 -65.6937 
8 175.148 
9 49.0011 
10 60.4828 
11 -58.6756 
12 175.178 
13 -88.9796 
14 142.442 
15 25.7723 
16 -4.70969 
17 121.047 
18 46.543 
19 -82.6986 
20 175.687 
21 46.4457 
22 -67.5002 
23 163.258 
24 -100.817 
25 19.2486 
26 137.892 
27 145.136 
28 24.0144 
29 -96.607 
30 151.596 
31 30.9743 
32 -87.2827 
33 -95.3275 
34 144.051 
35 25.7941 
36 165.979 
37 39.9399 
38 -73.8044 
39 -117.52 
40 0.808937 
41 121.553 
42 172.376 
43 -71.2749 
44 56.0306 
45 -97.0603 
46 -96.6458 
47 149.486 
48 29.775 
49 14.0337 
50 -99.835 
51 140.455 
52 136.519 
53 22.6502 
54 -88.3229 
55 143.448 
56 28.2117 
57 -137.816 
58 -18.4115 
59 102.925 
60 -134.038 
61 105.901 
62 -12.196 
63 -125.444 
64 116.459 
65 -5.3832 
66 -14.8501 
67 -132.947 
68 105.211 
69 146.011 
70 15.1664 
71 -102.167 
72 -171.229 
73 74.7379 
74 -39.3764 
75 176.909 
76 -70.4604 
77 54.2269 
78 -60.4658 
79 179.352 
80 66.2351 
81 -133.793 
82 -7.37867 
83 111.408 
84 166.729 
85 50.1829 
86 -72.8949 
87 154.592 
88 31.5141 
89 -88.8621 
90 -87.6818 
91 149.24 
92 28.8641 
93 -157.533 
94 89.0524 
95 -32.0775 
96 70.7631 
97 -47.0381 
98 -171.628 
99 72.2533 
100 -52.3365 
101 -169.946 
102 -173.517 
103 61.8929 
104 -55.7161 
105 -167.085 
106 -44.6231 
107 71.3333 
108 -57.5428 
109 176.517 
110 56.2597 
111 -63.4094 
112 176.333 
113 62.5309 
114 57.3261 
115 -62.9311 
116 -176.734 
ITEM: TIMESTEP
32300
ITEM: NUMBER OF ENTRIES
116
ITEM: BOX BOUNDS pp pp pp
-2.1659880786948438e+01 2.1659880786948438e+01
-1.1125721167720103e+01 1.1125721167720103e+01
-1.1125721167720103e+01 1.1125721167720103e+01
ITEM: ENTRIES index c_dphi
1 136.536 
2 20.7536 
3 -100.875 
4 -69.8584 
5 172.576 
6 50.763 
7 -64.7635 
8 173.424 
9 52.8025 
10 49.5855 
11 -72.2271 
12 167.152 
13 -77.529 
14 156.767 
15 45.2773 
16 3.93622 
17 126.026 
18 43.9188 
19 -73.867 
20 164.439 
21 46.6529 
22 -76.8688 
23 165.345 
24 -106.61 
25 9.86087 
26 137.166 
27 145.856 
28 29.0902 
29 -91.6497 
30 151.836 
31 31.096 
32 -91.3979 
33 -87.9806 
34 151.279 
35 28.7856 
36 161.734 
37 41.0409 
38 -80.0464 
39 -135.094 
40 -19.8227 
41 103.456 
42 -168.117 
43 -52.8124 
44 74.9073 
45 -99.5793 
46 -97.8187 
47 133.352 
48 20.6614 
49 17.61 
50 -111.219 
51 136.09 
52 141.941 
53 13.1116 
54 -86.6386 
55 157.721 
56 37.953 
57 -164.978 
58 -40.021 
59 75.4041 
60 -139.033 
61 103.255 
62 -18.4621 
63 -133.566 
64 104.716 
65 -15.8544 
66 -18.798 
67 -140.515 
68 98.914 
69 173.603 
70 59.5942 
71 -70.7521 
72 -161.387 
73 84.5184 
74 -35.7085 
75 -171.527 
76 -61.2303 
77 60.7601 
78 -58.4549 
79 -172.527 
80 61.6867 
81 -155.299 
82 -30.8535 
83 89.0884 
84 -163.019 
85 87.8301 
86 -37.9313 
87 -170.425 
88 63.8138 
89 -61.2739 
90 -42.8515 
91 -168.613 
92 66.2994 
93 -178.782 
94 59.2397 
95 -60.9956 
96 56.5915 
97 -63.233 
98 179.7 
99 65.5604 
100 -51.5067 
101 -174.615 
102 -179.681 
103 63.252 
104 -59.8564 
105 -127.496 
106 -5.97039 
107 109.987 
108 -67.3111 
109 166.633 
110 49.8539 
111 -75.5403 
112 167.681 
113 50.5159 
114 42.7234 
115 -74.0553 
116 168.78 
ITEM: TIMESTEP
32400
ITEM: NUMBER OF ENTRIES
116
ITEM: BOX BOUNDS pp pp pp
-2.1659880786948438e+01 2.1659880786948438e+01
-1.1125721167720103e+01 1.1125721167720103e+01
-1.1125721167720103e+01 1.1125721167720103e+01
ITEM: ENTRIES index c_dphi
1 126.403 
2 -2.94017 
3 -111.704 
4 -78.2584 
5 144.796 
6 37.9967 
7 -87.6268 
8 165.574 
9 49.3193 
10 25.413 
11 -81.3858 
12 162.359 
13 -117.631 
14 125.149 
15 7.92795 
16 32.2157 
17 156.702 
18 47.3015 
19 -68.665 
20 158.248 
21 42.282 
22 -75.6699 
23 168.364 
24 -82.1779 
25 44.7396 
26 159.368 
27 154.788 
28 25.8885 
29 -89.21 
30 142.344 
31 27.245 
32 -88.7575 
33 -93.6885 
34 151.213 
35 35.2105 
36 163.012 
37 46.4128 
38 -77.1185 
39 -154.899 
40 -27.38 
41 91.0218 
42 175.433 
43 -67.9973 
44 44.816 
45 -117.717 
46 -108.141 
47 137.52 
48 5.6151 
49 8.8567 
50 -105.483 
51 122.613 
52 128.527 
53 14.1876 
54 -94.1573 
55 143.635 
56 23.5555 
57 -178.435 
58 -53.8132 
59 66.6573 
60 -133.023 
61 106.542 
62 -15.0982 
63 -143.725 
64 94.6349 
65 -23.2898 
66 -22.0379 
67 -143.678 
68 98.3971 
69 -170.961 
70 78.7916 
71 -40.7747 
72 -160.594 
73 70.3329 
74 -46.1635 
75 -155.452 
76 -40.0141 
77 69.7919 
78 -104.823 
79 141.895 
80 19.6662 
81 -175.605 
82 -56.0065 
83 65.4028 
84 -171.598 
85 69.7722 
86 -38.108 
87 -161.067 
88 91.0531 
89 -42.4365 
90 -41.5661 
91 -149.446 
92 77.0641 
93 -164.928 
94 80.9406 
95 -40.2402 
96 73.0513 
97 -51.4629 
98 -169.917 
99 62.7091 
100 -55.7452 
101 -172.777 
102 -175.737 
103 65.8092 
104 -51.2224 
105 -43.8515 
106 79.8916 
107 -162.883 
108 -58.1316 
109 -178.775 
110 58.8983 
111 -62.6616 
112 175.011 
113 57.9814 
114 55.7905 
115 -66.5366 
116 176.433 
ITEM: TIMESTEP
32500
ITEM: NUMBER OF ENTRIES
116
ITEM: BOX BOUNDS pp pp pp
-2.1659880786948438e+01 2.1659880786948438e+01
-1.1125721167720103e+01 1.1125721167720103e+01
-1.1125721167720103e+01 1.1125721167720103e+01
ITEM: ENTRIES index c_dphi
1 150.477 
2 27.9916 
3 -92.45 
4 -81.0854 
5 162.211 
6 43.4873 
7 -79.0881 
8 162.189 
9 37.616 
10 48.0559 
11 -70.6672 
12 164.76 
13 -100.531 
14 140.152 
15 16.2592 
16 10.5194 
17 129.134 
18 35.1496 
19 -83.1374 
20 155.758 
21 37.4711 
22 -88.2335 
23 153.479 
24 -89.8116 
25 41.493 
26 154.763 
27 -179.237 
28 50.3128 
29 -65.9356 
30 170.737 
31 54.4885 
32 -58.8124 
33 -67.7984 
34 175.953 
35 62.6523 
36 172.039 
37 58.7879 
38 -69.0177 
39 -177.406 
40 -60.6408 
41 59.1014 
42 136.855 
43 -95.7305 
44 24.0972 
45 -116.811 
46 -119.59 
47 124.27 
48 4.92239 
49 -4.17226 
50 -120.312 
51 120.34 
52 118.676 
53 2.53655 
54 -93.0971 
55 143.445 
56 26.1712 
57 -149.924 
58 -25.3412 
59 93.8553 
60 -106.277 
61 127.094 
62 8.88182 
63 -115.621 
64 126.166 
65 11.0075 
66 7.04978 
67 -111.163 
68 133.679 
69 -171.951 
70 64.2836 
71 -55.3183 
72 -153.84 
73 72.4677 
74 -41.8904 
75 -154.627 
76 -36.3607 
77 81.3003 
78 -25.4084 
79 -142.899 
80 100.714 
81 -172.644 
82 -46.145 
83 71.6725 
84 173.418 
85 53.7245 
86 -68.6688 
87 -171.242 
88 66.3651 
89 -51.5476 
90 -60.3631 
91 177.244 
92 59.3308 
93 -166.795 
94 68.749 
95 -47.7524 
96 71.8119 
97 -51.0477 
98 -176.858 
99 71.91 
100 -53.9002 
101 -165.23 
102 -167.318 
103 66.8714 
104 -44.4589 
105 -13.1852 
106 112.364 
107 -126.256 
108 -52.2756 
109 177.223 
110 57.9764 
111 -69.6739 
112 171.08 
113 60.8279 
114 58.3974 
115 -60.8487 
116 -171.101 
ITEM: TIMESTEP
32600
ITEM: NUMBER OF ENTRIES
116
ITEM: BOX BOUNDS pp pp pp
-2.1659880786948438e+01 2.1659880786948438e+01
-1.1125721167720103e+01 1.1125721167720103e+01
-1.1125721167720103e+01 1.1125721167720103e+01
ITEM: ENTRIES index c_dphi
1 152.858 
2 39.7196 
3 -86.0903 
4 -128.587 
5 109.283 
6 -5.78951 
7 -133.01 
8 111.917 
9 -10.8804 
10 -16.8068 
11 -131.879 
12 105.323 
13 -68.7195 
14 169.888 
15 54.6415 
16 42.5277 
17 151.853 
18 9.4563 
19 -96.1813 
20 131.793 
21 26.1556 
22 -117.15 
23 137.212 
24 -113.358 
25 4.33751 
26 128.192 
27 158.748 
28 40.3627 
29 -86.5258 
30 159.54 
31 32.6513 
32 -82.0744 
33 -84.1549 
34 148.957 
35 34.2309 
36 -170.839 
37 69.3084 
38 -44.9733 
39 133.075 
40 -102.186 
41 10.3644 
42 151.682 
43 -81.2049 
44 41.3591 
45 -115.585 
46 -122.676 
47 115.345 
48 6.02977 
49 -8.06907 
50 -130.048 
51 120.637 
52 115.709 
53 -6.27002 
54 -72.5709 
55 169.121 
56 49.3738 
57 -141.002 
58 -17.5427 
59 101.354 
60 -23.3807 
61 -153.16 
62 87.007 
63 -37.4928 
64 -157.326 
65 92.2866 
66 83.6316 
67 -36.2013 
68 -146.589 
69 -147.392 
70 92.1266 
71 -23.7577 
72 169.413 
73 38.8128 
74 -75.3842 
75 -165.232 
76 -47.8509 
77 74.0762 
78 -83.2517 
79 167.055 
80 35.8606 
81 -155.419 
82 -28.0083 
83 88.6845 
84 159.885 
85 41.3884 
86 -82.3173 
87 167.87 
88 44.1646 
89 -73.6334 
90 -71.7792 
91 164.515 
92 46.7171 
93 176.166 
94 56.6851 
95 -57.587 
96 74.9338 
97 -44.4816 
98 -162.275 
99 74.1773 
100 -43.6163 
101 -166.407 
102 -165.133 
103 77.0732 
104 -45.7178 
105 56.6765 
106 175.386 
107 -64.554 
108 -46.3659 
109 -177.48 
110 67.168 
111 -62.6461 
112 -177.998 
113 68.4685 
114 67.5223 
115 -47.8292 
116 -161.363 
ITEM: TIMESTEP
32700
ITEM: NUMBER OF ENTRIES
116
ITEM: BOX BOUNDS pp pp pp
-2.1659880786948438e+01 2.1659880786948438e+01
-1.1125721167720103e+01 1.1125721167720103e+01
-1.1125721167720103e+01 1.1125721167720103e+01
ITEM: ENTRIES index c_dphi
1 158.367 
2 37.8323 
3 -88.8471 
4 -106.68 
5 130.148 
6 8.24672 
7 -107.983 
8 130.115 
9 15.189 
10 13.2829 
11 -108.618 
12 136.455 
13 -83.6543 
14 161.541 
15 42.3517 
16 27.1863 
17 150.942 
18 32.8729 
19 -81.4377 
20 145.88 
21 31.5697 
22 -93.6061 
23 152.083 
24 -101.195 
25 19.2271 
26 133.272 
27 106.034 
28 -14.9161 
29 -128.69 
30 107.304 
31 -6.47009 
32 -131.746 
33 -136.151 
34 110.075 
35 -15.2011 
36 172.498 
37 49.5134 
38 -66.016 
39 155.181 
40 -79.1728 
41 28.6521 
42 -163.697 
43 -51.9687 
44 69.9585 
45 -92.3156 
46 -81.0675 
47 164.775 
48 35.2961 
49 33.0114 
50 -81.1466 
51 149.375 
52 151.321 
53 37.1628 
54 -85.0025 
55 147.892 
56 28.3601 
57 -157.022 
58 -33.1273 
59 83.8925 
60 -60.0563 
61 170.392 
62 59.5305 
63 -64.4947 
64 -175.356 
65 65.0571 
66 48.2607 
67 -62.6007 
68 177.813 
69 -165.978 
70 80.2928 
71 -47.9267 
72 -160.273 
73 93.6936 
74 -34.4646 
75 -175.203 
76 -56.9623 
77 65.646 
78 -39.3625 
79 -147.491 
80 81.0611 
81 -146.469 
82 -30.69 
83 89.6337 
84 -165.583 
85 77.6586 
86 -45.439 
87 -177.423 
88 59.4795 
89 -60.6646 
90 -50.2103 
91 -173.308 
92 66.5481 
93 160.596 
94 35.989 
95 -74.9709 
96 66.2367 
97 -53.6725 
98 -166.488 
99 65.5425 
100 -47.2726 
101 -174.548 
102 -172.339 
103 74.8458 
104 -52.4299 
105 -18.5186 
106 95.4808 
107 -138.074 
108 -60.8821 
109 179.488 
110 61.9082 
111 -63.0371 
112 179.383 
113 56.593 
114 61.3091 
115 -56.2705 
116 -179.061 
ITEM: TIMESTEP
32800
ITEM: NUMBER OF ENTRIES
116
ITEM: BOX BOUNDS pp pp pp
-2.1659880786948438e+01 2.1659880786948438e+01
-1.1125721167720103e+01 1.1125721167720103e+01
-1.1125721167720103e+01 1.1125721167720103e+01
ITEM: ENTRIES index c_dphi
1 161.833 
2 39.0579 
3 -68.1335 
4 -84.1564 
5 159.768 
6 45.2109 
7 -80.5105 
8 164.932 
9 35.565 
10 28.5801 
11 -85.9771 
12 144.656 
13 -92.1903 
14 143.117 
15 15.4788 
16 17.7933 
17 143.868 
18 29.3965 
19 -86.6502 
20 155.053 
21 39.0066 
22 -81.6084 
23 162.345 
24 -93.4608 
25 35.6868 
26 148.909 
27 99.7127 
28 -20.5733 
29 -141.351 
30 98.3251 
31 -22.4528 
32 -141.389 
33 -141.195 
34 98.0275 
35 -20.9086 
36 -171.719 
37 66.9769 
38 -53.0158 
39 145.042 
40 -94.6195 
41 23.0289 
42 -160.355 
43 -41.5244 
44 79.335 
45 -111.281 
46 -108.8 
47 128.304 
48 10.5521 
49 9.77977 
50 -113.116 
51 129.132 
52 129.367 
53 6.47138 
54 -115.345 
55 125.009 
56 -0.232903 
57 -174.26 
58 -54.649 
59 70.1301 
60 -73.0172 
61 163.517 
62 44.8699 
63 -74.0583 
64 167.295 
65 49.4075 
66 36.8417 
67 -81.8054 
68 160.307 
69 -160.259 
70 74.1154 
71 -37.1114 
72 -152.446 
73 88.1535 
74 -26.386 
75 -175.198 
76 -48.1478 
77 63.3615 
78 60.1953 
79 -53.4151 
80 -174.089 
81 -130.821 
82 -7.81282 
83 112.24 
84 -154.855 
85 84.2657 
86 -36.1204 
87 -157.886 
88 81.7275 
89 -37.0071 
90 -44.6119 
91 -164.998 
92 76.2674 
93 -168.813 
94 69.2054 
95 -44.9722 
96 72.2299 
97 -51.8094 
98 -164.297 
99 66.274 
100 -46.2138 
101 -169.687 
102 -177.983 
103 69.5292 
104 -53.9437 
105 -99.2627 
106 24.1158 
107 144.848 
108 -54.5649 
109 177.8 
110 59.9458 
111 -61.481 
112 -179.335 
113 66.1541 
114 45.4327 
115 -72.4216 
116 173.068 
ITEM: TIMESTEP
32900
ITEM: NUMBER OF ENTRIES
116
ITEM: BOX BOUNDS pp pp pp
-2.1659880786948438e+01 2.1659880786948438e+01
-1.1125721167720103e+01 1.1125721167720103e+01
-1.1125721167720103e+01 1.1125721167720103e+01
ITEM: ENTRIES index c_dphi
1 170.872 
2 46.958 
3 -65.5608 
4 -76.5696 
5 157.687 
6 39.6907 
7 -82.6832 
8 159.321 
9 43.0606 
10 32.3307 
11 -85.6652 
12 158.075 
13 -94.4716 
14 146.37 
15 23.9124 
16 26.3331 
17 151.496 
18 29.2831 
19 -94.0916 
20 149.952 
21 26.5769 
22 -87.9391 
23 148.686 
24 -99.8673 
25 19.1045 
26 141.935 
27 94.9665 
28 -26.6401 
29 -150.172 
30 87.7744 
31 -35.7572 
32 -150.619 
33 -146.374 
34 90.0943 
35 -24.7675 
36 -154.477 
37 86.4025 
38 -35.8645 
39 158.68 
40 -83.3412 
41 39.5965 
42 -165.876 
43 -44.1943 
44 75.6497 
45 -126.094 
46 -130.142 
47 110.046 
48 -3.67236 
49 -18.5252 
50 -138.337 
51 107.945 
52 107.436 
53 -12.3758 
54 -108.057 
55 124.871 
56 12.5163 
57 163.573 
58 -70.5561 
59 40.8643 
60 -51.4363 
61 -173.357 
62 69.353 
63 -50.5452 
64 -167.835 
65 71.3758 
66 70.0874 
67 -47.2023 
68 -167.992 
69 179.727 
70 57.6107 
71 -65.3891 
72 168.843 
73 43.918 
74 -77.0055 
75 -170.666 
76 -44.5491 
77 79.29 
78 30.43 
79 -87.1197 
80 166.023 
81 -122.166 
82 6.50697 
83 124.992 
84 -157.01 
85 77.448 
86 -43.3824 
87 -152.12 
88 87.0497 
89 -26.5777 
90 -34.404 
91 -155.234 
92 91.1382 
93 -150.145 
94 84.4965 
95 -27.6418 
96 61.8261 
97 -57.9468 
98 -179.934 
99 62.3551 
100 -59.6316 
101 -177.872 
102 -177.156 
103 60.8576 
104 -57.3827 
105 -145.202 
106 -27.9803 
107 96.6426 
108 -61.377 
109 172.031 
110 54.4215 
111 -73.7561 
112 168.634 
113 52.8358 
114 39.1266 
115 -78.4831 
116 165.718 
ITEM: TIMESTEP
33000
ITEM: NUMBER OF ENTRIES
116
ITEM: BOX BOUNDS pp pp pp
-2.1659880786948438e+01 2.1659880786948438e+01
-1.1125721167720103e+01 1.1125721167720103e+01
-1.1125721167720103e+01 1.1125721167720103e+01
ITEM: ENTRIES index c_dphi
1 -172.805 
2 67.5876 
3 -58.2998 
4 -42.9133 
5 -165.609 
6 79.6599 
7 -36.8166 
8 -151.548 
9 85.8792 
10 76.2159 
11 -38.515 
12 -161.088 
13 -119.565 
14 126.296 
15 14.1339 
16 12.9321 
17 133.871 
18 20.9718 
19 -92.0312 
20 133.215 
21 20.2118 
22 -115.779 
23 131.218 
24 -70.0447 
25 49.657 
26 173.072 
27 105.607 
28 -13.3115 
29 -136.293 
30 106.218 
31 -16.7636 
32 -134.864 
33 -131.362 
34 105.656 
35 -12.444 
36 178.164 
37 56.3158 
38 -63.5848 
39 170.355 
40 -66.9671 
41 52.1952 
42 162.798 
43 -73.2974 
44 42.8671 
45 -107.063 
46 -103.338 
47 135.545 
48 17.7817 
49 11.3753 
50 -109.742 
51 132.495 
52 131.817 
53 10.6997 
54 -118.178 
55 117.953 
56 0.10291 
57 172.705 
58 -78.295 
59 47.2853 
60 -70.8103 
61 -177.546 
62 53.6742 
63 -57.467 
64 173.753 
65 49.2687 
66 63.2682 
67 -65.5116 
68 170.004 
69 157.199 
70 39.033 
71 -84.4147 
72 -176.423 
73 55.0962 
74 -60.6809 
75 -172.443 
76 -48.76 
77 73.698 
78 -40.1642 
79 -161.582 
80 84.3597 
81 -82.4826 
82 40.2303 
83 153.56 
84 -144.166 
85 93.8916 
86 -29.6767 
87 -144.855 
88 91.5767 
89 -22.9124 
90 -21.4989 
91 -145.067 
92 100.444 
93 -164.828 
94 73.6248 
95 -43.8126 
96 70.0974 
97 -52.0333 
98 -165.912 
99 69.4375 
100 -44.4414 
101 -168.432 
102 -168.626 
103 77.4952 
104 -46.4951 
105 -97.4189 
106 21.6039 
107 137.99 
108 -65.3061 
109 174.738 
110 63.514 
111 -61.5844 
112 -172.808 
113 58.3719 
114 44.6197 
115 -66.6038 
116 164.576 
ITEM: TIMESTEP
33100
ITEM: NUMBER OF ENTRIES
116
ITEM: BOX BOUNDS pp pp pp
-2.1659880786948438e+01 2.1659880786948438e+01
-1.1125721167720103e+01 1.1125721167720103e+01
-1.1125721167720103e+01 1.1125721167720103e+01
ITEM: ENTRIES index c_dphi
1 -36.8768 
2 -160.515 
3 87.164 
4 -43.1374 
5 -155.458 
6 80.5009 
7 80.5419 
8 -31.7791 
9 -155.82 
10 172.934 
11 -60.6141 
12 53.5089 
13 -125.543 
14 114.504 
15 -3.99161 
16 21.7396 
17 133.311 
18 32.0963 
19 -79.7321 
20 143.421 
21 31.5926 
22 -95.3039 
23 152.868 
24 -81.0962 
25 48.1417 
26 161.168 
27 157.665 
28 40.8975 
29 -86.3245 
30 98.5931 
31 -34.4491 
32 -142.767 
33 86.8146 
34 -21.5029 
35 -140.143 
36 -153.725 
37 97.9573 
38 -20.683 
39 -173.307 
40 67.386 
41 -54.614 
42 169.628 
43 -66.8838 
44 51.2007 
45 -110.362 
46 -97.569 
47 138.207 
48 15.2236 
49 15.9726 
50 -108.252 
51 128.765 
52 136.845 
53 12.6206 
54 -105.839 
55 129.966 
56 10.1875 
57 154.346 
58 -88.49 
59 40.8709 
60 -82.5753 
61 160.175 
62 35.0258 
63 -75.9232 
64 158.928 
65 41.3266 
66 43.3816 
67 -81.7675 
68 160.631 
69 166.975 
70 46.2609 
71 -71.6595 
72 174.143 
73 57.7015 
74 -61.1244 
75 -171.008 
76 -49.9753 
77 68.0962 
78 -24.3857 
79 -144.622 
80 101.256 
81 -138.21 
82 102.819 
83 -18.549 
84 -139.635 
85 98.997 
86 -20.6643 
87 -26.6204 
88 -147.989 
89 92.3501 
90 -154.236 
91 89.2733 
92 -30.8083 
93 57.1917 
94 -70.2482 
95 175.131 
96 46.2653 
97 -68.3553 
98 173.705 
99 162.173 
100 47.5522 
101 -70.3873 
102 -97.9326 
103 27.5292 
104 142.434 
105 -85.3843 
106 36.2743 
107 150.181 
108 -66.6784 
109 175.372 
110 58.0621 
111 -64.3926 
112 178.297 
113 53.5567 
114 49.8371 
115 -67.4731 
116 167.786 
ITEM: TIMESTEP
33200
ITEM: NUMBER OF ENTRIES
116
ITEM: BOX BOUNDS pp pp pp
-2.1659880786948438e+01 2.1659880786948438e+01
-1.1125721167720103e+01 1.1125721167720103e+01
-1.1125721167720103e+01 1.1125721167720103e+01
ITEM: ENTRIES index c_dphi
1 -85.4992 
2 156.969 
3 38.581 
4 -81.494 
5 160.118 
6 36.0379 
7 35.5516 
8 -82.8363 
9 153.083 
10 -178.983 
11 -69.1138 
12 55.9956 
13 -115.849 
14 119.542 
15 1.51468 
16 55.0755 
17 165.82 
18 30.1405 
19 -84.7675 
20 160.183 
21 45.2753 
22 -88.6495 
23 156.443 
24 -81.7552 
25 44.3509 
26 159.027 
27 167.505 
28 47.5674 
29 -71.3536 
30 75.5089 
31 -53.5198 
32 -166.708 
33 70.3363 
34 -42.8517 
35 -160.635 
36 -175.366 
37 71.4461 
38 -46.3372 
39 -178.319 
40 59.5066 
41 -56.3815 
42 -169.586 
43 -49.6111 
44 67.5186 
45 -97.5262 
46 -101.748 
47 141.9 
48 22.6039 
49 11.0176 
50 -105.334 
51 135.37 
52 138.122 
53 21.7701 
54 -122.05 
55 116.039 
56 2.50856 
57 143.637 
58 -93.7574 
59 26.1173 
60 -77.5453 
61 166.684 
62 41.1727 
63 -77.133 
64 157.355 
65 38.6375 
66 51.9933 
67 -73.5182 
68 167.764 
69 -171.305 
70 68.1952 
71 -49.6852 
72 -179.361 
73 69.1645 
74 -56.838 
75 -162.092 
76 -41.3857 
77 81.1648 
78 21.6411 
79 -104.559 
80 138.654 
81 -130.552 
82 108.196 
83 -9.18462 
84 -128.056 
85 114.563 
86 -6.80478 
87 -12.5314 
88 -129.912 
89 108.72 
90 -161.633 
91 72.774 
92 -49.3389 
93 58.6323 
94 -61.3537 
95 -178.884 
96 61.0994 
97 -56.4307 
98 -178.915 
99 177.914 
100 60.3835 
101 -62.1004 
102 -25.5621 
103 93.956 
104 -146.257 
105 -97.662 
106 27.8712 
107 142.747 
108 -70.07 
109 163.371 
110 48.0601 
111 -72.7817 
112 171.907 
113 53.7774 
114 49.6839 
115 -65.627 
116 176.243 
ITEM: TIMESTEP
33300
ITEM: NUMBER OF ENTRIES
116
ITEM: BOX BOUNDS pp pp pp
-2.1659880786948438e+01 2.1659880786948438e+01
-1.1125721167720103e+01 1.1125721167720103e+01
-1.1125721167720103e+01 1.1125721167720103e+01
ITEM: ENTRIES index c_dphi
1 -54.9132 
2 176.583 
3 59.0764 
4 -63.0941 
5 179.399 
6 65.4095 
7 60.731 
8 -56.7758 
9 -170.765 
10 170.285 
11 -54.6298 
12 56.5841 
13 -61.4956 
14 175.55 
15 61.304 
16 -12.0991 
17 114.022 
18 7.92986 
19 -112.334 
20 134.665 
21 14.4005 
22 -115.14 
23 124.596 
24 -113.513 
25 4.44141 
26 129.597 
27 -176.398 
28 55.9319 
29 -58.266 
30 121.074 
31 5.17935 
32 -110.285 
33 127.556 
34 12.0916 
35 -116.549 
36 -116.408 
37 128.127 
38 -0.513557 
39 -169.419 
40 68.4709 
41 -45.9192 
42 158.751 
43 -84.4377 
44 39.2331 
45 -111.786 
46 -111.533 
47 130.04 
48 8.4406 
49 0.752755 
50 -117.674 
51 120.727 
52 128.24 
53 9.8138 
54 -98.4924 
55 147.165 
56 29.5759 
57 111.724 
58 -131.203 
59 -17.4594 
60 -68.7769 
61 -176.251 
62 59.7898 
63 -54.574 
64 -178.533 
65 52.9005 
66 65.2844 
67 -58.6743 
68 172.759 
69 176.841 
70 52.6932 
71 -66.1339 
72 -177.774 
73 56.4761 
74 -62.1911 
75 -172.824 
76 -54.5143 
77 65.5219 
78 42.1316 
79 -73.0873 
80 163.95 
81 -94.1617 
82 147.831 
83 23.5577 
84 -85.8659 
85 149.861 
86 32.1411 
87 23.125 
88 -101.149 
89 141.132 
90 175.735 
91 52.125 
92 -69.1427 
93 75.283 
94 -47.0904 
95 -168.882 
96 74.0411 
97 -47.7507 
98 -163.586 
99 -165.27 
100 72.9383 
101 -42.8966 
102 8.963 
103 138.713 
104 -110.077 
105 -108.177 
106 21.4735 
107 141.636 
108 -53.0156 
109 178.826 
110 54.3866 
111 -65.6544 
112 169.906 
113 62.5042 
114 55.9714 
115 -68.4677 
116 -175.87 
ITEM: TIMESTEP
33400
ITEM: NUMBER OF ENTRIES
116
ITEM: BOX BOUNDS pp pp pp
-2.1659880786948438e+01 2.1659880786948438e+01
-1.1125721167720103e+01 1.1125721167720103e+01
-1.1125721167720103e+01 1.1125721167720103e+01
ITEM: ENTRIES index c_dphi
1 -13.7547 
2 -137.946 
3 110.761 
4 -11.061 
5 -122.354 
6 113.131 
7 117.967 
8 6.67444 
9 -117.841 
10 -178.844 
11 -57.9971 
12 55.6164 
13 -89.7619 
14 155.566 
15 28.6903 
16 -47.7628 
17 74.2064 
18 -0.0553817 
19 -120.751 
20 113.789 
21 -6.90684 
22 -123.771 
23 115.534 
24 -80.4928 
25 39.7679 
26 162.994 
27 -146.665 
28 86.1146 
29 -32.9174 
30 137.73 
31 13.4395 
32 -107.474 
33 132.937 
34 12.0234 
35 -102.772 
36 -106.796 
37 132.29 
38 17.4947 
39 -168.672 
40 70.9129 
41 -47.7016 
42 150.33 
43 -92.9579 
44 21.1338 
45 -105.179 
46 -95.2973 
47 148.604 
48 17.6456 
49 18.2053 
50 -97.893 
51 131.148 
52 141.878 
53 25.7798 
54 -105.33 
55 135.182 
56 18.221 
57 139.411 
58 -104.061 
59 29.7796 
60 -79.2458 
61 159.225 
62 41.0394 
63 -84.9406 
64 156.874 
65 36.589 
66 31.1035 
67 -87.0817 
68 152.633 
69 175.969 
70 51.7498 
71 -56.3295 
72 171.11 
73 53.205 
74 -75.1144 
75 -167.351 
76 -42.7089 
77 80.6097 
78 16.1856 
79 -106.724 
80 129.587 
81 -120.655 
82 115.078 
83 -8.16428 
84 -123.788 
85 112.97 
86 0.478909 
87 -6.59818 
88 -129.841 
89 117.668 
90 -172.655 
91 65.494 
92 -53.2267 
93 56.5324 
94 -73.1873 
95 174.157 
96 42.5385 
97 -70.1174 
98 172.258 
99 168.034 
100 55.3777 
101 -62.2468 
102 152.146 
103 -78.8876 
104 38.3714 
105 -108.632 
106 3.48908 
107 123.666 
108 -61.0225 
109 178.466 
110 64.2522 
111 -53.977 
112 -168.19 
113 66.535 
114 62.2259 
115 -51.9874 
116 -177.262 
ITEM: TIMESTEP
33500
ITEM: NUMBER OF ENTRIES
116
ITEM: BOX BOUNDS pp pp pp
-2.1659880786948438e+01 2.1659880786948438e+01
-1.1125721167720103e+01 1.1125721167720103e+01
-1.1125721167720103e+01 1.1125721167720103e+01
ITEM: ENTRIES index c_dphi
1 9.29765 
2 -110.087 
3 123.077 
4 11.5704 
5 -115.266 
6 130.955 
7 129.105 
8 2.26867 
9 -111.511 
10 167.523 
11 -70.7936 
12 55.1861 
13 -103.053 
14 143.529 
15 16.4655 
16 -49.1264 
17 67.432 
18 1.54112 
19 -114.522 
20 118.15 
21 2.08736 
22 -124.761 
23 119.176 
24 -77.145 
25 52.3622 
26 168.303 
27 -156.655 
28 75.8159 
29 -40.8001 
30 103.512 
31 -29.6401 
32 -146.592 
33 95.2424 
34 -21.7093 
35 -131.606 
36 -145.042 
37 98.0059 
38 -11.8904 
39 -171.912 
40 66.6635 
41 -64.0646 
42 167.586 
43 -64.2902 
44 50.5949 
45 -95.3859 
46 -103.188 
47 134.812 
48 21.2785 
49 10.003 
50 -111.997 
51 134.469 
52 140.148 
53 18.1473 
54 -106.239 
55 136.18 
56 21.7062 
57 175.149 
58 -54.1179 
59 59.6472 
60 -65.5173 
61 169.975 
62 47.8334 
63 -65.2144 
64 172.644 
65 59.293 
66 56.0516 
67 -66.0903 
68 -179.441 
69 179.04 
70 60.3596 
71 -60.251 
72 157.681 
73 32.0271 
74 -91.6058 
75 -165.244 
76 -42.9137 
77 75.0987 
78 28.2076 
79 -91.283 
80 135.617 
81 -146.155 
82 97.867 
83 -31.5826 
84 -141.726 
85 88.8247 
86 -25.748 
87 -16.9023 
88 -146.352 
89 99.0755 
90 175.469 
91 59.1404 
92 -60.5335 
93 66.6219 
94 -64.9143 
95 -178.883 
96 54.3406 
97 -59.6282 
98 -174.123 
99 168.191 
100 54.2222 
101 -60.2728 
102 155.318 
103 -76.1036 
104 40.1854 
105 -109.735 
106 14.8952 
107 124.799 
108 -53.9518 
109 -177.056 
110 69.4343 
111 -51.9363 
112 -165.446 
113 71.1678 
114 68.7731 
115 -44.7368 
116 -168.123 
ITEM: TIMESTEP
33600
ITEM: NUMBER OF ENTRIES
116
ITEM: BOX BOUNDS pp pp pp
-2.1659880786948438e+01 2.1659880786948438e+01
-1.1125721167720103e+01 1.1125721167720103e+01
-1.1125721167720103e+01 1.1125721167720103e+01
ITEM: ENTRIES index c_dphi
1 -21.3378 
2 -146.019 
3 96.3481 
4 -23.8028 
5 -141.436 
6 100.878 
7 97.8854 
8 -19.7476 
9 -137.433 
10 167.457 
11 -77.0456 
12 46.1436 
13 -87.5023 
14 158.292 
15 40.842 
16 -48.3947 
17 75.9643 
18 43.9488 
19 -73.6662 
20 157.195 
21 39.5796 
22 -83.5627 
23 158.822 
24 -95.5666 
25 26.0481 
26 153.164 
27 168.229 
28 47.7601 
29 -68.3655 
30 90.3376 
31 -36.9014 
32 -155.215 
33 79.7461 
34 -38.5672 
35 -153.015 
36 -165.658 
37 76.0289 
38 -38.4188 
39 -144.166 
40 95.6079 
41 -19.0345 
42 151.78 
43 -87.036 
44 29.6182 
45 -117.875 
46 -108.665 
47 130.191 
48 8.26869 
49 -0.486813 
50 -121.631 
51 116.447 
52 125.192 
53 4.0477 
54 -100.175 
55 133.781 
56 24.5632 
57 147.995 
58 -96.66 
59 16.4075 
60 -85.2919 
61 161.089 
62 46.5117 
63 -79.3981 
64 166.024 
65 34.2205 
66 42.1992 
67 -72.3786 
68 155.818 
69 -160.286 
70 77.0577 
71 -42.6093 
72 -178.091 
73 65.8212 
74 -60.2678 
75 159.421 
76 -76.3832 
77 48.2841 
78 -38.0982 
79 -166.864 
80 82.4591 
81 -117.83 
82 123.656 
83 -3.09147 
84 -111.633 
85 121.62 
86 6.88063 
87 9.28839 
88 -117.459 
89 127.802 
90 153.877 
91 29.2213 
92 -85.0541 
93 78.8508 
94 -48.0927 
95 -159.76 
96 77.2432 
97 -34.4244 
98 -155.813 
99 -167.332 
100 81.0007 
101 -40.3883 
102 70.4734 
103 -164.573 
104 -53.1921 
105 -105.025 
106 24.5813 
107 136.898 
108 -55.7619 
109 -176.446 
110 57.1076 
111 -55.5477 
112 178.006 
113 65.1369 
114 68.4597 
115 -57.9863 
116 -170.856 
ITEM: TIMESTEP
33700
ITEM: NUMBER OF ENTRIES
116
ITEM: BOX BOUNDS pp pp pp
-2.1659880786948438e+01 2.1659880786948438e+01
-1.1125721167720103e+01 1.1125721167720103e+01
-1.1125721167720103e+01 1.1125721167720103e+01
ITEM: ENTRIES index c_dphi
1 -14.5777 
2 -136.515 
3 113.877 
4 -19.4702 
5 -129.078 
6 102.467 
7 107.996 
8 -1.61162 
9 -130.066 
10 -169.922 
11 -41.0265 
12 66.2925 
13 -89.3949 
14 153.972 
15 31.8049 
16 -58.3856 
17 57.4121 
18 69.4139 
19 -50.3021 
20 -173.659 
21 66.6251 
22 -56.3488 
23 -176.065 
24 -78.9621 
25 30.7715 
26 147.858 
27 141.033 
28 24.7155 
29 -103.316 
30 77.6115 
31 -29.7914 
32 -148.681 
33 86.0735 
34 -32.8161 
35 -166.524 
36 -160.96 
37 80.1506 
38 -53.5569 
39 -177.634 
40 67.7279 
41 -48.2005 
42 153.64 
43 -80.7324 
44 35.6488 
45 -74.4175 
46 -72.0613 
47 168.675 
48 48.492 
49 37.8644 
50 -81.3992 
51 158.418 
52 165.029 
53 45.7656 
54 -113.847 
55 129.97 
56 15.0972 
57 146.017 
58 -100.662 
59 23.5575 
60 -106.084 
61 139.863 
62 20.2671 
63 -106.978 
64 133.427 
65 7.07512 
66 7.68288 
67 -111.913 
68 121.736 
69 -152.533 
70 88.9617 
71 -27.3185 
72 -169.822 
73 74.556 
74 -46.4221 
75 -179.524 
76 -63.0035 
77 61.8195 
78 15.0422 
79 -119.266 
80 130.919 
81 -129.706 
82 118.835 
83 -17.34 
84 -121.367 
85 102.458 
86 -9.90815 
87 -4.74758 
88 -140.922 
89 106.712 
90 156.358 
91 38.6055 
92 -84.6239 
93 49.6411 
94 -69.6689 
95 168.92 
96 47.8404 
97 -73.5709 
98 167.15 
99 169.217 
100 47.8054 
101 -71.4733 
102 57.593 
103 178.252 
104 -66.8047 
105 -82.681 
106 36.1224 
107 156.034 
108 -80.9064 
109 161.656 
110 37.5078 
111 -65.9468 
112 169.905 
113 51.491 
114 48.3741 
115 -75.7739 
116 165.812 
ITEM: TIMESTEP
33800
ITEM: NUMBER OF ENTRIES
116
ITEM: BOX BOUNDS pp pp pp
-2.1659880786948438e+01 2.1659880786948438e+01
-1.1125721167720103e+01 1.1125721167720103e+01
-1.1125721167720103e+01 1.1125721167720103e+01
ITEM: ENTRIES index c_dphi
1 -5.29603 
2 -125.103 
3 112.243 
4 -7.19561 
5 -129.85 
6 112.611 
7 104.983 
8 -17.6713 
9 -135.21 
10 -166.202 
11 -55.545 
12 74.4469 
13 -124.381 
14 106.955 
15 -9.27029 
16 -41.6004 
17 73.0271 
18 57.2112 
19 -65.1039 
20 -173.693 
21 63.9924 
22 -59.8032 
23 177.882 
24 -73.0511 
25 56.7832 
26 174.092 
27 -177.946 
28 66.4396 
29 -45.6732 
30 104.295 
31 -25.6507 
32 -147.187 
33 95.9295 
34 -25.6066 
35 -134.125 
36 -152.915 
37 85.549 
38 -22.9689 
39 -168.506 
40 70.6116 
41 -47.7266 
42 135.498 
43 -101.99 
44 12.2951 
45 -115.61 
46 -122.892 
47 128.305 
48 2.43059 
49 -5.591 
50 -114.394 
51 119.732 
52 119.067 
53 10.264 
54 -89.654 
55 152.123 
56 33.419 
57 166.052 
58 -73.319 
59 49.1758 
60 -90.3265 
61 145.404 
62 28.9169 
63 -91.9315 
64 151.581 
65 32.3379 
66 29.8525 
67 -86.6348 
68 154.122 
69 171.398 
70 54.0342 
71 -69.1789 
72 168.431 
73 52.9709 
74 -69.547 
75 -178.157 
76 -62.0367 
77 61.9629 
78 51.1502 
79 -68.0177 
80 173.91 
81 -167.679 
82 78.1148 
83 -50.3779 
84 -166.292 
85 65.2154 
86 -52.0857 
87 -43.2298 
88 -171.723 
89 70.9764 
90 -177.561 
91 65.9448 
92 -52.8538 
93 56.7423 
94 -62.5198 
95 176.536 
96 52.5408 
97 -68.4033 
98 171.803 
99 171.582 
100 50.6379 
101 -69.1559 
102 -9.21757 
103 110.424 
104 -126.996 
105 -86.4632 
106 40.9305 
107 160.847 
108 -56.2305 
109 174.759 
110 64.7015 
111 -60.9294 
112 -170.987 
113 68.0811 
114 48.88 
115 -61.1774 
116 177.891 
ITEM: TIMESTEP
33900
ITEM: NUMBER OF ENTRIES
116
ITEM: BOX BOUNDS pp pp pp
-2.1659880786948438e+01 2.1659880786948438e+01
-1.1125721167720103e+01 1.1125721167720103e+01
-1.1125721167720103e+01 1.1125721167720103e+01
ITEM: ENTRIES index c_dphi
1 16.707 
2 -91.632 
3 148.464 
4 26.2381 
5 -93.6662 
6 134.577 
7 142.045 
8 22.1408 
9 -109.616 
10 -174.422 
11 -64.9992 
12 57.4025 
13 -131.564 
14 105.109 
15 -10.7751 
16 -39.1381 
17 79.9496 
18 57.2381 
19 -70.9579 
20 174.209 
21 46.0126 
22 -63.5888 
23 168.215 
24 -94.2354 
25 30.1009 
26 146.01 
27 171.815 
28 50.095 
29 -72.2797 
30 93.1728 
31 -39.2718 
32 -153.372 
33 85.9874 
34 -28.1124 
35 -141.568 
36 -155.014 
37 90.8861 
38 -22.5695 
39 -166.878 
40 68.6146 
41 -52.0819 
42 163.922 
43 -80.9883 
44 39.0169 
45 -109.18 
46 -98.9964 
47 135.585 
48 8.50791 
49 16.4312 
50 -108.987 
51 123.935 
52 143.315 
53 17.8966 
54 -110.922 
55 132.202 
56 12.9509 
57 169.351 
58 -67.2959 
59 52.5365 
60 -92.8814 
61 140.785 
62 24.8917 
63 -96.6255 
64 147.481 
65 29.7077 
66 25.1617 
67 -90.7321 
68 151.495 
69 170.41 
70 50.4407 
71 -77.4356 
72 173.958 
73 54.5084 
74 -71.8377 
75 -157.787 
76 -43.453 
77 81.4603 
78 60.9079 
79 -63.0982 
80 -179.151 
81 -122.686 
82 120.662 
83 -5.72499 
84 -127.882 
85 105.732 
86 -11.2292 
87 8.6989 
88 -117.688 
89 125.351 
90 115.736 
91 -5.5363 
92 -119.032 
93 55.5962 
94 -63.2807 
95 -179.213 
96 62.1055 
97 -53.8265 
98 -179.018 
99 177.389 
100 61.4575 
101 -63.7336 
102 89.566 
103 -148.157 
104 -29.6773 
105 -78.7532 
106 41.6981 
107 162.22 
108 -84.0097 
109 151.068 
110 37.9357 
111 -87.0389 
112 159.829 
113 37.8834 
114 32.3639 
115 -80.7684 
116 157.286 
ITEM: TIMESTEP
34000
ITEM: NUMBER OF ENTRIES
116
ITEM: BOX BOUNDS pp pp pp
-2.1659880786948438e+01 2.1659880786948438e+01
-1.1125721167720103e+01 1.1125721167720103e+01
-1.1125721167720103e+01 1.1125721167720103e+01
ITEM: ENTRIES index c_dphi
1 13.8118 
2 -111.852 
3 133.361 
4 4.62566 
5 -110.161 
6 130.29 
7 124.833 
8 10.046 
9 -109.503 
10 -165.281 
11 -41.8033 
12 72.3208 
13 -88.5522 
14 150.654 
15 36.3115 
16 -86.5828 
17 32.352 
18 30.84 
19 -87.1012 
20 145.324 
21 27.3833 
22 -96.9723 
23 145.086 
24 -86.6179 
25 27.9261 
26 149.015 
27 -179.032 
28 72.6266 
29 -53.2598 
30 89.9889 
31 -24.1954 
32 -144.939 
33 97.3657 
34 -23.3775 
35 -148.45 
36 -150.254 
37 89.0026 
38 -36.07 
39 -177.008 
40 67.6959 
41 -50.8049 
42 172.292 
43 -70.6501 
44 51.8281 
45 -79.5152 
46 -67.4204 
47 172.435 
48 51.6182 
49 36.9518 
50 -83.1929 
51 155.99 
52 161.446 
53 41.3015 
54 -100.487 
55 130.221 
56 26.6414 
57 155.237 
58 -85.1057 
59 33.9127 
60 -88.0978 
61 147.548 
62 35.7467 
63 -87.3996 
64 160.799 
65 36.9544 
66 25.2215 
67 -86.58 
68 149.575 
69 177.962 
70 55.3619 
71 -71.0427 
72 165.61 
73 44.3533 
74 -75.9656 
75 179.462 
76 -60.2962 
77 54.4087 
78 49.9693 
79 -68.5965 
80 176.348 
81 -96.3537 
82 144.299 
83 29.5802 
84 -90.3289 
85 154.953 
86 29.0185 
87 29.3045 
88 -85.4141 
89 148.652 
90 114.477 
91 -1.11995 
92 -122.096 
93 41.9708 
94 -74.4984 
95 169.117 
96 48.2709 
97 -68.1139 
98 164.74 
99 166.48 
100 50.0951 
101 -77.0509 
102 43.459 
103 161.624 
104 -79.718 
105 -87.8866 
106 38.822 
107 159.596 
108 -70.4947 
109 162.283 
110 37.1427 
111 -80.9697 
112 153.89 
113 46.2522 
114 37.0762 
115 -88.0645 
116 164.298 
ITEM: TIMESTEP
34100
ITEM: NUMBER OF ENTRIES
116
ITEM: BOX BOUNDS pp pp pp
-2.1659880786948438e+01 2.1659880786948438e+01
-1.1125721167720103e+01 1.1125721167720103e+01
-1.1125721167720103e+01 1.1125721167720103e+01
ITEM: ENTRIES index c_dphi
1 40.3919 
2 -84.9267 
3 155.196 
4 39.1036 
5 -80.7738 
6 164.422 
7 150.947 
8 31.0693 
9 -83.7348 
10 -62.6825 
11 -178.109 
12 67.7392 
13 -115.054 
14 17.2671 
15 15.3818 
16 -104.609 
17 124.089 
18 4.09824 
19 -109.811 
20 130.198 
21 -154.322 
22 -22.8067 
23 89.5961 
24 -126.248 
25 -10.0745 
26 113.475 
27 167.126 
28 46.64 
29 -73.2698 
30 119.308 
31 5.42162 
32 -119.812 
33 126.202 
34 0.967867 
35 -119.912 
36 -114.084 
37 120.682 
38 -0.197736 
39 177.264 
40 62.2254 
41 -60.7908 
42 175.815 
43 -60.2599 
44 54.2601 
45 -85.391 
46 -90.2592 
47 156.277 
48 34.2454 
49 26.7008 
50 -86.7627 
51 151.205 
52 150.104 
53 36.6408 
54 -82.519 
55 162.016 
56 40.065 
57 153.944 
58 -82.6267 
59 35.5825 
60 -111.865 
61 124.314 
62 7.23361 
63 -115.299 
64 127.621 
65 8.52229 
66 1.16682 
67 -115.913 
68 124.988 
69 170.395 
70 57.6639 
71 -64.9366 
72 175.277 
73 59.0834 
74 -62.0617 
75 -161.893 
76 -48.8573 
77 75.5167 
78 -72.4254 
79 169.351 
80 52.155 
81 -73.0253 
82 169.779 
83 45.1984 
84 42.5727 
85 -74.6232 
86 160.796 
87 -81.3333 
88 32.2678 
89 144.583 
90 74.8446 
91 -48.441 
92 -166.372 
93 62.8073 
94 -56.7375 
95 172.098 
96 67.6736 
97 -63.4909 
98 -172.782 
99 -177.836 
100 50.9999 
101 -58.2907 
102 80.3375 
103 -152.349 
104 -31.9757 
105 42.6347 
106 -72.0884 
107 158.617 
108 -73.8713 
109 175.016 
110 58.6771 
111 -68.9077 
112 174.753 
113 42.205 
114 62.4741 
115 -53.8649 
116 173.587 
ITEM: TIMESTEP
34200
ITEM: NUMBER OF ENTRIES
116
ITEM: BOX BOUNDS pp pp pp
-2.1659880786948438e+01 2.1659880786948438e+01
-1.1125721167720103e+01 1.1125721167720103e+01
-1.1125721167720103e+01 1.1125721167720103e+01
ITEM: ENTRIES index c_dphi
1 58.9773 
2 -69.6243 
3 163.045 
4 56.2791 
5 -71.0511 
6 -175.119 
7 161.311 
8 33.9807 
9 -70.0875 
10 -84.6465 
11 157.372 
12 40.7729 
13 -120.446 
14 3.82566 
15 9.25153 
16 -112.414 
17 121.005 
18 -0.661268 
19 -108.1 
20 130.234 
21 -142.957 
22 -26.7042 
23 95.0154 
24 -110.119 
25 19.5512 
26 135.95 
27 -167.67 
28 65.6555 
29 -41.0182 
30 113.144 
31 -16.2412 
32 -138.668 
33 106.334 
34 -16.0932 
35 -124.282 
36 -133.73 
37 103.843 
38 -4.3455 
39 175.869 
40 57.5638 
41 -70.2886 
42 -179.248 
43 -60.1102 
44 54.8195 
45 -83.9315 
46 -85.1073 
47 155.047 
48 35.7322 
49 35.7226 
50 -84.1227 
51 156.562 
52 155.229 
53 35.3836 
54 -98.5413 
55 139.294 
56 13.5344 
57 -169.827 
58 -49.1405 
59 68.2715 
60 -142.779 
61 92.8201 
62 -24.518 
63 -146.909 
64 95.7529 
65 -22.5077 
66 -33.4429 
67 -150.781 
68 90.9584 
69 153.966 
70 35.082 
71 -85.8601 
72 -148.959 
73 90.7592 
74 -32.3055 
75 -167.204 
76 -47.4623 
77 69.7417 
78 -86.5811 
79 148.458 
80 37.6316 
81 -93.5009 
82 155.673 
83 31.4603 
84 27.0318 
85 -83.7944 
86 151.993 
87 -73.7839 
88 49.9449 
89 163.765 
90 78.2996 
91 -47.9416 
92 -165.794 
93 43.9346 
94 -68.4441 
95 175.671 
96 54.3908 
97 -61.4943 
98 166.77 
99 -178.953 
100 65.1619 
101 -66.5743 
102 25.367 
103 139.387 
104 -106.801 
105 80.2577 
106 -30.7873 
107 -157.322 
108 -69.6777 
109 166.994 
110 47.1509 
111 -82.8456 
112 157.312 
113 40.483 
114 39.479 
115 -80.3638 
116 162.808 
ITEM: TIMESTEP
34300
ITEM: NUMBER OF ENTRIES
116
ITEM: BOX BOUNDS pp pp pp
-2.1659880786948438e+01 2.1659880786948438e+01
-1.1125721167720103e+01 1.1125721167720103e+01
-1.1125721167720103e+01 1.1125721167720103e+01
ITEM: ENTRIES index c_dphi
1 84.8859 
2 -34.7802 
3 -152.662 
4 84.6239 
5 -33.2583 
6 -155.71 
7 -158.096 
8 84.0213 
9 -38.4304 
10 -85.4903 
11 143.857 
12 39.0054 
13 -154.469 
14 -40.8762 
15 4.59785 
16 -113.086 
17 128.765 
18 11.0815 
19 -120.654 
20 121.663 
21 -177.769 
22 -48.8525 
23 66.4423 
24 -125.787 
25 -14.7005 
26 111.599 
27 -144.228 
28 100.091 
29 -23.4258 
30 138.771 
31 19.7833 
32 -99.1661 
33 147.576 
34 28.6263 
35 -93.4362 
36 -96.0211 
37 145.03 
38 22.9672 
39 -154.294 
40 80.1385 
41 -41.0552 
42 165.352 
43 -80.9192 
44 48.9092 
45 -131.82 
46 -119.281 
47 121.89 
48 -3.38035 
49 -6.61559 
50 -125.444 
51 109.285 
52 112.28 
53 -6.54907 
54 -74.4824 
55 154.492 
56 43.4751 
57 -130.432 
58 -16.5532 
59 104.376 
60 -134.83 
61 105.419 
62 -17.6999 
63 -135.3 
64 101.581 
65 -15.549 
66 -18.3489 
67 -141.468 
68 101.402 
69 157.925 
70 42.4312 
71 -83.5406 
72 -153.013 
73 81.7012 
74 -34.3123 
75 -179.105 
76 -61.818 
77 57.7913 
78 -115.935 
79 121.092 
80 5.81436 
81 -109.623 
82 135.1 
83 13.3506 
84 5.42303 
85 -109.855 
86 128.396 
87 -98.9516 
88 18.5164 
89 136.761 
90 87.2343 
91 -25.0331 
92 -139.443 
93 64.6829 
94 -55.1832 
95 -172.619 
96 55.97 
97 -61.4662 
98 175.836 
99 173.636 
100 56.2 
101 -66.4978 
102 66.9039 
103 -168.464 
104 -55.2801 
105 -16.1709 
106 -129.83 
107 114.87 
108 -49.1618 
109 -170.065 
110 67.7702 
111 -60.7402 
112 177.095 
113 60.1629 
114 61.5956 
115 -60.5693 
116 -177.501 
ITEM: TIMESTEP
34400
ITEM: NUMBER OF ENTRIES
116
ITEM: BOX BOUNDS pp pp pp
-2.1659880786948438e+01 2.1659880786948438e+01
-1.1125721167720103e+01 1.1125721167720103e+01
-1.1125721167720103e+01 1.1125721167720103e+01
ITEM: ENTRIES index c_dphi
1 86.9514 
2 -34.3852 
3 -148.461 
4 85.5258 
5 -28.5501 
6 -153.138 
7 -151.237 
8 94.6867 
9 -29.9008 
10 -115.555 
11 125.482 
12 -1.89869 
13 -170.688 
14 -54.5787 
15 32.0888 
16 -95.5145 
17 148.344 
18 20.7408 
19 -90.4761 
20 141.921 
21 -171.539 
22 -53.3414 
23 64.1066 
24 -94.7406 
25 20.5244 
26 135.007 
27 -113.55 
28 124.826 
29 4.1923 
30 163.203 
31 42.8259 
32 -64.8533 
33 164.776 
34 57.0969 
35 -74.8471 
36 -78.5996 
37 173.721 
38 41.7773 
39 -174.027 
40 64.602 
41 -51.9763 
42 123.628 
43 -115.119 
44 8.09397 
45 -148.568 
46 -148.154 
47 88.7102 
48 -25.2206 
49 -28.522 
50 -151.658 
51 94.4114 
52 88.4988 
53 -34.6371 
54 -68.7576 
55 172.314 
56 49.6448 
57 -138.568 
58 -23.1412 
59 101.477 
60 -132.132 
61 104.462 
62 -20.5532 
63 -130.784 
64 104.201 
65 -7.37751 
66 -15.5921 
67 -140.607 
68 107.814 
69 153.483 
70 28.1329 
71 -85.4646 
72 -158.39 
73 81.2639 
74 -37.359 
75 172.202 
76 -70.6203 
77 44.5106 
78 -126.861 
79 112.701 
80 3.14545 
81 -127.597 
82 122.848 
83 -7.15896 
84 -1.92629 
85 -111.482 
86 118.511 
87 -120.803 
88 5.18529 
89 124.584 
90 87.2309 
91 -37.1479 
92 -159.659 
93 78.7087 
94 -49.3937 
95 -150.487 
96 73.9194 
97 -27.1736 
98 -157.978 
99 -163.743 
100 95.1642 
101 -35.6403 
102 57.1087 
103 -172.691 
104 -58.0785 
105 12.3342 
106 -100.488 
107 141.121 
108 -67.4838 
109 161.159 
110 49.2258 
111 -88.1528 
112 159.914 
113 43.2048 
114 33.6835 
115 -78.2494 
116 165.041 
ITEM: TIMESTEP
34500
ITEM: NUMBER OF ENTRIES
116
ITEM: BOX BOUNDS pp pp pp
-2.1659880786948438e+01 2.1659880786948438e+01
-1.1125721167720103e+01 1.1125721167720103e+01
-1.1125721167720103e+01 1.1125721167720103e+01
ITEM: ENTRIES index c_dphi
1 67.2727 
2 -45.8867 
3 -175.982 
4 70.9072 
5 -59.1883 
6 -175.933 
7 -176.05 
8 53.8549 
9 -62.8902 
10 -126.359 
11 113.33 
12 2.72667 
13 -152.601 
14 -30.824 
15 30.2063 
16 -94.5979 
17 149.589 
18 24.7849 
19 -96.3898 
20 138.806 
21 172.936 
22 -74.338 
23 55.6985 
24 -39.2563 
25 83.424 
26 -160.35 
27 -135.914 
28 108.032 
29 -13.0201 
30 163.674 
31 39.9614 
32 -69.2034 
33 164.215 
34 55.0501 
35 -72.0725 
36 -78.296 
37 172.539 
38 45.4166 
39 153.477 
40 33.6381 
41 -88.9502 
42 97.0918 
43 -143.601 
44 -26.677 
45 -168.247 
46 -169.06 
47 80.5678 
48 -47.8622 
49 -49.8345 
50 -160.207 
51 71.3629 
52 70.556 
53 -39.8166 
54 -89.6423 
55 147.709 
56 27.9053 
57 -115.186 
58 11.8307 
59 126.624 
60 -108.433 
61 123.301 
62 0.516505 
63 -116.088 
64 121.128 
65 12.1783 
66 -1.72259 
67 -124.507 
68 126.543 
69 167.999 
70 47.5874 
71 -73.2838 
72 -176.979 
73 63.1225 
74 -46.2033 
75 175.878 
76 -59.5585 
77 56.8084 
78 -149.818 
79 85.2869 
80 -27.8652 
81 -160.374 
82 86.4741 
83 -35.4784 
84 -45.7892 
85 -158.941 
86 79.1061 
87 -142.402 
88 -19.5278 
89 100.909 
90 86.2032 
91 -34.1489 
92 -151.667 
93 77.5894 
94 -43.0149 
95 -178.218 
96 67.5905 
97 -67.6131 
98 -171.805 
99 -170.099 
100 54.6971 
101 -49.4951 
102 94.2487 
103 -137.159 
104 -10.0542 
105 5.04218 
106 -104.53 
107 127.463 
108 -35.1609 
109 -159.442 
110 85.7815 
111 -46.0076 
112 -160.785 
113 78.2731 
114 72.1441 
115 -42.6328 
116 -163.575 
ITEM: TIMESTEP
34600
ITEM: NUMBER OF ENTRIES
116
ITEM: BOX BOUNDS pp pp pp
-2.1659880786948438e+01 2.1659880786948438e+01
-1.1125721167720103e+01 1.1125721167720103e+01
-1.1125721167720103e+01 1.1125721167720103e+01
ITEM: ENTRIES index c_dphi
1 52.5092 
2 -62.8321 
3 -176.351 
4 47.7095 
5 -65.8096 
6 163.051 
7 169.721 
8 56.2018 
9 -74.9377 
10 -125.71 
11 115.476 
12 4.36564 
13 -157.53 
14 -30.2306 
15 48.821 
16 -71.8812 
17 163.345 
18 42.6432 
19 -75.0634 
20 164.234 
21 171.531 
22 -71.0411 
23 50.0916 
24 -81.3346 
25 40.0896 
26 165.031 
27 -122.348 
28 128.549 
29 5.31329 
30 169.068 
31 40.8017 
32 -80.1347 
33 162.781 
34 41.8449 
35 -68.9521 
36 -79.0231 
37 160.04 
38 49.2434 
39 -171.578 
40 69.9999 
41 -55.3776 
42 98.1302 
43 -150.067 
44 -23.5467 
45 -165.523 
46 -165.481 
47 78.848 
48 -47.9651 
49 -46.5643 
50 -162.235 
51 70.952 
52 76.9609 
53 -38.7096 
54 -79.2413 
55 158.673 
56 39.8892 
57 -126.885 
58 -8.40611 
59 107.703 
60 -104.95 
61 133.784 
62 17.6057 
63 -106.563 
64 137.259 
65 14.7032 
66 8.15167 
67 -108.026 
68 129.418 
69 178.386 
70 52.6262 
71 -59.2543 
72 157.045 
73 45.7992 
74 -73.9635 
75 176.5 
76 -56.4216 
77 55.909 
78 -175.538 
79 57.5036 
80 -54.5771 
81 175.619 
82 63.5384 
83 -57.4225 
84 -65.9729 
85 -178.054 
86 60.9855 
87 -160.458 
88 -43.4717 
89 75.5776 
90 115.845 
91 -14.3466 
92 -129.052 
93 55.8668 
94 -65.4337 
95 -176.762 
96 63.7926 
97 -47.5358 
98 -174.907 
99 -174.223 
100 74.4488 
101 -52.9224 
102 51.7565 
103 177.078 
104 -66.6167 
105 60.656 
106 -54.1528 
107 -170.118 
108 -85.5735 
109 157.299 
110 41.1014 
111 -82.0025 
112 161.8 
113 35.1253 
114 29.071 
115 -87.1263 
116 146.199 
ITEM: TIMESTEP
34700
ITEM: NUMBER OF ENTRIES
116
ITEM: BOX BOUNDS pp pp pp
-2.1659880786948438e+01 2.1659880786948438e+01
-1.1125721167720103e+01 1.1125721167720103e+01
-1.1125721167720103e+01 1.1125721167720103e+01
ITEM: ENTRIES index c_dphi
1 78.0126 
2 -51.9756 
3 -165.831 
4 76.1115 
5 -37.7442 
6 -153.9 
7 -164.261 
8 81.8832 
9 -34.2729 
10 -106.967 
11 127.84 
12 9.2092 
13 162.821 
14 -86.2068 
15 49.4769 
16 -60.9162 
17 171.219 
18 60.8259 
19 -63.6363 
20 -174.029 
21 133.225 
22 -102.538 
23 8.08786 
24 -105.767 
25 21.7967 
26 142.788 
27 -100.815 
28 133.682 
29 11.2027 
30 161.73 
31 34.622 
32 -90.4444 
33 162.814 
34 37.7477 
35 -70.078 
36 -81.564 
37 153.37 
38 45.544 
39 -127.615 
40 107.878 
41 -15.002 
42 87.7896 
43 -154.408 
44 -31.1004 
45 -168.354 
46 -161.856 
47 79.1518 
48 -43.2907 
49 -43.8501 
50 -162.842 
51 74.7155 
52 73.0808 
53 -45.9112 
54 -82.7762 
55 154.42 
56 33.371 
57 -133.53 
58 -19.8591 
59 97.2098 
60 -97.9763 
61 145.005 
62 29.7871 
63 -90.5229 
64 154.26 
65 26.4963 
66 26.7465 
67 -88.4709 
68 143.766 
69 169.5 
70 45.8323 
71 -74.6901 
72 172.526 
73 44.9537 
74 -73.5605 
75 -171.669 
76 -49.5411 
77 75.0805 
78 -175.401 
79 59.977 
80 -55.3825 
81 -169.908 
82 74.7324 
83 -45.2858 
84 -46.5948 
85 -161.954 
86 78.0275 
87 166.847 
88 -65.6254 
89 57.6762 
90 105.674 
91 -10.9454 
92 -132.468 
93 93.536 
94 -40.573 
95 -153.923 
96 77.607 
97 -35.7434 
98 -148.284 
99 -162.204 
100 84.4459 
101 -28.0947 
102 42.156 
103 176.663 
104 -70.6431 
105 25.8421 
106 -91.8621 
107 155.548 
108 -49.2755 
109 -171.941 
110 60.5024 
111 -46.9722 
112 -174.529 
113 75.6929 
114 63.9196 
115 -63.6375 
116 -173.415 
ITEM: TIMESTEP
34800
ITEM: NUMBER OF ENTRIES
116
ITEM: BOX BOUNDS pp pp pp
-2.1659880786948438e+01 2.1659880786948438e+01
-1.1125721167720103e+01 1.1125721167720103e+01
-1.1125721167720103e+01 1.1125721167720103e+01
ITEM: ENTRIES index c_dphi
1 68.3373 
2 -55.9244 
3 -168.949 
4 62.6249 
5 -50.4001 
6 -173.113 
7 172.819 
8 59.7944 
9 -62.9188 
10 -108.965 
11 137 
12 14.5039 
13 -154.602 
14 -21.7299 
15 29.891 
16 -99.4097 
17 144.21 
18 14.9094 
19 -94.0162 
20 136.683 
21 137.964 
22 -105.754 
23 22.8975 
24 -123.972 
25 -4.19591 
26 111.548 
27 -148.663 
28 89.7415 
29 -24.8084 
30 148.829 
31 30.6146 
32 -87.1134 
33 152.432 
34 34.7042 
35 -89.3532 
36 -94.224 
37 148.048 
38 23.9907 
39 -119.576 
40 119.609 
41 0.622416 
42 97.9074 
43 -149.753 
44 -28.1022 
45 -157.501 
46 -152.96 
47 93.6141 
48 -34.8669 
49 -32.2604 
50 -145.686 
51 85.8328 
52 84.4062 
53 -29.0196 
54 -101.066 
55 139.318 
56 19.1749 
57 -140.255 
58 -15.8099 
59 103.425 
60 -110.286 
61 126.707 
62 7.71583 
63 -111.648 
64 129.361 
65 11.3592 
66 6.89338 
67 -112.097 
68 129.901 
69 158.936 
70 37.7712 
71 -80.21 
72 -156.671 
73 81.193 
74 -42.7251 
75 -159.03 
76 -36.0338 
77 81.4216 
78 -166.698 
79 70.2598 
80 -46.4788 
81 -168.081 
82 75.1807 
83 -45.0387 
84 -43.1986 
85 -159.937 
86 79.8434 
87 164.474 
88 -71.0721 
89 37.8626 
90 83.5179 
91 -39.758 
92 -154.571 
93 82.4358 
94 -59.5843 
95 -170.145 
96 66.9598 
97 -43.6012 
98 -151.02 
99 178.695 
100 68.134 
101 -39.285 
102 52.6623 
103 -166.131 
104 -51.2044 
105 30.4421 
106 -84.8395 
107 152.292 
108 -47.8303 
109 -168.633 
110 79.6539 
111 -45.1683 
112 -156.881 
113 75.6348 
114 74.6434 
115 -37.0693 
116 -164.554 
ITEM: TIMESTEP
34900
ITEM: NUMBER OF ENTRIES
116
ITEM: BOX BOUNDS pp pp pp
-2.1659880786948438e+01 2.1659880786948438e+01
-1.1125721167720103e+01 1.1125721167720103e+01
-1.1125721167720103e+01 1.1125721167720103e+01
ITEM: ENTRIES index c_dphi
1 42.227 
2 -59.1525 
3 -179.756 
4 51.0449 
5 -69.5582 
6 152.424 
7 173.348 
8 52.745 
9 -85.2724 
10 -106.868 
11 132.748 
12 7.10816 
13 -129.108 
14 -7.27995 
15 16.7914 
16 -96.264 
17 141.683 
18 28.628 
19 -106.672 
20 140.273 
21 144.521 
22 -106.082 
23 9.51853 
24 -92.9146 
25 25.7866 
26 145.511 
27 -135.417 
28 109.375 
29 -3.36843 
30 148.56 
31 23.2686 
32 -84.5437 
33 136.687 
34 28.875 
35 -98.0213 
36 -107.502 
37 144.685 
38 17.7891 
39 -121.038 
40 127.519 
41 7.44771 
42 93.8053 
43 -148.637 
44 -36.6957 
45 -155.442 
46 -153.671 
47 89.9111 
48 -38.9901 
49 -31.957 
50 -148.374 
51 82.7243 
52 89.8768 
53 -26.5406 
54 -85.9655 
55 154.008 
56 30.6659 
57 -144.705 
58 -13.5753 
59 106.971 
60 -105.568 
61 126.458 
62 7.48701 
63 -118.149 
64 122.88 
65 9.8258 
66 0.591864 
67 -118.379 
68 128.566 
69 165.423 
70 49.2493 
71 -70.4232 
72 -160.131 
73 91.0364 
74 -29.9459 
75 -169.616 
76 -55.4276 
77 69.8269 
78 159.602 
79 41.8951 
80 -78.3488 
81 153.059 
82 32.8147 
83 -89.2344 
84 -91.6944 
85 148.062 
86 26.0126 
87 160.609 
88 -79.279 
89 28.6016 
90 110.104 
91 -10.3769 
92 -128.761 
93 71.0418 
94 -50.8219 
95 177.766 
96 60.2569 
97 -71.1554 
98 -177.879 
99 -174.272 
100 54.3155 
101 -52.4085 
102 86.4596 
103 -152.064 
104 -24.4871 
105 -0.288448 
106 -112.748 
107 128.788 
108 -81.0098 
109 159.197 
110 50.9936 
111 -79.5737 
112 172.223 
113 40.2193 
114 26.9386 
115 -81.265 
116 146.732 
ITEM: TIMESTEP
35000
ITEM: NUMBER OF ENTRIES
116
ITEM: BOX BOUNDS pp pp pp
-2.1659880786948438e+01 2.1659880786948438e+01
-1.1125721167720103e+01 1.1125721167720103e+01
-1.1125721167720103e+01 1.1125721167720103e+01
ITEM: ENTRIES index c_dphi
1 23.8368 
2 -87.6154 
3 148.571 
4 27.4718 
5 -96.3417 
6 138.924 
7 148.15 
8 24.3362 
9 -100.398 
10 -87.2392 
11 147.723 
12 29.0053 
13 -117.99 
14 4.67623 
15 54.0522 
16 -63.3053 
17 178.879 
18 61.521 
19 -62.7577 
20 179.885 
21 157.391 
22 -83.8629 
23 33.3552 
24 -88.3533 
25 33.2126 
26 151.435 
27 179.015 
28 63.6968 
29 -58.3983 
30 131.55 
31 10.3237 
32 -104.014 
33 131.825 
34 17.4874 
35 -106.948 
36 -107.64 
37 138.022 
38 13.5869 
39 -129.994 
40 107.846 
41 -7.13749 
42 100.228 
43 -135.471 
44 -19.0307 
45 -133.95 
46 -140.48 
47 102.233 
48 -18.0265 
49 -18.9391 
50 -136.226 
51 103.515 
52 103.596 
53 -13.6911 
54 -111.465 
55 128.395 
56 8.11516 
57 -156.881 
58 -41.8696 
59 83.5097 
60 -104.169 
61 142.286 
62 20.2109 
63 -89.8912 
64 148.034 
65 23.6546 
66 29.7171 
67 -92.3576 
68 143.263 
69 -172.467 
70 58.1451 
71 -57.1875 
72 178.678 
73 68.2471 
74 -58.1613 
75 -161.171 
76 -44.4503 
77 82.7698 
78 153.225 
79 35.3455 
80 -90.6031 
81 146.599 
82 20.6506 
83 -95.5215 
84 -98.3362 
85 135.715 
86 19.543 
87 145.93 
88 -84.307 
89 29.5215 
90 111.932 
91 -0.771644 
92 -124.995 
93 79.9396 
94 -59.5922 
95 -170.403 
96 57.006 
97 -53.8044 
98 -163.462 
99 178.433 
100 67.6224 
101 -42.0354 
102 59.6859 
103 -159.674 
104 -47.5236 
105 26.5599 
106 -106.058 
107 132.386 
108 -48.2842 
109 -174.795 
110 64.9077 
111 -44.0571 
112 -164.355 
113 82.4532 
114 71.8537 
115 -48.4441 
116 -161.636 
ITEM: TIMESTEP
35100
ITEM: NUMBER OF ENTRIES
116
ITEM: BOX BOUNDS pp pp pp
-2.1659880786948438e+01 2.1659880786948438e+01
-1.1125721167720103e+01 1.1125721167720103e+01
-1.1125721167720103e+01 1.1125721167720103e+01
ITEM: ENTRIES index c_dphi
1 -93.1897 
2 26.9829 
3 141.191 
4 142.73 
5 25.4195 
6 -102.416 
7 152.918 
8 25.0824 
9 -89.7708 
10 -88.1062 
11 144.058 
12 29.2046 
13 -114.687 
14 117.835 
15 1.11621 
16 32.5573 
17 -83.2032 
18 157.346 
19 22.2623 
20 -97.1885 
21 138.023 
22 158.81 
23 39.3587 
24 -85.43 
25 -77.1391 
26 165.422 
27 51.9318 
28 -117.004 
29 -1.11177 
30 48.4186 
31 -69.6645 
32 164.652 
33 46.5686 
34 -81.6639 
35 160.253 
36 -176.405 
37 -62.7796 
38 55.9887 
39 169.372 
40 55.1848 
41 -71.4875 
42 94.6949 
43 -150.417 
44 -24.2194 
45 -156.988 
46 -154.351 
47 91.8029 
48 -33.6013 
49 -33.6291 
50 -147.475 
51 87.1209 
52 82.2617 
53 -31.5841 
54 -92.3773 
55 146.079 
56 28.1428 
57 -174.051 
58 -59.4343 
59 62.3641 
60 -104.8 
61 146.057 
62 22.8097 
63 -90.5221 
64 146.231 
65 18.6209 
66 31.7133 
67 -91.5338 
68 140.856 
69 -169.032 
70 70.0459 
71 -54.8106 
72 160.872 
73 38.695 
74 -93.1412 
75 155.331 
76 40.0796 
77 -88.7617 
78 166.322 
79 37.4806 
80 -78.4263 
81 -73.8258 
82 157.333 
83 41.426 
84 154.875 
85 -86.6701 
86 36.3424 
87 19.9966 
88 -107.584 
89 132.881 
90 -74.2846 
91 167.073 
92 36.6292 
93 -68.6834 
94 160.873 
95 49.9591 
96 57.994 
97 -72.4496 
98 176.637 
99 -157.675 
100 -40.6258 
101 84.1035 
102 107.315 
103 -23.0737 
104 -139.891 
105 71.2895 
106 -57.1316 
107 -171.68 
108 71.9195 
109 -42.6284 
110 -159.659 
111 -167.305 
112 78.1471 
113 -38.8839 
114 72.9658 
115 -153.619 
116 -34.7014 
ITEM: TIMESTEP
35200
ITEM: NUMBER OF ENTRIES
116
ITEM: BOX BOUNDS pp pp pp
-2.1659880786948438e+01 2.1659880786948438e+01
-1.1125721167720103e+01 1.1125721167720103e+01
-1.1125721167720103e+01 1.1125721167720103e+01
ITEM: ENTRIES index c_dphi
1 -67.8315 
2 59.4318 
3 170.547 
4 147.184 
5 20.1005 
6 -93.4961 
7 138.276 
8 24.6793 
9 -94.6404 
10 -97.8728 
11 148.531 
12 29.2109 
13 -126.434 
14 116.941 
15 -9.27216 
16 104.84 
17 -14.9031 
18 -136.618 
19 121.961 
20 0.245959 
21 -118.295 
22 -128.392 
23 109.892 
24 -8.64898 
25 -94.221 
26 148.441 
27 37.1991 
28 -136.431 
29 -22.4732 
30 12.4363 
31 -96.0936 
32 125.269 
33 16.7388 
34 -124.427 
35 127.043 
36 -169.674 
37 -52.8877 
38 80.6654 
39 153.538 
40 19.1963 
41 -91.0419 
42 89.1098 
43 -153.594 
44 -37.7222 
45 -146.145 
46 -140.96 
47 95.2124 
48 -25.4135 
49 -16.9286 
50 -140.756 
51 98.618 
52 98.3082 
53 -25.5194 
54 -96.8967 
55 141.595 
56 13.7942 
57 -166.868 
58 -38.54 
59 82.0222 
60 -122.351 
61 110.845 
62 -5.61126 
63 -133.111 
64 110.433 
65 -6.30719 
66 -15.0191 
67 -131.475 
68 111.785 
69 156.708 
70 40.1123 
71 -77.4133 
72 -160.484 
73 86.4687 
74 -38.4018 
75 173.535 
76 61.248 
77 -64.8555 
78 177.042 
79 50.9386 
80 -70.6708 
81 -57.5335 
82 176.363 
83 54.7536 
84 157.436 
85 -80.0434 
86 43.7503 
87 -107.981 
88 126.232 
89 -1.22796 
90 -69.2413 
91 163.845 
92 46.8879 
93 -64.198 
94 178.845 
95 62.7154 
96 55.5672 
97 -61.3902 
98 -177.519 
99 -172.41 
100 -65.285 
101 64.6987 
102 86.7532 
103 -24.8895 
104 -146.256 
105 74.5637 
106 -37.6483 
107 -160.722 
108 73.5061 
109 -49.5675 
110 -174.282 
111 -164.141 
112 72.785 
113 -51.9294 
114 -23.6396 
115 97.7342 
116 -143.149 
ITEM: TIMESTEP
35300
ITEM: NUMBER OF ENTRIES
116
ITEM: BOX BOUNDS pp pp pp
-2.1659880786948438e+01 2.1659880786948438e+01
-1.1125721167720103e+01 1.1125721167720103e+01
-1.1125721167720103e+01 1.1125721167720103e+01
ITEM: ENTRIES index c_dphi
1 -91.9178 
2 33.2002 
3 156.977 
4 143.437 
5 10.8276 
6 -98.101 
7 124.888 
8 15.9597 
9 -102.502 
10 -110.888 
11 140.183 
12 21.7213 
13 -133.424 
14 111.531 
15 -11.8879 
16 115.739 
17 -13.9569 
18 -131.148 
19 114.172 
20 -3.01908 
21 -116.132 
22 -129.844 
23 112.965 
24 -0.14797 
25 -68.1471 
26 179.428 
27 55.6648 
28 178.004 
29 -61.7328 
30 13.6632 
31 -107.485 
32 126.378 
33 5.22997 
34 -105.188 
35 133.664 
36 -169.533 
37 -41.1149 
38 80.8089 
39 177.761 
40 53.481 
41 -67.6664 
42 102.135 
43 -138.029 
44 -15.6475 
45 -139.362 
46 -139.86 
47 101.286 
48 -20.3308 
49 -19.2444 
50 -138.098 
51 100.285 
52 101.109 
53 -17.7447 
54 -106.509 
55 127.948 
56 6.28652 
57 164.78 
58 -71.4544 
59 48.8991 
60 -115.683 
61 120.353 
62 2.77064 
63 -125.859 
64 116.559 
65 -1.89439 
66 -7.48748 
67 -125.07 
68 116.477 
69 -173.273 
70 66.5311 
71 -46.6061 
72 -140.959 
73 96.2542 
74 -22.8639 
75 156.13 
76 40.0714 
77 -91.244 
78 157.037 
79 25.7214 
80 -86.9045 
81 -84.5196 
82 144.165 
83 31.5391 
84 149.86 
85 -99.4118 
86 27.2392 
87 -21.4731 
88 -158.178 
89 78.865 
90 -70.2195 
91 172.113 
92 60.3001 
93 -46.2006 
94 -158.014 
95 71.4668 
96 71.3001 
97 -40.5129 
98 -171.032 
99 171.265 
100 -66.0457 
101 58.0832 
102 111.34 
103 -11.3471 
104 -127.826 
105 49.5222 
106 -68.434 
107 169.964 
108 53.3519 
109 -68.2505 
110 171.308 
111 175.984 
112 54.3813 
113 -66.0601 
114 7.23995 
115 132.216 
116 -117.289 
ITEM: TIMESTEP
35400
ITEM: NUMBER OF ENTRIES
116
ITEM: BOX BOUNDS pp pp pp
-2.1659880786948438e+01 2.1659880786948438e+01
-1.1125721167720103e+01 1.1125721167720103e+01
-1.1125721167720103e+01 1.1125721167720103e+01
ITEM: ENTRIES index c_dphi
1 -64.9076 
2 56.9817 
3 179.092 
4 158.244 
5 35.8888 
6 -90.6675 
7 145.264 
8 18.7075 
9 -92.3808 
10 -87.3548 
11 146.089 
12 35.0005 
13 -131.675 
14 116.394 
15 -11.2949 
16 68.717 
17 -48.9249 
18 -160.473 
19 68.7308 
20 -42.8168 
21 -173.627 
22 -172.13 
23 76.3222 
24 -54.4883 
25 -93.877 
26 157.511 
27 44.6013 
28 -168.035 
29 -48.9473 
30 20.1375 
31 -102.597 
32 128.051 
33 5.31634 
34 -121.537 
35 115.729 
36 167.443 
37 -75.7482 
38 38.5721 
39 141.895 
40 19.7739 
41 -99.9149 
42 76.2299 
43 -161.696 
44 -40.478 
45 -141.01 
46 -144.047 
47 100.41 
48 -19.3174 
49 -26.1818 
50 -141.724 
51 98.5481 
52 94.2603 
53 -21.2821 
54 -86.787 
55 151.452 
56 32.3834 
57 -147.757 
58 -27.5501 
59 90.6385 
60 -98.8597 
61 141.002 
62 19.0764 
63 -95.6806 
64 142.394 
65 24.4577 
66 23.6509 
67 -98.2748 
68 143.789 
69 -141.655 
70 96.9343 
71 -29.9628 
72 -150.508 
73 86.8428 
74 -33.1776 
75 107.181 
76 -5.22925 
77 -135.186 
78 114.143 
79 -15.8137 
80 -133.447 
81 -126.813 
82 103.23 
83 -14.4032 
84 147.417 
85 -89.2451 
86 43.0559 
87 -120.507 
88 105.963 
89 -11.0682 
90 -48.4057 
91 -175.961 
92 67.0482 
93 -42.903 
94 -159.893 
95 84.6527 
96 67.4847 
97 -49.5057 
98 -164.96 
99 -179.643 
100 -62.611 
101 56.6806 
102 141.864 
103 20.1657 
104 -97.0618 
105 68.0785 
106 -55.2313 
107 -163.633 
108 71.895 
109 -36.5066 
110 -164.795 
111 -174.101 
112 77.4969 
113 -50.7917 
114 -58.4867 
115 64.9479 
116 170.13 
ITEM: TIMESTEP
35500
ITEM: NUMBER OF ENTRIES
116
ITEM: BOX BOUNDS pp pp pp
-2.1659880786948438e+01 2.1659880786948438e+01
-1.1125721167720103e+01 1.1125721167720103e+01
-1.1125721167720103e+01 1.1125721167720103e+01
ITEM: ENTRIES index c_dphi
1 -114.835 
2 3.82652 
3 127.226 
4 157.15 
5 36.7418 
6 -82.6962 
7 156.506 
8 37.068 
9 -83.0861 
10 -78.9857 
11 161.576 
12 41.4221 
13 -107.843 
14 132.86 
15 2.07422 
16 64.542 
17 -44.3947 
18 -162.151 
19 77.9884 
20 -39.7681 
21 -173.075 
22 -163.474 
23 78.7697 
24 -54.5369 
25 -57.9944 
26 173.414 
27 63.5278 
28 -145.346 
29 -22.4403 
30 -19.2789 
31 -140.174 
32 104.568 
33 -16.3274 
34 -135.6 
35 103.504 
36 153.343 
37 -91.4556 
38 22.9551 
39 124.772 
40 4.90557 
41 -114.946 
42 111.675 
43 -132.853 
44 -10.2515 
45 -169.819 
46 -162.141 
47 78.7519 
48 -45.4945 
49 -41.9882 
50 -161.095 
51 74.6585 
52 73.5348 
53 -45.5722 
54 -82.1289 
55 157.2 
56 32.9841 
57 -107.623 
58 6.36917 
59 127.564 
60 -89.1602 
61 152.855 
62 25.8281 
63 -82.2925 
64 150.681 
65 35.6925 
66 30.6177 
67 -96.4089 
68 148.603 
69 -128.156 
70 115.891 
71 -7.57982 
72 -161.524 
73 79.5377 
74 -42.8017 
75 68.4502 
76 -50.351 
77 -173.22 
78 69.0681 
79 -53.8013 
80 -172.131 
81 -163.784 
82 73.3469 
83 -44.9824 
84 134.69 
85 -106.322 
86 22.4121 
87 89.008 
88 -30.8692 
89 -149.846 
90 -58.5416 
91 -172.89 
92 60.8469 
93 -60.69 
94 173.047 
95 53.6585 
96 67.256 
97 -59.007 
98 -178.396 
99 158.422 
100 -83.3238 
101 36.2824 
102 156.327 
103 39.8316 
104 -76.6791 
105 55.9794 
106 -58.706 
107 -178.789 
108 56.1094 
109 -63.9734 
110 170.795 
111 173.242 
112 53.159 
113 -72.0728 
114 22.4127 
115 138.556 
116 -102.294 
ITEM: TIMESTEP
35600
ITEM: NUMBER OF ENTRIES
116
ITEM: BOX BOUNDS pp pp pp
-2.1659880786948438e+01 2.1659880786948438e+01
-1.1125721167720103e+01 1.1125721167720103e+01
-1.1125721167720103e+01 1.1125721167720103e+01
ITEM: ENTRIES index c_dphi
1 -81.4015 
2 35.7645 
3 151.579 
4 148.867 
5 32.1188 
6 -83.1575 
7 150.346 
8 35.0694 
9 -92.9062 
10 -89.2486 
11 155.475 
12 27.4995 
13 -109.069 
14 127.868 
15 8.38425 
16 78.2825 
17 -40.568 
18 -165.234 
19 86.6633 
20 -38.0024 
21 -154.486 
22 -162.58 
23 72.7541 
24 -43.7297 
25 -108.77 
26 126.147 
27 6.91522 
28 -125.075 
29 -6.46031 
30 -25.0343 
31 -145.184 
32 104.094 
33 -16.0563 
34 -147.148 
35 92.7018 
36 163.318 
37 -84.5369 
38 48.188 
39 165.719 
40 43.2182 
41 -74.0789 
42 122.759 
43 -117.094 
44 -0.579699 
45 -166.369 
46 -161.88 
47 81.6252 
48 -40.694 
49 -48.2681 
50 -164.763 
51 72.918 
52 72.4452 
53 -44.0495 
54 -82.8345 
55 149.197 
56 38.2017 
57 -97.783 
58 25.3168 
59 150.549 
60 -91.2195 
61 139.38 
62 25.3726 
63 -105.808 
64 140.184 
65 23.5924 
66 9.53046 
67 -104.477 
68 138.931 
69 -142.932 
70 94.6985 
71 -19.4065 
72 -171.219 
73 70.9006 
74 -46.7285 
75 97.8651 
76 -28.0307 
77 -144.377 
78 87.2528 
79 -29.0936 
80 -146.851 
81 -153.146 
82 90.5078 
83 -27.25 
84 121.156 
85 -115.303 
86 7.90588 
87 42.2039 
88 -62.7136 
89 175.994 
90 -72.5787 
91 169.28 
92 45.1713 
93 -84.2209 
94 151.671 
95 33.9206 
96 31.4325 
97 -92.6761 
98 149.574 
99 173.621 
100 -60.103 
101 56.9558 
102 118.524 
103 -4.67586 
104 -117.778 
105 56.2575 
106 -53.4225 
107 -178.684 
108 67.7138 
109 -57.5478 
110 177.394 
111 -175.003 
112 59.7357 
113 -65.3227 
114 39.0369 
115 152.497 
116 -82.9194 
ITEM: TIMESTEP
35700
ITEM: NUMBER OF ENTRIES
116
ITEM: BOX BOUNDS pp pp pp
-2.1659880786948438e+01 2.1659880786948438e+01
-1.1125721167720103e+01 1.1125721167720103e+01
-1.1125721167720103e+01 1.1125721167720103e+01
ITEM: ENTRIES index c_dphi
1 -85.2113 
2 39.7469 
3 154.083 
4 132.365 
5 12.164 
6 -105.871 
7 121.122 
8 3.08736 
9 -118.677 
10 -125.313 
11 116.652 
12 -5.11197 
13 -115.841 
14 129.072 
15 19.4496 
16 103.113 
17 -25.8162 
18 -142.001 
19 90.1253 
20 -26.06 
21 -140.946 
22 -146.994 
23 96.8212 
24 -18.0647 
25 -137.611 
26 116.809 
27 -3.30796 
28 -147.337 
29 -32.9473 
30 7.79305 
31 -114.226 
32 115.581 
33 -6.43876 
34 -123.193 
35 114.787 
36 167.631 
37 -65.8232 
38 56.4616 
39 -160.237 
40 83.1326 
41 -43.3481 
42 123.26 
43 -114.096 
44 -1.0311 
45 -171.847 
46 -172.931 
47 69.5923 
48 -52.5888 
49 -55.8866 
50 -173.363 
51 64.4559 
52 67.8109 
53 -49.6656 
54 -84.6408 
55 151.396 
56 36.7213 
57 -122.386 
58 2.55 
59 115.373 
60 -92.1558 
61 148.185 
62 21.0772 
63 -94.1419 
64 138.75 
65 25.517 
66 26.2663 
67 -100.842 
68 145.925 
69 -176.951 
70 65.4588 
71 -56.6217 
72 -167.486 
73 67.2004 
74 -51.2974 
75 140.814 
76 18.6807 
77 -97.379 
78 137.85 
79 21.7901 
80 -100.017 
81 -101.216 
82 142.724 
83 20.9177 
84 128.258 
85 -116.657 
86 2.65611 
87 50.865 
88 -56.9266 
89 -178.045 
90 -55.9698 
91 -172.198 
92 70.1626 
93 -64.5611 
94 177.799 
95 51.6667 
96 53.7435 
97 -63.8963 
98 169.971 
99 -176.58 
100 -58.9962 
101 64.9407 
102 85.6107 
103 -30.3736 
104 -152.893 
105 72.6789 
106 -37.2275 
107 -153.409 
108 80.6828 
109 -35.4989 
110 -169.411 
111 -161.426 
112 82.3919 
113 -51.52 
114 117.335 
115 -128.313 
116 -12.9303 
ITEM: TIMESTEP
35800
ITEM: NUMBER OF ENTRIES
116
ITEM: BOX BOUNDS pp pp pp
-2.1659880786948438e+01 2.1659880786948438e+01
-1.1125721167720103e+01 1.1125721167720103e+01
-1.1125721167720103e+01 1.1125721167720103e+01
ITEM: ENTRIES index c_dphi
1 -77.1621 
2 51.3044 
3 166.326 
4 122.455 
5 -7.47022 
6 -122.812 
7 110.72 
8 -4.6221 
9 -119.355 
10 -134.879 
11 109.779 
12 -4.95402 
13 -133.09 
14 103.558 
15 -7.70815 
16 110.663 
17 -9.57277 
18 -122.501 
19 100.615 
20 -12.3131 
21 -139.149 
22 -135.528 
23 111.544 
24 -15.2914 
25 -121.638 
26 122.698 
27 2.83705 
28 -148.96 
29 -46.5306 
30 -1.8485 
31 -109.732 
32 115.323 
33 7.43968 
34 -128.585 
35 123.532 
36 178.19 
37 -60.8886 
38 56.413 
39 -133.386 
40 114.339 
41 -12.633 
42 129.381 
43 -104.686 
44 12.6055 
45 -162.957 
46 -164.296 
47 79.6476 
48 -41.27 
49 -46.5132 
50 -162.57 
51 76.5126 
52 74.0169 
53 -42.0398 
54 -81.2417 
55 155.925 
56 38.5989 
57 -155.859 
58 -42.1552 
59 79.2807 
60 -113.93 
61 138.098 
62 5.80502 
63 -101.879 
64 125.828 
65 6.09366 
66 12.7049 
67 -119.588 
68 120.677 
69 174.914 
70 55.8363 
71 -62.2111 
72 -163.162 
73 72.3128 
74 -48.1525 
75 -154.585 
76 84.2609 
77 -29.0085 
78 -146.01 
79 100.721 
80 -24.8559 
81 -34.752 
82 -148.021 
83 86.4019 
84 149.562 
85 -85.1916 
86 26.3665 
87 62.1338 
88 -46.2156 
89 -167.871 
90 -62.3588 
91 164.247 
92 58.4941 
93 -88.2863 
94 165.961 
95 45.1079 
96 34.379 
97 -71.3738 
98 167.773 
99 176.692 
100 -64.5147 
101 52.5557 
102 69.6498 
103 -54.642 
104 -178.235 
105 53.5241 
106 -58.4631 
107 178.28 
108 66.5692 
109 -56.6874 
110 178.556 
111 -172.022 
112 64.7217 
113 -60.0345 
114 -21.1899 
115 96.087 
116 -146.732 
ITEM: TIMESTEP
35900
ITEM: NUMBER OF ENTRIES
116
ITEM: BOX BOUNDS pp pp pp
-2.1659880786948438e+01 2.1659880786948438e+01
-1.1125721167720103e+01 1.1125721167720103e+01
-1.1125721167720103e+01 1.1125721167720103e+01
ITEM: ENTRIES index c_dphi
1 -72.9854 
2 52.1925 
3 170.975 
4 102.559 
5 -27.1872 
6 -143.019 
7 96.0943 
8 -19.7372 
9 -134.16 
10 -137.378 
11 106.79 
12 -7.6322 
13 179.921 
14 49.9222 
15 -68.1626 
16 105.265 
17 -11.1998 
18 -129.417 
19 120.712 
20 2.49502 
21 -122.823 
22 -116.253 
23 125.529 
24 0.211721 
25 -115.27 
26 122.974 
27 0.925264 
28 -152.71 
29 -33.1251 
30 11.7431 
31 -105.211 
32 130.223 
33 13.2685 
34 -112.116 
35 130.929 
36 173.793 
37 -68.7849 
38 52.2737 
39 -155.38 
40 77.039 
41 -44.604 
42 160.383 
43 -78.5334 
44 44.9987 
45 -131.867 
46 -126.298 
47 116.709 
48 -3.63089 
49 -6.66994 
50 -123.663 
51 115.997 
52 105.466 
53 -11.5272 
54 -95.1673 
55 135.351 
56 18.3374 
57 171.081 
58 -73.0749 
59 53.7413 
60 -104.995 
61 138.504 
62 22.3705 
63 -96.7596 
64 147.107 
65 19.7417 
66 16.8849 
67 -99.2483 
68 133.386 
69 175.993 
70 45.3473 
71 -71.9505 
72 -171.768 
73 73.1086 
74 -46.8397 
75 -101.277 
76 131.031 
77 18.7004 
78 -109.35 
79 138.319 
80 18.3412 
81 10.8597 
82 -101.471 
83 138.551 
84 172.479 
85 -70.6903 
86 47.1343 
87 64.0432 
88 -45.2121 
89 -174.632 
90 -63.817 
91 175.777 
92 54.8337 
93 -70.5004 
94 168.556 
95 49.9052 
96 51.8449 
97 -69.0987 
98 172.251 
99 -175.503 
100 -48.8968 
101 64.8172 
102 61.5999 
103 -56.3708 
104 -172.29 
105 35.99 
106 -81.5253 
107 161.092 
108 43.2518 
109 -74.1307 
110 160.767 
111 155.246 
112 37.8638 
113 -87.2384 
114 -95.2993 
115 18.3911 
116 143.347 
ITEM: TIMESTEP
36000
ITEM: NUMBER OF ENTRIES
116
ITEM: BOX BOUNDS pp pp pp
-2.1659880786948438e+01 2.1659880786948438e+01
-1.1125721167720103e+01 1.1125721167720103e+01
-1.1125721167720103e+01 1.1125721167720103e+01
ITEM: ENTRIES index c_dphi
1 -96.7578 
2 22.6487 
3 149.306 
4 106.56 
5 -7.50737 
6 -132.796 
7 105.199 
8 -20.0898 
9 -140.734 
10 -132.308 
11 102.403 
12 -18.2405 
13 174.263 
14 60.1677 
15 -65.0532 
16 98.4505 
17 -14.7793 
18 -131.439 
19 112.662 
20 -3.99726 
21 -134.108 
22 -147.286 
23 96.0544 
24 -34.0565 
25 -85.1104 
26 154.014 
27 38.3562 
28 -177.047 
29 -52.1681 
30 32.6816 
31 -93.8748 
32 145.52 
33 18.9637 
34 -96.5406 
35 136.903 
36 160.134 
37 -82.6991 
38 38.3898 
39 -167.066 
40 70.9522 
41 -45.9928 
42 170.6 
43 -72.4815 
44 50.9559 
45 -132.212 
46 -133.294 
47 105.147 
48 -13.3312 
49 -9.61009 
50 -131.169 
51 110.353 
52 107.825 
53 -13.7339 
54 -90.5721 
55 147.531 
56 24.9127 
57 165.653 
58 -69.5273 
59 46.8785 
60 -63.4643 
61 171.074 
62 58.3599 
63 -71.1116 
64 176.174 
65 54.35 
66 49.9863 
67 -62.7278 
68 175.448 
69 -179.353 
70 67.4846 
71 -56.8323 
72 150.262 
73 30.1117 
74 -82.1512 
75 -114.89 
76 122.385 
77 8.80983 
78 -124.789 
79 121.637 
80 -2.06342 
81 -6.36736 
82 -119.942 
83 116.358 
84 160.741 
85 -83.4748 
86 38.9436 
87 68.7396 
88 -38.9916 
89 -171.349 
90 -47.0547 
91 -160.568 
92 71.966 
93 -47.1045 
94 -174.571 
95 66.4083 
96 71.4242 
97 -56.0422 
98 -175.063 
99 -178.705 
100 -58.0075 
101 59.2412 
102 85.2666 
103 -34.6689 
104 -150.909 
105 65.0224 
106 -55.7137 
107 -177.84 
108 61.813 
109 -60.3131 
110 -177.451 
111 -179.263 
112 58.6114 
113 -58.5264 
114 -48.3513 
115 69.0603 
116 -169.911 
ITEM: TIMESTEP
36100
ITEM: NUMBER OF ENTRIES
116
ITEM: BOX BOUNDS pp pp pp
-2.1659880786948438e+01 2.1659880786948438e+01
-1.1125721167720103e+01 1.1125721167720103e+01
-1.1125721167720103e+01 1.1125721167720103e+01
ITEM: ENTRIES index c_dphi
1 -165.009 
2 71.8759 
3 -39.1376 
4 -96.0644 
5 151.008 
6 29.2604 
7 -127.725 
8 0.361399 
9 44.3301 
10 -88.5602 
11 161.758 
12 28.868 
13 -75.7772 
14 151.333 
15 -86.0441 
16 37.2214 
17 160.539 
18 75.2993 
19 -51.3878 
20 -174.543 
21 59.3331 
22 -63.8222 
23 -173.98 
24 -179.073 
25 57.7713 
26 -52.3864 
27 -175.893 
28 69.8875 
29 -55.9123 
30 49.8836 
31 -71.0944 
32 163.213 
33 49.3536 
34 -76.3393 
35 170.332 
36 165.021 
37 39.3281 
38 -74.001 
39 177.165 
40 -64.4963 
41 54.6875 
42 -155.688 
43 -33.5284 
44 86.0618 
45 -152.295 
46 -158.405 
47 84.7032 
48 -34.1979 
49 -35.0933 
50 -151.985 
51 89.1134 
52 83.4988 
53 -33.3934 
54 -64.6323 
55 173.343 
56 51.1858 
57 -166.938 
58 -44.5129 
59 74.6694 
60 -99.1273 
61 134.962 
62 16.959 
63 -102.218 
64 139.779 
65 23.6924 
66 23.0449 
67 -94.9583 
68 148.955 
69 178.706 
70 60.8395 
71 -58.1255 
72 166.492 
73 43.743 
74 -75.5045 
75 -148.809 
76 87.7028 
77 -24.3167 
78 -153.449 
79 94.5314 
80 -29.9611 
81 -35.4157 
82 -147.435 
83 88.0722 
84 136.749 
85 -96.0888 
86 24.2923 
87 177.703 
88 -60.4956 
89 57.6774 
90 125.105 
91 2.5343 
92 -115.876 
93 72.4269 
94 -51.8099 
95 -172.882 
96 65.228 
97 -55.8445 
98 -170.535 
99 -166.563 
100 72.3641 
101 -42.3266 
102 -60.0427 
103 57.434 
104 176.108 
105 153.324 
106 33.6031 
107 -80.1014 
108 -76.2068 
109 156.019 
110 39.1348 
111 -82.2229 
112 160.892 
113 45.5508 
114 25.4033 
115 -91.4813 
116 153.177 
ITEM: TIMESTEP
36200
ITEM: NUMBER OF ENTRIES
116
ITEM: BOX BOUNDS pp pp pp
-2.1659880786948438e+01 2.1659880786948438e+01
-1.1125721167720103e+01 1.1125721167720103e+01
-1.1125721167720103e+01 1.1125721167720103e+01
ITEM: ENTRIES index c_dphi
1 -144.273 
2 93.7771 
3 -30.0556 
4 -92.9648 
5 156.834 
6 40.0012 
7 -113.719 
8 8.05702 
9 16.9219 
10 -113.009 
11 125.33 
12 -4.60126 
13 -120.684 
14 109.385 
15 -103.2 
16 15.9038 
17 135.204 
18 85.7958 
19 -37.9905 
20 -158.35 
21 81.3915 
22 -38.9682 
23 -154.822 
24 -158.218 
25 81.4225 
26 -34.4314 
27 174.997 
28 51.3807 
29 -70.255 
30 48.1488 
31 -82.2824 
32 165.709 
33 44.0973 
34 -67.9114 
35 174.528 
36 153.462 
37 41.453 
38 -76.1071 
39 -128.16 
40 -1.14704 
41 107.758 
42 -139.391 
43 -14.431 
44 106.564 
45 -135.651 
46 -137.853 
47 100.563 
48 -14.0461 
49 -13.0859 
50 -134.67 
51 110.721 
52 100.543 
53 -21.0418 
54 -92.6186 
55 143.691 
56 21.0569 
57 -172.823 
58 -52.7855 
59 69.563 
60 164.947 
61 40.2795 
62 -75.5009 
63 167.64 
64 51.8598 
65 -67.6929 
66 -84.4876 
67 159.732 
68 40.1794 
69 162.131 
70 46.9945 
71 -70.3715 
72 -133.697 
73 109.345 
74 -14.807 
75 -176.191 
76 63.157 
77 -49.996 
78 -169.49 
79 77.3574 
80 -48.838 
81 -56.4646 
82 -169.618 
83 64.187 
84 146.506 
85 -89.2912 
86 35.5294 
87 172.884 
88 -70.3384 
89 46.1788 
90 169.891 
91 43.38 
92 -76.9893 
93 72.3359 
94 -57.3655 
95 -168.423 
96 69.9675 
97 -41.0896 
98 -160.331 
99 -173.833 
100 75.1101 
101 -44.1315 
102 -8.86801 
103 118.313 
104 -131.333 
105 176.378 
106 51.8914 
107 -65.828 
108 -45.0422 
109 -171.52 
110 75.3743 
111 -46.8581 
112 -159.964 
113 79.6194 
114 70.1237 
115 -42.9823 
116 -163.399 
ITEM: TIMESTEP
36300
ITEM: NUMBER OF ENTRIES
116
ITEM: BOX BOUNDS pp pp pp
-2.1659880786948438e+01 2.1659880786948438e+01
-1.1125721167720103e+01 1.1125721167720103e+01
-1.1125721167720103e+01 1.1125721167720103e+01
ITEM: ENTRIES index c_dphi
1 -159.965 
2 83.8191 
3 -37.8004 
4 -78.3971 
5 158.43 
6 47.9194 
7 -172.383 
8 -47.8551 
9 37.9782 
10 -88.6198 
11 154.53 
12 27.9318 
13 -82.7257 
14 150.676 
15 -130.21 
16 -2.87138 
17 116.07 
18 78.3716 
19 -45.6898 
20 -168.167 
21 78.3361 
22 -44.1409 
23 -157.603 
24 -167.261 
25 70.2623 
26 -43.1994 
27 150.405 
28 24.3376 
29 -87.8351 
30 78.2001 
31 -48.652 
32 -171.721 
33 63.8651 
34 -59.2038 
35 -169.283 
36 -169.086 
37 67.8448 
38 -42.2342 
39 -124.027 
40 3.45123 
41 124.265 
42 -122.377 
43 -4.3833 
44 119.77 
45 -114.053 
46 -113.83 
47 123.645 
48 4.70722 
49 10.7008 
50 -111.824 
51 129.238 
52 127.41 
53 4.88502 
54 -87.2343 
55 158.195 
56 30.3308 
57 -176.226 
58 -55.8168 
59 65.1939 
60 152.682 
61 32.4334 
62 -89.3905 
63 144.351 
64 22.5273 
65 -95.4001 
66 -91.6165 
67 146.56 
68 28.6321 
69 172.557 
70 55.5386 
71 -75.566 
72 -157.273 
73 83.9336 
74 -39.8223 
75 -169.321 
76 61.064 
77 -50.4885 
78 -178.967 
79 69.4807 
80 -49.352 
81 -60.3778 
82 -171.93 
83 69.237 
84 168.69 
85 -72.2813 
86 57.3723 
87 -155.024 
88 -26.7461 
89 87.0311 
90 -166.709 
91 70.1841 
92 -47.7326 
93 56.5246 
94 -71.9141 
95 175.502 
96 52.9121 
97 -59.6721 
98 -178.649 
99 169.229 
100 56.6453 
101 -62.3319 
102 40.5235 
103 159.868 
104 -72.0234 
105 -161.344 
106 73.626 
107 -44.0206 
108 -77.1683 
109 160.143 
110 40.0729 
111 -69.9547 
112 169.975 
113 52.7338 
114 38.0466 
115 -82.0237 
116 160.735 
ITEM: TIMESTEP
36400
ITEM: NUMBER OF ENTRIES
116
ITEM: BOX BOUNDS pp pp pp
-2.1659880786948438e+01 2.1659880786948438e+01
-1.1125721167720103e+01 1.1125721167720103e+01
-1.1125721167720103e+01 1.1125721167720103e+01
ITEM: ENTRIES index c_dphi
1 -128.875 
2 109.875 
3 -10.8131 
4 -106.172 
5 121.251 
6 12.261 
7 -139.737 
8 -29.9259 
9 -1.32886 
10 -108.633 
11 132.48 
12 25.1765 
13 -118.567 
14 134.13 
15 -122.924 
16 -6.80971 
17 108.906 
18 89.7775 
19 -28.665 
20 -147.821 
21 84.9501 
22 -34.2058 
23 -156.607 
24 -157.214 
25 83.6297 
26 -38.7719 
27 144.471 
28 30.2758 
29 -90.4237 
30 59.9832 
31 -53.905 
32 -171.458 
33 56.13 
34 -61.423 
35 170.018 
36 -174.719 
37 67.7278 
38 -60.831 
39 -133.422 
40 -20.1301 
41 98.3732 
42 -117.027 
43 -1.94439 
44 134.531 
45 -116.309 
46 -126.462 
47 115.054 
48 1.90779 
49 -4.58088 
50 -123.066 
51 123.789 
52 115.321 
53 -3.16331 
54 -92.2835 
55 144.458 
56 25.8922 
57 -133.988 
58 -27.5118 
59 101.065 
60 -167.232 
61 77.8211 
62 -37.8611 
63 -161.762 
64 82.5559 
65 -46.8149 
66 -33.7679 
67 -149.45 
68 81.1791 
69 160.431 
70 41.8194 
71 -83.4776 
72 -179.377 
73 60.6389 
74 -47.7807 
75 176.534 
76 58.1438 
77 -66.7374 
78 175.793 
79 50.9117 
80 -65.8171 
81 -71.3855 
82 163.733 
83 47.0046 
84 167.321 
85 -76.2691 
86 51.1874 
87 -142.537 
88 -19.6996 
89 103.187 
90 -172.608 
91 64.2043 
92 -53.4054 
93 49.5664 
94 -77.7971 
95 157.894 
96 46.2919 
97 -78.0172 
98 173.655 
99 166.093 
100 41.7835 
101 -66.5439 
102 57.8974 
103 179.772 
104 -45.7649 
105 -145.497 
106 88.5955 
107 -30.2683 
108 -80.9893 
109 165.073 
110 35.1655 
111 -64.751 
112 165.342 
113 49.1871 
114 48.9327 
115 -80.9744 
116 162.871 
ITEM: TIMESTEP
36500
ITEM: NUMBER OF ENTRIES
116
ITEM: BOX BOUNDS pp pp pp
-2.1659880786948438e+01 2.1659880786948438e+01
-1.1125721167720103e+01 1.1125721167720103e+01
-1.1125721167720103e+01 1.1125721167720103e+01
ITEM: ENTRIES index c_dphi
1 -128.314 
2 116.538 
3 1.77353 
4 -142.711 
5 96.5115 
6 -24.9677 
7 -119.519 
8 3.90582 
9 -41.407 
10 -163.475 
11 80.8275 
12 -41.2409 
13 -151.98 
14 85.952 
15 -100.616 
16 25.6097 
17 140.572 
18 109.591 
19 -18.4974 
20 -129.112 
21 103.243 
22 -7.37102 
23 -128.669 
24 -141.536 
25 107.85 
26 -13.4478 
27 134.54 
28 10.9441 
29 -102.108 
30 38.0076 
31 -85.2875 
32 151.914 
33 30.6186 
34 -92.1804 
35 153.914 
36 145.274 
37 22.4751 
38 -91.4308 
39 -161.703 
40 -40.9682 
41 86.234 
42 -95.0064 
43 21.2572 
44 141.229 
45 -110.536 
46 -111.284 
47 132.022 
48 6.1738 
49 14.9104 
50 -101.783 
51 132.369 
52 132.006 
53 15.3124 
54 -117.711 
55 122.884 
56 -2.93378 
57 -128.796 
58 -4.8257 
59 111.487 
60 -130.151 
61 102.831 
62 -11.1492 
63 -129.582 
64 116.438 
65 -2.56357 
66 -12.2326 
67 -126.212 
68 114.786 
69 171.006 
70 42.6572 
71 -64.2069 
72 -164.707 
73 78.7267 
74 -38.9963 
75 -153.355 
76 90.3702 
77 -35.791 
78 -153.992 
79 79.847 
80 -37.7173 
81 -37.1062 
82 -163.267 
83 79.1683 
84 166.939 
85 -62.8335 
86 54.0734 
87 -169.713 
88 -44.5758 
89 68.2256 
90 122.082 
91 0.723104 
92 -120.459 
93 78.8991 
94 -46.2999 
95 -165.02 
96 77.1776 
97 -41.5421 
98 -157.623 
99 -149.921 
100 91.3596 
101 -24.7216 
102 41.7373 
103 158.02 
104 -72.4844 
105 -16.3128 
106 -142.654 
107 93.6523 
108 -84.2521 
109 145.408 
110 30.6145 
111 -88.3841 
112 156.823 
113 41.956 
114 32.4482 
115 -82.3451 
116 162.788 
ITEM: TIMESTEP
36600
ITEM: NUMBER OF ENTRIES
116
ITEM: BOX BOUNDS pp pp pp
-2.1659880786948438e+01 2.1659880786948438e+01
-1.1125721167720103e+01 1.1125721167720103e+01
-1.1125721167720103e+01 1.1125721167720103e+01
ITEM: ENTRIES index c_dphi
1 -129.593 
2 104.216 
3 -15.5194 
4 -139.767 
5 105.005 
6 -14.2912 
7 -132.188 
8 -13.6577 
9 -83.8647 
10 154.015 
11 27.9155 
12 -94.205 
13 143.084 
14 20.9634 
15 -62.6528 
16 66.56 
17 -177.936 
18 117.133 
19 -10.0946 
20 -132.493 
21 117.335 
22 -5.06278 
23 -115.437 
24 -119.677 
25 117.925 
26 7.55019 
27 132.921 
28 5.24397 
29 -112.108 
30 69.5973 
31 -55.6515 
32 -161.096 
33 67.7103 
34 -37.7344 
35 -167.041 
36 -168.196 
37 86.359 
38 -42.9476 
39 -177.879 
40 -60.8129 
41 58.7474 
42 -85.435 
43 36.895 
44 156.865 
45 -125.859 
46 -123.225 
47 114.988 
48 -3.08446 
49 3.37453 
50 -118.412 
51 123.515 
52 114 
53 -7.78619 
54 -138.577 
55 95.9742 
56 -27.3302 
57 -140.176 
58 -9.97589 
59 105.507 
60 -130.538 
61 102.971 
62 -18.0366 
63 -143.557 
64 95.4359 
65 -17.0657 
66 -17.0875 
67 -138.095 
68 109.404 
69 -155.759 
70 83.5272 
71 -26.8613 
72 159.077 
73 36.1767 
74 -86.5499 
75 -155.359 
76 87.3031 
77 -35.7671 
78 -149.496 
79 87.434 
80 -32.1577 
81 -24.2398 
82 -147.31 
83 93.0982 
84 173.513 
85 -66.6345 
86 46.7145 
87 -152.412 
88 -35.3653 
89 81.8832 
90 109.2 
91 -12.6601 
92 -133.036 
93 51.2486 
94 -77.5338 
95 164.853 
96 44.9192 
97 -72.6945 
98 173.702 
99 163.833 
100 46.2193 
101 -67.3846 
102 53.9019 
103 173.724 
104 -65.8535 
105 20.6672 
106 -107.964 
107 131.388 
108 -72.6343 
109 165.927 
110 56.6745 
111 -71.5985 
112 179.149 
113 49.8402 
114 50.2331 
115 -59.0195 
116 171.672 
ITEM: TIMESTEP
36700
ITEM: NUMBER OF ENTRIES
116
ITEM: BOX BOUNDS pp pp pp
-2.1659880786948438e+01 2.1659880786948438e+01
-1.1125721167720103e+01 1.1125721167720103e+01
-1.1125721167720103e+01 1.1125721167720103e+01
ITEM: ENTRIES index c_dphi
1 -135.336 
2 103.127 
3 -18.2855 
4 -132.25 
5 112.984 
6 -8.28889 
7 -158.773 
8 -40.8467 
9 -52.6507 
10 -171.974 
11 57.4871 
12 -61.8366 
13 -174.083 
14 66.5932 
15 -84.3861 
16 33.6143 
17 152.714 
18 108.737 
19 -14.5477 
20 -133.463 
21 100.539 
22 -18.3763 
23 -136.177 
24 -134.144 
25 106.941 
26 -10.8595 
27 149.584 
28 36.7847 
29 -83.5174 
30 84.122 
31 -40.6946 
32 -156.166 
33 81.7726 
34 -33.6988 
35 -153.411 
36 -158.75 
37 85.7789 
38 -33.9332 
39 -167.244 
40 -39.9894 
41 75.1671 
42 -74.628 
43 51.7011 
44 170.64 
45 -145.989 
46 -162.591 
47 84.9114 
48 -28.3143 
49 -42.5579 
50 -155.055 
51 91.7192 
52 79.7342 
53 -32.763 
54 -174.243 
55 66.9797 
56 -48.933 
57 -144.08 
58 -24.5231 
59 89.7942 
60 -129.977 
61 115.293 
62 -2.47035 
63 -128.687 
64 113.55 
65 -13.9569 
66 -4.94859 
67 -122.712 
68 109.781 
69 -157.858 
70 82.1182 
71 -38.0527 
72 175.923 
73 44.9686 
74 -72.145 
75 -175.243 
76 68.8305 
77 -63.1324 
78 -163.012 
79 65.0252 
80 -47.0856 
81 -49.4515 
82 178.586 
83 66.4748 
84 -162.987 
85 -38.3613 
86 77.4478 
87 -171.02 
88 -54.0656 
89 72.4103 
90 124.498 
91 -7.12513 
92 -123.653 
93 71.8529 
94 -53.093 
95 -163.991 
96 79.6686 
97 -31.2291 
98 -155.385 
99 -174.272 
100 74.8298 
101 -49.3266 
102 73.851 
103 -171.499 
104 -52.7121 
105 35.0576 
106 -92.1688 
107 149.308 
108 -46.4536 
109 -171.589 
110 65.7898 
111 -45.7212 
112 -168.343 
113 79.414 
114 64.9487 
115 -57.6728 
116 -169.916 
ITEM: TIMESTEP
36800
ITEM: NUMBER OF ENTRIES
116
ITEM: BOX BOUNDS pp pp pp
-2.1659880786948438e+01 2.1659880786948438e+01
-1.1125721167720103e+01 1.1125721167720103e+01
-1.1125721167720103e+01 1.1125721167720103e+01
ITEM: ENTRIES index c_dphi
1 -153.465 
2 87.1311 
3 -27.4963 
4 -129.138 
5 102.841 
6 -13.8544 
7 -123.283 
8 -5.95869 
9 -61.2969 
10 -177.521 
11 66.2261 
12 -49.9985 
13 -179.617 
14 64.1583 
15 -51.2437 
16 78.3681 
17 -168.933 
18 123.111 
19 1.88523 
20 -112.474 
21 118.931 
22 4.57259 
23 -119.843 
24 -123.486 
25 122.155 
26 -2.25991 
27 139.143 
28 27.9231 
29 -95.4053 
30 63.3045 
31 -55.6307 
32 -177.507 
33 67.8311 
34 -54.0453 
35 -173.234 
36 -179.343 
37 58.7803 
38 -60.4081 
39 -154.866 
40 -37.6922 
41 86.5639 
42 -74.7385 
43 40.0904 
44 164.195 
45 -130.725 
46 -133.853 
47 106.144 
48 -16.0764 
49 -10.1208 
50 -130.123 
51 107.656 
52 111.499 
53 -8.50385 
54 171.234 
55 54.1803 
56 -66.9864 
57 -122.056 
58 -8.39369 
59 117.457 
60 -160.468 
61 83.936 
62 -34.8754 
63 -156.734 
64 84.4549 
65 -41.1381 
66 -37.7709 
67 -156.582 
68 77.8246 
69 173.614 
70 52.2376 
71 -62.1773 
72 -156.851 
73 85.031 
74 -34.5171 
75 171.079 
76 54.295 
77 -66.9746 
78 174.059 
79 52.7893 
80 -69.1568 
81 -76.6631 
82 162.067 
83 40.1213 
84 -177.087 
85 -64.367 
86 60.0059 
87 179.757 
88 -62.0676 
89 57.8875 
90 173.897 
91 52.4464 
92 -73.2236 
93 66.4128 
94 -55.9605 
95 -165.972 
96 64.7749 
97 -45.2368 
98 -172.852 
99 -177.905 
100 72.0832 
101 -55.5318 
102 37.8291 
103 152.772 
104 -95.0739 
105 30.4043 
106 -90.3471 
107 155.35 
108 -77.8789 
109 167.718 
110 40.9294 
111 -73.7612 
112 159.45 
113 40.642 
114 46.6174 
115 -80.171 
116 161.021 
ITEM: TIMESTEP
36900
ITEM: NUMBER OF ENTRIES
116
ITEM: BOX BOUNDS pp pp pp
-2.1659880786948438e+01 2.1659880786948438e+01
-1.1125721167720103e+01 1.1125721167720103e+01
-1.1125721167720103e+01 1.1125721167720103e+01
ITEM: ENTRIES index c_dphi
1 -150.008 
2 89.8976 
3 -29.608 
4 -134.686 
5 107.951 
6 -14.3942 
7 -157.843 
8 -40.3266 
9 -10.1237 
10 -122.247 
11 104.68 
12 -7.44368 
13 -132.109 
14 115.767 
15 -87.3422 
16 37.8525 
17 155.519 
18 118.775 
19 -7.60643 
20 -117.958 
21 109.333 
22 -1.01848 
23 -124.286 
24 -134.248 
25 115.401 
26 -7.8666 
27 159.833 
28 39.7968 
29 -71.5767 
30 99.5301 
31 -18.6679 
32 -133.907 
33 102.005 
34 -13.2333 
35 -139.797 
36 -133.938 
37 110.823 
38 -15.7404 
39 -125.865 
40 -8.08506 
41 102.337 
42 -98.1241 
43 19.5847 
44 141.306 
45 -130.645 
46 -122.245 
47 120.443 
48 -5.60805 
49 -2.60139 
50 -119.913 
51 114.036 
52 112.718 
53 -4.59389 
54 160.51 
55 33.8592 
56 -86.8582 
57 -149.941 
58 -28.999 
59 95.2125 
60 165.533 
61 44.9156 
62 -81.2757 
63 165.207 
64 39.0156 
65 -74.1756 
66 -77.1023 
67 156.706 
68 43.5152 
69 166.569 
70 44.405 
71 -73.0359 
72 -161.906 
73 93.0372 
74 -37.686 
75 142.773 
76 28.9465 
77 -95.202 
78 138.4 
79 14.2513 
80 -107.774 
81 -95.0334 
82 140.818 
83 18.7926 
84 174.431 
85 -66.1489 
86 54.3882 
87 168.436 
88 -78.6564 
89 42.8807 
90 -136.526 
91 103.606 
92 -21.1381 
93 58.5307 
94 -65.0224 
95 177.514 
96 49.3715 
97 -68.092 
98 172.925 
99 178.072 
100 60.6085 
101 -58.3749 
102 14.3594 
103 134.564 
104 -108.893 
105 39.5308 
106 -72.5653 
107 158.509 
108 -41.9112 
109 -164.803 
110 78.9963 
111 -40.8823 
112 -157.083 
113 82.0091 
114 78.7749 
115 -37.4262 
116 -158.334 
ITEM: TIMESTEP
37000
ITEM: NUMBER OF ENTRIES
116
ITEM: BOX BOUNDS pp pp pp
-2.1659880786948438e+01 2.1659880786948438e+01
-1.1125721167720103e+01 1.1125721167720103e+01
-1.1125721167720103e+01 1.1125721167720103e+01
ITEM: ENTRIES index c_dphi
1 -151.486 
2 95.9282 
3 -40.7449 
4 -114.165 
5 132.765 
6 13.9165 
7 -145.614 
8 -35.0846 
9 -10.3626 
10 -116.982 
11 108.02 
12 1.40016 
13 -143.573 
14 109.807 
15 -88.7839 
16 24.5268 
17 143.204 
18 111.201 
19 -7.21213 
20 -135.183 
21 112.517 
22 -15.4538 
23 -129.07 
24 -129.864 
25 102.165 
26 -11.4513 
27 160.513 
28 41.823 
29 -72.9406 
30 81.4368 
31 -41.8949 
32 -163.979 
33 75.6517 
34 -46.4325 
35 -161.017 
36 -170.955 
37 66.9608 
38 -47.6234 
39 -112.744 
40 12.1108 
41 134.534 
42 -93.8799 
43 33.2025 
44 148.38 
45 -131.736 
46 -142.48 
47 96.6898 
48 -15.3139 
49 -17.8055 
50 -138.635 
51 109.361 
52 101.098 
53 -19.732 
54 152.229 
55 36.5255 
56 -85.2879 
57 169.031 
58 -64.9725 
59 52.7152 
60 166.566 
61 41.8133 
62 -77.9532 
63 167.546 
64 47.7793 
65 -67.7014 
66 -72.8961 
67 167.337 
68 51.8567 
69 -137.563 
70 101.237 
71 -26.7966 
72 156.475 
73 39.4624 
74 -86.926 
75 128.669 
76 9.03833 
77 -114.633 
78 138.105 
79 14.4343 
80 -102.264 
81 -109.191 
82 127.138 
83 10.4394 
84 -178.13 
85 -59.8304 
86 59.6635 
87 -178.493 
88 -57.9841 
89 61.5252 
90 -119.254 
91 120.393 
92 -2.92904 
93 53.7823 
94 -71.7403 
95 170.528 
96 50.0685 
97 -67.6628 
98 175.591 
99 167.413 
100 49.6813 
101 -67.0649 
102 50.0025 
103 -175.34 
104 -64.691 
105 47.5418 
106 -57.1775 
107 176.714 
108 -81.4148 
109 155.937 
110 43.1687 
111 -86.372 
112 160.86 
113 36.2763 
114 36.7985 
115 -75.9697 
116 159.447 
ITEM: TIMESTEP
37100
ITEM: NUMBER OF ENTRIES
116
ITEM: BOX BOUNDS pp pp pp
-2.1659880786948438e+01 2.1659880786948438e+01
-1.1125721167720103e+01 1.1125721167720103e+01
-1.1125721167720103e+01 1.1125721167720103e+01
ITEM: ENTRIES index c_dphi
1 -105.24 
2 21.2342 
3 -149.095 
4 91.932 
5 -22.7757 
6 -127.427 
7 112.229 
8 -5.38972 
9 -23.543 
10 -142.607 
11 97.1218 
12 -21.942 
13 -145.187 
14 95.7491 
15 33.7851 
16 -93.2041 
17 145.284 
18 26.4699 
19 -95.0425 
20 153.459 
21 140.053 
22 18.5403 
23 -92.9581 
24 -64.0959 
25 69.185 
26 -178.222 
27 122.077 
28 -8.26672 
29 -126.885 
30 109.568 
31 -9.04982 
32 -120.089 
33 -131.162 
34 110.22 
35 -0.819047 
36 162.542 
37 44.3619 
38 -80.2975 
39 -87.6961 
40 27.8869 
41 155.673 
42 -106.166 
43 11.486 
44 132.735 
45 -129.135 
46 -131.852 
47 107.204 
48 -8.64028 
49 -10.9527 
50 -131.897 
51 112.259 
52 107.654 
53 -13.2903 
54 163.948 
55 39.8991 
56 -74.4636 
57 -167.316 
58 -43.1379 
59 75.3022 
60 172.422 
61 48.958 
62 -69.9721 
63 173.7 
64 54.7696 
65 -62.8364 
66 -70.5213 
67 170.549 
68 52.9425 
69 -165.421 
70 78.9687 
71 -41.3296 
72 154.235 
73 24.1086 
74 -90.6851 
75 159.522 
76 36.9409 
77 -87.0161 
78 160.816 
79 36.859 
80 -76.6025 
81 -80.8521 
82 155.191 
83 41.7293 
84 179.74 
85 -55.2763 
86 63.6481 
87 -172.355 
88 -52.0709 
89 76.6448 
90 -87.9458 
91 148.198 
92 24.2441 
93 -93.5156 
94 142.531 
95 30.341 
96 29.3638 
97 -94.5898 
98 153.22 
99 -159.614 
100 84.2011 
101 -31.8602 
102 66.6916 
103 -66.8055 
104 -178.665 
105 46.379 
106 -65.4803 
107 179.876 
108 165.319 
109 53.4596 
110 -61.184 
111 -33.9295 
112 96.2628 
113 -149.023 
114 85.8911 
115 -23.0727 
116 -151.611 
ITEM: TIMESTEP
37200
ITEM: NUMBER OF ENTRIES
116
ITEM: BOX BOUNDS pp pp pp
-2.1659880786948438e+01 2.1659880786948438e+01
-1.1125721167720103e+01 1.1125721167720103e+01
-1.1125721167720103e+01 1.1125721167720103e+01
ITEM: ENTRIES index c_dphi
1 -132.812 
2 -14.0475 
3 179.859 
4 57.4674 
5 -61.7152 
6 -98.2856 
7 144.06 
8 19.3902 
9 -24.1802 
10 -138.044 
11 89.7869 
12 -24.0768 
13 -149.524 
14 96.6121 
15 64.718 
16 -49.7495 
17 -170.343 
18 68.1097 
19 -52.4841 
20 -177.423 
21 -172.959 
22 66.4468 
23 -58.4919 
24 -95.5466 
25 33.8769 
26 156.198 
27 111.227 
28 -17.9064 
29 -139.566 
30 103.947 
31 -17.7123 
32 -126.92 
33 -138.078 
34 100.262 
35 -8.94493 
36 149.771 
37 30.2563 
38 -100.495 
39 -92.355 
40 30.3933 
41 141.902 
42 -66.7756 
43 54.1528 
44 171.83 
45 -141.446 
46 -139.394 
47 101.803 
48 -21.7122 
49 -14.8897 
50 -133.693 
51 102.792 
52 100.872 
53 -17.9314 
54 -170.194 
55 67.4691 
56 -56.0474 
57 -121.394 
58 3.69932 
59 120.82 
60 175.551 
61 49.4237 
62 -68.0748 
63 171.761 
64 54.2629 
65 -62.1113 
66 -70.2479 
67 172.254 
68 55.8794 
69 145.477 
70 19.1268 
71 -93.9306 
72 170.491 
73 55.0144 
74 -72.2297 
75 155.043 
76 33.0612 
77 -82.9433 
78 147.651 
79 31.6461 
80 -90.3677 
81 -83.3493 
82 160.646 
83 38.6323 
84 -174.004 
85 -55.04 
86 72.5029 
87 -168.997 
88 -48.3815 
89 72.9423 
90 -71.4053 
91 166.548 
92 41.8353 
93 -81.6235 
94 153.664 
95 40.4234 
96 33.9753 
97 -90.7372 
98 156.022 
99 -169.23 
100 62.2991 
101 -50.1609 
102 77.6863 
103 -55.3559 
104 -171.61 
105 70.7078 
106 -45.5461 
107 -156.25 
108 -177.248 
109 66.4986 
110 -44.2053 
111 -41.2901 
112 88.2229 
113 -162.092 
114 -80.8917 
115 169.483 
116 49.9787 
ITEM: TIMESTEP
37300
ITEM: NUMBER OF ENTRIES
116
ITEM: BOX BOUNDS pp pp pp
-2.1659880786948438e+01 2.1659880786948438e+01
-1.1125721167720103e+01 1.1125721167720103e+01
-1.1125721167720103e+01 1.1125721167720103e+01
ITEM: ENTRIES index c_dphi
1 -176.268 
2 -49.7706 
3 157.079 
4 36.53 
5 -75.075 
6 -116.791 
7 130.969 
8 12.1896 
9 -35.1959 
10 -153.614 
11 77.9768 
12 -40.4414 
13 -166.573 
14 75.0087 
15 125.755 
16 -5.11824 
17 -118.399 
18 117.591 
19 4.3107 
20 -111.535 
21 -128.874 
22 117.845 
23 1.99917 
24 -66.9229 
25 42.586 
26 158.657 
27 121.587 
28 4.79747 
29 -108.601 
30 118.99 
31 5.59165 
32 -124.22 
33 -115.433 
34 131.168 
35 1.35694 
36 147.058 
37 27.9111 
38 -94.1789 
39 -75.153 
40 56.0103 
41 165.197 
42 -105.186 
43 19.7748 
44 137.749 
45 -132.796 
46 -139.563 
47 99.6246 
48 -15.257 
49 -18.4483 
50 -139.261 
51 105.857 
52 102.899 
53 -17.9139 
54 -142.419 
55 100.323 
56 -19.9525 
57 -103.804 
58 15.1137 
59 136.996 
60 164.302 
61 43.2573 
62 -72.6526 
63 162.416 
64 46.506 
65 -76.5397 
66 -76.8541 
67 167.236 
68 44.1904 
69 102.547 
70 -17.7931 
71 -146.055 
72 177.225 
73 61.9317 
74 -65.606 
75 176.851 
76 53.8567 
77 -59.3225 
78 178.521 
79 65.3419 
80 -58.4845 
81 -65.505 
82 -178.684 
83 57.4895 
84 177.677 
85 -63.0425 
86 58.0659 
87 -171.577 
88 -45.521 
89 66.2152 
90 -57.1846 
91 179.931 
92 66.9095 
93 -63.1417 
94 -176.163 
95 59.7427 
96 46.1197 
97 -66.9019 
98 169.004 
99 -168.753 
100 69.5007 
101 -48.017 
102 84.5312 
103 -47.9921 
104 -163.107 
105 65.9599 
106 -49.1551 
107 -161.517 
108 -166.322 
109 78.5625 
110 -33.7992 
111 -77.0991 
112 59.3134 
113 165.617 
114 -34.8637 
115 -142.152 
116 91.7451 
ITEM: TIMESTEP
37400
ITEM: NUMBER OF ENTRIES
116
ITEM: BOX BOUNDS pp pp pp
-2.1659880786948438e+01 2.1659880786948438e+01
-1.1125721167720103e+01 1.1125721167720103e+01
-1.1125721167720103e+01 1.1125721167720103e+01
ITEM: ENTRIES index c_dphi
1 -142.743 
2 -28.8769 
3 145.782 
4 26.9537 
5 -86.886 
6 -83.1687 
7 154.466 
8 39.1991 
9 -48.3888 
10 -163.078 
11 72.2694 
12 -42.4197 
13 -172.729 
14 72.582 
15 112.388 
16 -16.8634 
17 -135.527 
18 101.536 
19 -17.1272 
20 -129.213 
21 -140.13 
22 101.207 
23 -10.8788 
24 -83.0667 
25 38.2215 
26 163.406 
27 151.329 
28 35.2654 
29 -85.8269 
30 149.184 
31 28.0916 
32 -94.7528 
33 -86.2392 
34 152.668 
35 29.8241 
36 149.294 
37 33.9906 
38 -87.6594 
39 -88.9329 
40 40.5201 
41 152.1 
42 -148.4 
43 -31.8137 
44 92.817 
45 -137.685 
46 -142.36 
47 97.4819 
48 -20.4204 
49 -24.8859 
50 -145.044 
51 97.0534 
52 100.375 
53 -19.7831 
54 -147.157 
55 95.5132 
56 -17.6404 
57 -101.035 
58 10.7299 
59 134.681 
60 160.055 
61 45.6189 
62 -72.548 
63 162.669 
64 44.5021 
65 -82.895 
66 -77.3858 
67 164.447 
68 37.0502 
69 93.6641 
70 -19.5909 
71 -137.698 
72 -178.997 
73 59.1534 
74 -61.0512 
75 179.508 
76 54.7649 
77 -62.8214 
78 176.992 
79 59.4057 
80 -58.2645 
81 -64.9783 
82 177.435 
83 59.7652 
84 -151.036 
85 -23.0161 
86 93.0845 
87 -169.673 
88 -49.0637 
89 77.7002 
90 -65.4349 
91 169.239 
92 48.0902 
93 -70.9464 
94 167.905 
95 54.3801 
96 38.6703 
97 -82.4782 
98 163.997 
99 -173.812 
100 54.3788 
101 -59.9645 
102 71.6219 
103 -47.2401 
104 -172.148 
105 78.3144 
106 -46.5931 
107 -162.824 
108 -161.648 
109 73.4447 
110 -42.7857 
111 -41.3288 
112 82.4339 
113 -155.043 
114 83.5824 
115 -32.7896 
116 -149.44 
ITEM: TIMESTEP
37500
ITEM: NUMBER OF ENTRIES
116
ITEM: BOX BOUNDS pp pp pp
-2.1659880786948438e+01 2.1659880786948438e+01
-1.1125721167720103e+01 1.1125721167720103e+01
-1.1125721167720103e+01 1.1125721167720103e+01
ITEM: ENTRIES index c_dphi
1 -164.503 
2 -44.0911 
3 164.923 
4 46.0041 
5 -63.1543 
6 -77.0993 
7 157.539 
8 38.3876 
9 -28.7869 
10 -148.186 
11 104.779 
12 -14.6192 
13 -143.821 
14 96.7803 
15 91.7467 
16 -32.9838 
17 -146.231 
18 85.2242 
19 -28.0227 
20 -150.045 
21 -162.551 
22 84.2023 
23 -37.8202 
24 -104.812 
25 30.3503 
26 139.463 
27 133.92 
28 2.84633 
29 -104.989 
30 126.047 
31 18.2117 
32 -102.879 
33 -120.992 
34 131.173 
35 10.082 
36 174.459 
37 50.4094 
38 -65.1903 
39 -118.8 
40 1.25091 
41 119.942 
42 -137.354 
43 -17.037 
44 95.4987 
45 -125.233 
46 -126.246 
47 117.955 
48 -8.22499 
49 -9.62107 
50 -125.42 
51 108.4 
52 116.746 
53 0.947349 
54 -170.96 
55 74.2917 
56 -43.301 
57 -100.948 
58 31.0938 
59 150.39 
60 168.553 
61 35.5931 
62 -82.2983 
63 161.53 
64 43.6383 
65 -65.5104 
66 -82.3558 
67 159.753 
68 50.604 
69 143.398 
70 13.8788 
71 -101.242 
72 -161.631 
73 80.2131 
74 -38.1904 
75 159.234 
76 35.2098 
77 -83.5245 
78 153.869 
79 35.1344 
80 -82.107 
81 -83.4164 
82 157.849 
83 40.6079 
84 -161.275 
85 -35.6535 
86 79.7917 
87 163.374 
88 -80.1143 
89 50.0315 
90 -76.9713 
91 164.145 
92 41.66 
93 -74.5296 
94 162.986 
95 44.3543 
96 41.3851 
97 -81.0996 
98 160.269 
99 -173.262 
100 68.9022 
101 -47.5383 
102 75.964 
103 -51.4523 
104 -160.679 
105 64.0717 
106 -45.1555 
107 -168.512 
108 -178.885 
109 71.8881 
110 -51.4684 
111 -55.5313 
112 66.8259 
113 -169.292 
114 48.255 
115 -75.5771 
116 175.013 
ITEM: TIMESTEP
37600
ITEM: NUMBER OF ENTRIES
116
ITEM: BOX BOUNDS pp pp pp
-2.1659880786948438e+01 2.1659880786948438e+01
-1.1125721167720103e+01 1.1125721167720103e+01
-1.1125721167720103e+01 1.1125721167720103e+01
ITEM: ENTRIES index c_dphi
1 -142.816 
2 -22.2245 
3 -155.246 
4 89.0119 
5 -42.2497 
6 -98.4706 
7 151.126 
8 27.1844 
9 -38.6945 
10 -153.029 
11 64.2557 
12 -50.079 
13 -167.653 
14 78.0127 
15 57.6678 
16 -56.558 
17 -177.258 
18 65.6247 
19 -55.0756 
20 179.85 
21 -176.553 
22 62.7465 
23 -62.3274 
24 -74.4338 
25 45.4821 
26 161.754 
27 158.446 
28 29.6187 
29 -83.3613 
30 152.862 
31 39.8817 
32 -78.3114 
33 -91.8558 
34 155.164 
35 36.9711 
36 169.798 
37 41.6596 
38 -67.9695 
39 -168.787 
40 -45.8568 
41 69.2362 
42 -139.723 
43 -11.9327 
44 99.4601 
45 -111.513 
46 -121.487 
47 125.185 
48 7.17838 
49 2.1642 
50 -111.164 
51 130.83 
52 119.821 
53 6.49305 
54 138.726 
55 16.1362 
56 -102.718 
57 -91.941 
58 35.5319 
59 146.944 
60 -150.585 
61 86.3409 
62 -27.4329 
63 -148.461 
64 97.7647 
65 -25.3872 
66 -31.7085 
67 -145.482 
68 91.3657 
69 -165.907 
70 71.8211 
71 -48.552 
72 -154.748 
73 91.1377 
74 -37.571 
75 146.042 
76 22.8583 
77 -88.6568 
78 140.107 
79 28.5918 
80 -96.7097 
81 -99.8295 
82 148.656 
83 23.354 
84 -175.248 
85 -47.0302 
86 67.4485 
87 165.732 
88 -69.7758 
89 39.9321 
90 -49.2613 
91 -176.319 
92 71.2993 
93 -46.1741 
94 -158.556 
95 80.8833 
96 64.8145 
97 -47.5676 
98 -168.128 
99 151.489 
100 28.2853 
101 -85.3593 
102 70.0634 
103 -53.1307 
104 -167.197 
105 70.525 
106 -43.541 
107 -166.281 
108 -176.354 
109 69.5802 
110 -53.1598 
111 -57.0186 
112 61.2543 
113 -178.353 
114 14.328 
115 -114.211 
116 134.279 
ITEM: TIMESTEP
37700
ITEM: NUMBER OF ENTRIES
116
ITEM: BOX BOUNDS pp pp pp
-2.1659880786948438e+01 2.1659880786948438e+01
-1.1125721167720103e+01 1.1125721167720103e+01
-1.1125721167720103e+01 1.1125721167720103e+01
ITEM: ENTRIES index c_dphi
1 -170.087 
2 -50.1971 
3 -153.979 
4 87.5577 
5 -38.2752 
6 -106.192 
7 142.599 
8 26.4429 
9 -49.3505 
10 -169.356 
11 63.1722 
12 -56.8336 
13 175.175 
14 55.1694 
15 115.123 
16 -13.607 
17 -127.701 
18 111.093 
19 -3.00102 
20 -120.177 
21 -127.851 
22 118.055 
23 0.878987 
24 -87.3123 
25 39.7959 
26 160.349 
27 -163.955 
28 72.59 
29 -51.4667 
30 -170.367 
31 65.5761 
32 -46.912 
33 -47.7989 
34 -171.856 
35 75.6564 
36 -163.063 
37 76.8894 
38 -43.3064 
39 173.606 
40 -68.0356 
41 53.603 
42 -169.67 
43 -44.584 
44 78.0182 
45 -108.463 
46 -110.102 
47 128.515 
48 13.7486 
49 6.0148 
50 -115.368 
51 129.866 
52 127.686 
53 6.30302 
54 148.1 
55 25.7623 
56 -88.8509 
57 -65.9808 
58 47.4212 
59 166.895 
60 -158.548 
61 89.0026 
62 -27.6173 
63 -152.795 
64 90.5853 
65 -40.3457 
66 -28.7814 
67 -145.401 
68 83.6676 
69 152.32 
70 30.834 
71 -86.8231 
72 179.069 
73 53.8071 
74 -62.8353 
75 129.09 
76 9.90507 
77 -104.549 
78 134.709 
79 20.2549 
80 -106.106 
81 -105.51 
82 140.036 
83 13.6752 
84 -171.366 
85 -45.8653 
86 64.3398 
87 -177.222 
88 -62.5301 
89 60.0441 
90 -73.8996 
91 159.676 
92 52.0772 
93 -72.6368 
94 179.764 
95 53.7875 
96 39.5885 
97 -68.0104 
98 166.013 
99 144.572 
100 23.1704 
101 -96.2742 
102 73.1241 
103 -41.9346 
104 -167.269 
105 72.6317 
106 -52.7022 
107 -172.31 
108 -157.07 
109 77.5965 
110 -42.0108 
111 20.757 
112 137.553 
113 -104.862 
114 47.1935 
115 -72.3233 
116 165.373 
ITEM: TIMESTEP
37800
ITEM: NUMBER OF ENTRIES
116
ITEM: BOX BOUNDS pp pp pp
-2.1659880786948438e+01 2.1659880786948438e+01
-1.1125721167720103e+01 1.1125721167720103e+01
-1.1125721167720103e+01 1.1125721167720103e+01
ITEM: ENTRIES index c_dphi
1 -155.078 
2 -34.1625 
3 -144.481 
4 109.839 
5 -14.5126 
6 -104.589 
7 138.924 
8 21.0405 
9 -80.9933 
10 157.746 
11 32.1509 
12 -89.1101 
13 154.147 
14 32.8862 
15 135.772 
16 20.9219 
17 -100.873 
18 132.775 
19 10.98 
20 -112.375 
21 -110.911 
22 127.294 
23 3.93895 
24 -98.6409 
25 18.7186 
26 141.758 
27 -153.131 
28 88.2164 
29 -30.7843 
30 -149.795 
31 91.2044 
32 -31.142 
33 -23.958 
34 -142.959 
35 94.6948 
36 -164.908 
37 70.9643 
38 -58.2094 
39 157.09 
40 -87.5017 
41 39.5283 
42 176.15 
43 -69.3278 
44 48.4434 
45 -78.7855 
46 -76.9385 
47 168.811 
48 42.766 
49 43.4259 
50 -70.8251 
51 163.13 
52 161.51 
53 47.2591 
54 171.465 
55 46.5241 
56 -67.7824 
57 -75.4347 
58 49.3108 
59 171.23 
60 -149.222 
61 90.9692 
62 -32.2181 
63 -153.737 
64 83.076 
65 -33.9276 
66 -34.8053 
67 -157.993 
68 85.0038 
69 125.6 
70 5.97671 
71 -110.33 
72 175.421 
73 59.1932 
74 -54.2612 
75 131.508 
76 9.54853 
77 -107.441 
78 126.03 
79 9.04046 
80 -112.011 
81 -121.807 
82 121.204 
83 0.152426 
84 170.476 
85 -62.6911 
86 50.6046 
87 -175.133 
88 -55.0341 
89 67.1841 
90 -68.5181 
91 164.096 
92 47.2276 
93 -79.5221 
94 163.61 
95 47.8643 
96 42.5332 
97 -74.3347 
98 169.92 
99 166.434 
100 48.5989 
101 -75.6091 
102 52.5471 
103 -68.1833 
104 172.752 
105 49.1689 
106 -69.8955 
107 169.899 
108 171.518 
109 52.4535 
110 -67.7517 
111 51.8923 
112 170.325 
113 -66.6601 
114 30.9884 
115 -89.6199 
116 155.035 
ITEM: TIMESTEP
37900
ITEM: NUMBER OF ENTRIES
116
ITEM: BOX BOUNDS pp pp pp
-2.1659880786948438e+01 2.1659880786948438e+01
-1.1125721167720103e+01 1.1125721167720103e+01
-1.1125721167720103e+01 1.1125721167720103e+01
ITEM: ENTRIES index c_dphi
1 -146.334 
2 -28.965 
3 -163.824 
4 79.8934 
5 -52.9128 
6 -107.787 
7 122.326 
8 7.22628 
9 -62.1542 
10 -176.911 
11 71.515 
12 -43.242 
13 -177.606 
14 67.6372 
15 115.138 
16 -10.1913 
17 -127.5 
18 115.34 
19 -1.96862 
20 -119.33 
21 -130.624 
22 112.067 
23 -5.29504 
24 -76.7914 
25 40.74 
26 162.581 
27 -168.982 
28 68.0294 
29 -52.6198 
30 -170.367 
31 68.9837 
32 -47.3786 
33 -49.7948 
34 -170.444 
35 73.1937 
36 165.425 
37 48.0142 
38 -83.0992 
39 170.209 
40 -67.7988 
41 54.2153 
42 164.815 
43 -71.4935 
44 41.1318 
45 -70.4241 
46 -74.15 
47 169.874 
48 47.9029 
49 45.7858 
50 -70.1899 
51 167.839 
52 167.523 
53 51.5472 
54 140.703 
55 24.9604 
56 -98.4234 
57 -78.0315 
58 46.9539 
59 165.666 
60 -146.062 
61 91.8228 
62 -28.6862 
63 -145.637 
64 93.8539 
65 -23.5219 
66 -19.693 
67 -140.202 
68 102.422 
69 142.21 
70 21.2148 
71 -98.7343 
72 179.774 
73 64.2691 
74 -52.7702 
75 123.284 
76 -0.568579 
77 -112.008 
78 111.092 
79 -0.34771 
80 -125.056 
81 -127.874 
82 120.686 
83 -4.02186 
84 -165.778 
85 -44.0928 
86 79.768 
87 174.904 
88 -63.5466 
89 50.1256 
90 -59.5334 
91 174.017 
92 50.0691 
93 -79.4931 
94 156.559 
95 46.9563 
96 46.0008 
97 -77.9475 
98 172.45 
99 174.223 
100 58.8171 
101 -61.5068 
102 83.6548 
103 -34.1056 
104 -151.393 
105 88.1076 
106 -29.1799 
107 -154.132 
108 -163.338 
109 79.3744 
110 -45.5777 
111 -59.6185 
112 60.8744 
113 179.154 
114 78.8859 
115 -32.3427 
116 -154.805 
ITEM: TIMESTEP
38000
ITEM: NUMBER OF ENTRIES
116
ITEM: BOX BOUNDS pp pp pp
-2.1659880786948438e+01 2.1659880786948438e+01
-1.1125721167720103e+01 1.1125721167720103e+01
-1.1125721167720103e+01 1.1125721167720103e+01
ITEM: ENTRIES index c_dphi
1 -124.707 
2 -11.5154 
3 -154.617 
4 89.9308 
5 -38.0781 
6 -104.378 
7 141.622 
8 24.9324 
9 -70.1087 
10 170.867 
11 41.7588 
12 -77.2659 
13 161.424 
14 42.3993 
15 97.4498 
16 -11.5666 
17 -135.579 
18 105.836 
19 -18.177 
20 -145.148 
21 -128.358 
22 107.629 
23 -19.3416 
24 -78.7953 
25 52.3219 
26 175.521 
27 -179.755 
28 49.8361 
29 -68.2566 
30 171.661 
31 53.5684 
32 -57.9303 
33 -78.4708 
34 163.437 
35 51.9378 
36 -156.924 
37 86.6638 
38 -33.7406 
39 165.195 
40 -86.2222 
41 40.0529 
42 -169.56 
43 -40.5964 
44 75.8304 
45 -92.8029 
46 -95.274 
47 144.269 
48 27.4074 
49 22.4374 
50 -98.0191 
51 145.119 
52 144.516 
53 24.0592 
54 125.666 
55 2.75101 
56 -109.198 
57 -101.071 
58 22.9104 
59 139.245 
60 -151.152 
61 87.9324 
62 -31.8562 
63 -153.411 
64 86.8009 
65 -32.4951 
66 -26.1853 
67 -145.974 
68 94.7303 
69 151.14 
70 31.009 
71 -90.38 
72 -167.194 
73 65.182 
74 -52.0686 
75 174.184 
76 52.9275 
77 -62.005 
78 173.901 
79 58.9685 
80 -64.843 
81 -58.0245 
82 -172.957 
83 63.2317 
84 -136.361 
85 -28.4105 
86 94.4499 
87 178.642 
88 -61.657 
89 55.3291 
90 -70.8784 
91 174.954 
92 56.4186 
93 -66.0909 
94 175.373 
95 48.0764 
96 52.5013 
97 -66.0343 
98 166.669 
99 144.065 
100 22.1973 
101 -104.695 
102 74.5815 
103 -37.1999 
104 -154.346 
105 88.7734 
106 -28.3725 
107 -159.445 
108 -145.052 
109 97.8018 
110 -33.2709 
111 -76.8318 
112 44.1712 
113 152.003 
114 106.803 
115 -3.60179 
116 -139.121 
ITEM: TIMESTEP
38100
ITEM: NUMBER OF ENTRIES
116
ITEM: BOX BOUNDS pp pp pp
-2.1659880786948438e+01 2.1659880786948438e+01
-1.1125721167720103e+01 1.1125721167720103e+01
-1.1125721167720103e+01 1.1125721167720103e+01
ITEM: ENTRIES index c_dphi
1 -76.3093 
2 -68.2984 
3 161.455 
4 38.7509 
5 50.535 
6 -79.7112 
7 157.584 
8 176.641 
9 46.3951 
10 -98.2929 
11 22.6717 
12 -164.571 
13 80.0498 
14 -47.533 
15 -100.533 
16 143.828 
17 33.4811 
18 -78.6956 
19 159.112 
20 28.1891 
21 -94.0033 
22 147.402 
23 25.2098 
24 -164.563 
25 65.8591 
26 -54.1301 
27 -172.591 
28 67.42 
29 -43.0134 
30 -60.1446 
31 179.866 
32 69.4328 
33 91.2066 
34 -23.4062 
35 -146.184 
36 94.8515 
37 -27.9261 
38 -150.536 
39 -148.871 
40 88.3516 
41 -34.258 
42 -88.6122 
43 32.7355 
44 154.485 
45 -156.008 
46 81.066 
47 -31.7594 
48 163.239 
49 -81.3392 
50 46.3589 
51 -173.18 
52 -57.3915 
53 62.8731 
54 131.511 
55 19.6891 
56 -95.6254 
57 -129.724 
58 -14.7372 
59 100.622 
60 -137.133 
61 109.507 
62 -4.73635 
63 -126.641 
64 119.116 
65 -13.2805 
66 -15.1158 
67 -129.359 
68 98.2445 
69 142.799 
70 15.8829 
71 -97.434 
72 -168.196 
73 73.0839 
74 -46.7593 
75 -174.527 
76 66.2396 
77 -53.4411 
78 -169.899 
79 70.42 
80 -50.6664 
81 -55.6655 
82 -175.346 
83 63.5674 
84 -155.754 
85 -31.7541 
86 86.1866 
87 -68.182 
88 164.168 
89 51.2779 
90 -88.2804 
91 158.83 
92 39.3698 
93 34.4702 
94 -78.4197 
95 162.12 
96 72.9688 
97 -38.3199 
98 -161.005 
99 172.559 
100 -66.6549 
101 47.5211 
102 139.945 
103 23.0237 
104 -94.4491 
105 69.3301 
106 -58.6686 
107 -172.521 
108 57.2612 
109 -56.5908 
110 -174.74 
111 178.408 
112 64.5562 
113 -53.5931 
114 20.2815 
115 146.473 
116 -94.3029 
ITEM: TIMESTEP
38200
ITEM: NUMBER OF ENTRIES
116
ITEM: BOX BOUNDS pp pp pp
-2.1659880786948438e+01 2.1659880786948438e+01
-1.1125721167720103e+01 1.1125721167720103e+01
-1.1125721167720103e+01 1.1125721167720103e+01
ITEM: ENTRIES index c_dphi
1 -43.1882 
2 -53.1803 
3 -174.096 
4 71.9853 
5 70.4483 
6 -50.467 
7 -164.386 
8 -168.354 
9 70.7308 
10 -106.987 
11 7.81889 
12 -170.822 
13 74.0029 
14 -50.0003 
15 -78.8658 
16 157.206 
17 36.2625 
18 -88.0367 
19 156.489 
20 41.2848 
21 -74.1896 
22 150.553 
23 35.0785 
24 -145.36 
25 99.2253 
26 -20.2756 
27 -133.309 
28 107.19 
29 -17.8944 
30 -19.3565 
31 -138.857 
32 96.0579 
33 108.399 
34 -22.4973 
35 -139.765 
36 96.8164 
37 -20.4513 
38 -132.287 
39 -149.251 
40 93.4811 
41 -18.3547 
42 -101.199 
43 14.9009 
44 134.126 
45 167.412 
46 40.7366 
47 -73.3446 
48 165.533 
49 -69.2988 
50 48.503 
51 169.49 
52 -64.4684 
53 46.7928 
54 109.823 
55 -2.49905 
56 -127.701 
57 -129.252 
58 -8.78979 
59 106.267 
60 -126.784 
61 113.399 
62 0.709431 
63 -120.91 
64 126.401 
65 -1.09273 
66 -8.97998 
67 -121.669 
68 110.837 
69 129.505 
70 9.47733 
71 -112.261 
72 160.544 
73 41.5585 
74 -71.2583 
75 -173.299 
76 69.3492 
77 -55.708 
78 -169.331 
79 65.6119 
80 -51.9789 
81 -61.7747 
82 173.168 
83 55.5773 
84 -174.121 
85 -52.4422 
86 68.0124 
87 -42.9485 
88 -164.756 
89 76.4312 
90 -48.616 
91 -167.428 
92 73.1919 
93 73.6552 
94 -45.1572 
95 -164.537 
96 46.327 
97 -80.6102 
98 168.998 
99 -151.044 
100 -31.076 
101 87.9011 
102 165.179 
103 45.1617 
104 -74.5258 
105 16.6604 
106 -116.645 
107 128.813 
108 6.7217 
109 -107.821 
110 140.027 
111 122.042 
112 7.49989 
113 -104.652 
114 -144.555 
115 -20.6395 
116 106.352 
ITEM: TIMESTEP
38300
ITEM: NUMBER OF ENTRIES
116
ITEM: BOX BOUNDS pp pp pp
-2.1659880786948438e+01 2.1659880786948438e+01
-1.1125721167720103e+01 1.1125721167720103e+01
-1.1125721167720103e+01 1.1125721167720103e+01
ITEM: ENTRIES index c_dphi
1 -90.9273 
2 -89.7019 
3 156.084 
4 31.7491 
5 25.234 
6 -88.9796 
7 146.685 
8 147.622 
9 33.4081 
10 -124.816 
11 7.77341 
12 176.125 
13 57.3312 
14 -64.8114 
15 -115.623 
16 127.499 
17 9.90519 
18 -24.5608 
19 -159.1 
20 94.2081 
21 -40.3317 
22 -142.741 
23 82.719 
24 -152.457 
25 91.1046 
26 -23.9424 
27 -155.474 
28 89.4792 
29 -39.0355 
30 -32.4966 
31 -147.544 
32 83.9418 
33 91.823 
34 -25.5959 
35 -145.044 
36 92.6372 
37 -26.8113 
38 -149.944 
39 -147.505 
40 93.0465 
41 -30.0862 
42 -94.3859 
43 24.9971 
44 144.696 
45 -171.18 
46 77.3187 
47 -47.0238 
48 -174.302 
49 -55.1136 
50 62.5128 
51 171.349 
52 -67.1088 
53 52.0895 
54 109.73 
55 -14.3744 
56 -126.684 
57 -141.297 
58 -15.3531 
59 110.931 
60 -142.327 
61 89.4838 
62 -36.0101 
63 -151.872 
64 82.634 
65 -23.6824 
66 -25.6962 
67 -151.19 
68 102.494 
69 121.131 
70 0.28494 
71 -120.878 
72 -173.451 
73 66.5531 
74 -48.7872 
75 -146.594 
76 98.7132 
77 -25.4269 
78 -153.13 
79 82.7296 
80 -38.437 
81 -24.4258 
82 -148.566 
83 90.2675 
84 -144.349 
85 -21.5512 
86 101.284 
87 -69.7071 
88 169.179 
89 45.9583 
90 -59.3135 
91 177.466 
92 61.8004 
93 44.1827 
94 -79.0381 
95 165.297 
96 30.5172 
97 -97.4127 
98 150.045 
99 -128.958 
100 -13.2619 
101 104.811 
102 -166.159 
103 68.1447 
104 -49.1435 
105 -67.3515 
106 167.287 
107 51.6423 
108 -63.2097 
109 -178.855 
110 62.1515 
111 50.2362 
112 -65.4089 
113 175.597 
114 84.316 
115 -147.258 
116 -34.0757 
ITEM: TIMESTEP
38400
ITEM: NUMBER OF ENTRIES
116
ITEM: BOX BOUNDS pp pp pp
-2.1659880786948438e+01 2.1659880786948438e+01
-1.1125721167720103e+01 1.1125721167720103e+01
-1.1125721167720103e+01 1.1125721167720103e+01
ITEM: ENTRIES index c_dphi
1 -123.089 
2 -117.599 
3 117.083 
4 -3.67919 
5 5.13398 
6 -120.185 
7 119.054 
8 122.991 
9 -2.32762 
10 -104.331 
11 8.16038 
12 -148.129 
13 89.2638 
14 -28.6268 
15 -114.309 
16 129.533 
17 12.3308 
18 -40.9626 
19 -162.544 
20 74.1732 
21 -47.4083 
22 -175.337 
23 63.0811 
24 -163.062 
25 73.7219 
26 -57.8887 
27 -175.156 
28 53.2332 
29 -51.9402 
30 -50.3729 
31 178.016 
32 72.8431 
33 60.1391 
34 -59.3626 
35 -172.711 
36 67.6308 
37 -45.7174 
38 -172.868 
39 -179.134 
40 67.5176 
41 -59.6325 
42 -64.4755 
43 57.6585 
44 173.318 
45 -171.807 
46 76.4318 
47 -45.895 
48 -174.632 
49 -52.5156 
50 60.2201 
51 -167.217 
52 -50.3681 
53 71.5789 
54 85.714 
55 -36.3116 
56 -153.857 
57 -146.937 
58 -22.8297 
59 101.099 
60 -138.219 
61 94.983 
62 -24.5359 
63 -137.944 
64 102.537 
65 -11.1463 
66 -14.8569 
67 -134.376 
68 111.941 
69 159.854 
70 38.8833 
71 -87.371 
72 -166.431 
73 69.6389 
74 -51.4642 
75 -136.913 
76 104.516 
77 -18.3697 
78 -125.42 
79 111.694 
80 -6.84992 
81 -11.3926 
82 -134.279 
83 107.178 
84 -132.105 
85 -15.872 
86 101.761 
87 -64.1727 
88 -176.49 
89 66.6163 
90 -50.7092 
91 -167.603 
92 61.6077 
93 65.0738 
94 -51.8202 
95 177.391 
96 78.6106 
97 -38.1133 
98 -165.245 
99 -156.673 
100 -33.5149 
101 79.994 
102 -159.214 
103 83.5443 
104 -38.1579 
105 -52.9022 
106 178.71 
107 52.9046 
108 -65.1471 
109 169.048 
110 63.2409 
111 61.3369 
112 -64.4684 
113 -170.275 
114 67.52 
115 -156.529 
116 -47.7884 
ITEM: TIMESTEP
38500
ITEM: NUMBER OF ENTRIES
116
ITEM: BOX BOUNDS pp pp pp
-2.1659880786948438e+01 2.1659880786948438e+01
-1.1125721167720103e+01 1.1125721167720103e+01
-1.1125721167720103e+01 1.1125721167720103e+01
ITEM: ENTRIES index c_dphi
1 -134.475 
2 -147.469 
3 100.891 
4 -16.5098 
5 -29.5329 
6 -141.173 
7 101.427 
8 94.5657 
9 -17.0743 
10 -139.405 
11 -11.2687 
12 -142.517 
13 100.538 
14 -14.7761 
15 -150.405 
16 89.3173 
17 -25.2182 
18 -23.8347 
19 -139.05 
20 82.0244 
21 -33.1911 
22 -144.269 
23 100.516 
24 166.48 
25 39.8339 
26 -85.9849 
27 172.157 
28 46.3387 
29 -61.1965 
30 -72.3079 
31 161.873 
32 54.3381 
33 104.927 
34 -25.318 
35 -140.584 
36 86.024 
37 -29.2416 
38 -143.731 
39 -155.149 
40 89.5857 
41 -24.904 
42 -77.8169 
43 55.6044 
44 171.27 
45 -146.473 
46 78.988 
47 -31.9387 
48 -151.232 
49 -22.628 
50 92.2257 
51 -128.857 
52 -6.4301 
53 112.93 
54 70.23 
55 -49.193 
56 -161.071 
57 -144.264 
58 -28.3908 
59 97.3596 
60 -147.905 
61 89.3352 
62 -25.4701 
63 -143.702 
64 101.493 
65 -20.9414 
66 -34.3095 
67 -149.115 
68 88.4507 
69 167.274 
70 46.9406 
71 -71.0582 
72 177.571 
73 52.6114 
74 -69.0495 
75 175.821 
76 52.7466 
77 -68.6381 
78 -176.514 
79 62.1008 
80 -53.4398 
81 -62.4045 
82 176.211 
83 60.6701 
84 -125.589 
85 8.15548 
86 116.239 
87 -62.159 
88 166.466 
89 55.0116 
90 -78.5248 
91 170.021 
92 52.85 
93 51.1595 
94 -60.2951 
95 -177.466 
96 -46.7766 
97 -164.833 
98 75.5188 
99 -176.294 
100 -49.2073 
101 67.9671 
102 -109.98 
103 122.868 
104 9.71509 
105 -79.6428 
106 163.025 
107 30.9554 
108 -69.3595 
109 158.571 
110 47.9728 
111 45.0623 
112 -87.0071 
113 162.395 
114 94.1479 
115 -150.105 
116 -18.3466 
ITEM: TIMESTEP
38600
ITEM: NUMBER OF ENTRIES
116
ITEM: BOX BOUNDS pp pp pp
-2.1659880786948438e+01 2.1659880786948438e+01
-1.1125721167720103e+01 1.1125721167720103e+01
-1.1125721167720103e+01 1.1125721167720103e+01
ITEM: ENTRIES index c_dphi
1 -120.417 
2 -123.258 
3 122.832 
4 6.77578 
5 -6.85642 
6 -120.767 
7 123.177 
8 109.55 
9 -4.36074 
10 -171.295 
11 -53.7382 
12 -127.471 
13 117.188 
14 1.99399 
15 -153.288 
16 82.2567 
17 -39.2665 
18 -8.05518 
19 -120.154 
20 119.318 
21 7.21918 
22 -125.728 
23 122.173 
24 154.926 
25 37.679 
26 -85.0565 
27 157.337 
28 34.6013 
29 -85.416 
30 -86.4691 
31 150.795 
32 30.7781 
33 126.115 
34 0.854836 
35 -121.83 
36 113.756 
37 -8.92848 
38 -120.984 
39 -132.533 
40 104.783 
41 -7.27279 
42 -95.4607 
43 18.1793 
44 130.977 
45 -156.238 
46 80.2507 
47 -32.4104 
48 -148.483 
49 -26.1291 
50 94.8402 
51 -140.138 
52 -9.90504 
53 100.063 
54 119.953 
55 -9.01406 
56 -126.563 
57 -155.989 
58 -33.7816 
59 80.1992 
60 -153.886 
61 80.4273 
62 -32.0572 
63 -163.655 
64 83.8602 
65 -37.9685 
66 -50.034 
67 -162.518 
68 75.6529 
69 -164.145 
70 83.2328 
71 -41.6649 
72 179.218 
73 63.7078 
74 -52.7599 
75 169.572 
76 52.6846 
77 -74.1697 
78 164.146 
79 37.2922 
80 -78.9666 
81 -74.6613 
82 158.484 
83 42.2256 
84 -146.137 
85 -21.0652 
86 94.1626 
87 -86.4988 
88 145.153 
89 24.4689 
90 -92.1445 
91 147.172 
92 36.2041 
93 23.0647 
94 -97.6191 
95 151.413 
96 -44.9082 
97 -168.238 
98 73.3328 
99 -174.205 
100 -57.6561 
101 70.1913 
102 -113.629 
103 119.967 
104 7.43021 
105 -54.7194 
106 175.091 
107 64.2737 
108 -60.6512 
109 -171.469 
110 69.5383 
111 51.6572 
112 -59.1602 
113 -178.153 
114 61.8817 
115 -179.839 
116 -47.0289 
ITEM: TIMESTEP
38700
ITEM: NUMBER OF ENTRIES
116
ITEM: BOX BOUNDS pp pp pp
-2.1659880786948438e+01 2.1659880786948438e+01
-1.1125721167720103e+01 1.1125721167720103e+01
-1.1125721167720103e+01 1.1125721167720103e+01
ITEM: ENTRIES index c_dphi
1 -110.348 
2 -98.1554 
3 139.065 
4 14.2051 
5 18.0647 
6 -104.715 
7 130.425 
8 137.291 
9 14.5117 
10 -164.869 
11 -52.6997 
12 -132.253 
13 111.948 
14 -15.9926 
15 178.447 
16 56.0027 
17 -71.8674 
18 -24.7463 
19 -139.028 
20 103.299 
21 -10.9825 
22 -136.582 
23 109.137 
24 173.13 
25 63.6056 
26 -53.1761 
27 179.841 
28 63.059 
29 -70.6349 
30 -59.2501 
31 -176.032 
32 50.2743 
33 97.5241 
34 -22.6924 
35 -146.313 
36 98.5057 
37 -25.1148 
38 -141.278 
39 -138.888 
40 97.4912 
41 -18.6719 
42 -58.6519 
43 64.2432 
44 170.717 
45 -154.505 
46 89.8751 
47 -28.8228 
48 -155.899 
49 -36.2615 
50 87.4337 
51 -179.584 
52 -66.1962 
53 57.732 
54 163.164 
55 35.8089 
56 -77.0392 
57 179.596 
58 -53.5965 
59 59.9843 
60 -131.677 
61 96.7529 
62 -15.1179 
63 -148.525 
64 99.6046 
65 -16.9547 
66 -31.9549 
67 -143.826 
68 99.6149 
69 -141.974 
70 101.9 
71 -14.1519 
72 -175.535 
73 78.4306 
74 -45.8216 
75 173.494 
76 56.7742 
77 -63.1563 
78 164.775 
79 44.8445 
80 -78.5047 
81 -77.5419 
82 162.528 
83 39.1783 
84 -170.856 
85 -56.7787 
86 63.3807 
87 -81.7648 
88 162.418 
89 40.6365 
90 -71.4823 
91 166.736 
92 44.3345 
93 42.6455 
94 -79.1364 
95 158.462 
96 -66.2221 
97 174.315 
98 44.9178 
99 -175.738 
100 -61.1021 
101 58.6074 
102 -83.5052 
103 154.035 
104 41.6215 
105 -67.5799 
106 166.361 
107 50.3778 
108 -72.9401 
109 171.076 
110 53.1187 
111 42.0052 
112 -73.9783 
113 168.064 
114 51.3986 
115 178.691 
116 -68.1131 
ITEM: TIMESTEP
38800
ITEM: NUMBER OF ENTRIES
116
ITEM: BOX BOUNDS pp pp pp
-2.1659880786948438e+01 2.1659880786948438e+01
-1.1125721167720103e+01 1.1125721167720103e+01
-1.1125721167720103e+01 1.1125721167720103e+01
ITEM: ENTRIES index c_dphi
1 -105.679 
2 -100.105 
3 147.548 
4 16.7852 
5 20.0491 
6 -92.298 
7 136.94 
8 137.431 
9 25.0837 
10 -148.483 
11 -23.306 
12 -139.442 
13 100.628 
14 -30.2078 
15 -155.929 
16 87.6584 
17 -30.0767 
18 -14.6815 
19 -134.921 
20 103.054 
21 -17.1854 
22 -143.027 
23 96.7335 
24 -166.937 
25 78.1209 
26 -43.4434 
27 -164.378 
28 74.0579 
29 -49.4361 
30 -45.6406 
31 -167.205 
32 69.3011 
33 72.9255 
34 -44.2013 
35 -155.833 
36 68.5072 
37 -43.125 
38 -174.366 
39 -161.149 
40 87.219 
41 -44.022 
42 -94.6377 
43 16.5622 
44 140.718 
45 -137.904 
46 101.139 
47 -12.4908 
48 -138.407 
49 -25.4741 
50 95.1581 
51 175.278 
52 -69.7629 
53 45.2467 
54 155.666 
55 29.692 
56 -82.5845 
57 -178.662 
58 -57.8144 
59 68.1298 
60 -125.093 
61 108.716 
62 -10.0443 
63 -130.933 
64 110.307 
65 -4.74222 
66 -12.4458 
67 -131.206 
68 113.745 
69 -118.823 
70 118.216 
71 1.26228 
72 -171.015 
73 63.207 
74 -59.6709 
75 153.673 
76 38.736 
77 -88.2811 
78 163.679 
79 36.662 
80 -81.3839 
81 -80.4131 
82 152.57 
83 34.5238 
84 -173.502 
85 -48.2945 
86 67.1819 
87 -68.536 
88 168.792 
89 52.0389 
90 -69.1416 
91 174.105 
92 53.5301 
93 48.278 
94 -68.4754 
95 170.95 
96 -54.0631 
97 -166.964 
98 62.6814 
99 169.634 
100 -72.5121 
101 45.332 
102 -93.387 
103 150.019 
104 27.8628 
105 -67.0022 
106 175.904 
107 63.1848 
108 -63.7473 
109 -176.466 
110 53.3468 
111 55.855 
112 -56.8639 
113 172.949 
114 55.6355 
115 172.673 
116 -76.283 
ITEM: TIMESTEP
38900
ITEM: NUMBER OF ENTRIES
116
ITEM: BOX BOUNDS pp pp pp
-2.1659880786948438e+01 2.1659880786948438e+01
-1.1125721167720103e+01 1.1125721167720103e+01
-1.1125721167720103e+01 1.1125721167720103e+01
ITEM: ENTRIES index c_dphi
1 -79.1105 
2 -86.0521 
3 156.541 
4 36.6272 
5 33.8965 
6 -83.5109 
7 156.576 
8 158.21 
9 40.8029 
10 -136.518 
11 -13.989 
12 -162.066 
13 78.6036 
14 -38.4904 
15 -164.533 
16 78.8499 
17 -37.5904 
18 -36.7033 
19 -169.011 
20 83.2983 
21 -49.0097 
22 -162.157 
23 65.5355 
24 175.95 
25 52.3083 
26 -66.29 
27 173.007 
28 54.4083 
29 -63.352 
30 -67.6783 
31 173.723 
32 55.9632 
33 93.8204 
34 -27.4759 
35 -151.074 
36 90.1679 
37 -33.4302 
38 -148.536 
39 -145.647 
40 90.7547 
41 -24.3509 
42 -76.522 
43 45.1758 
44 164.014 
45 -161.59 
46 81.7141 
47 -41.1599 
48 -127.026 
49 -5.62201 
50 119.382 
51 -166.777 
52 -40.3829 
53 71.0732 
54 140.462 
55 26.4213 
56 -96.5335 
57 170.648 
58 -75.5303 
59 51.7259 
60 -128.218 
61 122.124 
62 -12.617 
63 -106.997 
64 118.262 
65 2.66146 
66 4.93184 
67 -129.809 
68 114.59 
69 -130.249 
70 98.0838 
71 -17.2266 
72 160.55 
73 34.4441 
74 -80.1292 
75 145.574 
76 33.5286 
77 -89.3973 
78 154.658 
79 31.7318 
80 -93.2968 
81 -78.8146 
82 158.26 
83 33.2309 
84 -170.051 
85 -47.249 
86 67.0106 
87 -53.7397 
88 -172.27 
89 70.5856 
90 -49.0889 
91 -166.233 
92 69.4415 
93 80.6966 
94 -36.4476 
95 -160.773 
96 -71.3775 
97 162.335 
98 48.2884 
99 176.079 
100 -78.1809 
101 47.8731 
102 -84.1038 
103 160.538 
104 36.2274 
105 -55.7138 
106 -175.623 
107 65.1524 
108 -55.0685 
109 -174.293 
110 64.8407 
111 68.4563 
112 -50.7683 
113 -171.635 
114 81.4495 
115 -167.184 
116 -40.1594 
ITEM: TIMESTEP
39000
ITEM: NUMBER OF ENTRIES
116
ITEM: BOX BOUNDS pp pp pp
-2.1659880786948438e+01 2.1659880786948438e+01
-1.1125721167720103e+01 1.1125721167720103e+01
-1.1125721167720103e+01 1.1125721167720103e+01
ITEM: ENTRIES index c_dphi
1 -77.0167 
2 -91.7098 
3 151.707 
4 37.2122 
5 34.1039 
6 -82.4796 
7 163.026 
8 154.061 
9 37.4778 
10 -156.176 
11 -30.359 
12 -147.614 
13 90.2308 
14 -22.9029 
15 -164.468 
16 67.4532 
17 -41.853 
18 -40.0444 
19 -163.859 
20 79.1986 
21 -44.6155 
22 -156.726 
23 79.4597 
24 -174.56 
25 56.8074 
26 -53.0441 
27 176.059 
28 66.2075 
29 -55.3089 
30 -65.7114 
31 -175.563 
32 62.9208 
33 115.629 
34 -19.2808 
35 -129.567 
36 99.357 
37 -10.9296 
38 -125.733 
39 -141.285 
40 108.428 
41 -6.37486 
42 -73.1459 
43 57.0204 
44 172.08 
45 -176.698 
46 70.5106 
47 -55.5765 
48 -87.5375 
49 44.2252 
50 156.609 
51 -169.134 
52 -46.2895 
53 74.7307 
54 163.454 
55 48.4045 
56 -68.7553 
57 151.669 
58 -88.9952 
59 29.6694 
60 -173.071 
61 71.2891 
62 -53.7975 
63 -166.084 
64 68.8295 
65 -50.4435 
66 -53.4993 
67 -178.586 
68 62.1411 
69 -175.521 
70 64.9394 
71 -55.3289 
72 152.296 
73 36.8425 
74 -81.8639 
75 -169.044 
76 78.7491 
77 -44.696 
78 -167.014 
79 69.5406 
80 -54.8074 
81 -50.5984 
82 -174.043 
83 61.6087 
84 -156.89 
85 -35.6225 
86 83.5177 
87 -66.7358 
88 170.655 
89 55.7743 
90 -58.9107 
91 -173.792 
92 63.6981 
93 51.1525 
94 -63.7285 
95 173.761 
96 -52.0501 
97 177.258 
98 70.121 
99 -166.774 
100 -58.1544 
101 65.4859 
102 -80.3704 
103 156.708 
104 41.771 
105 -77.1276 
106 167.181 
107 46.9865 
108 -76.0145 
109 163.791 
110 39.6768 
111 41.4706 
112 -78.7239 
113 157.162 
114 76.3676 
115 -170.651 
116 -55.1158 
ITEM: TIMESTEP
39100
ITEM: NUMBER OF ENTRIES
116
ITEM: BOX BOUNDS pp pp pp
-2.1659880786948438e+01 2.1659880786948438e+01
-1.1125721167720103e+01 1.1125721167720103e+01
-1.1125721167720103e+01 1.1125721167720103e+01
ITEM: ENTRIES index c_dphi
1 -110.008 
2 -89.9762 
3 142.586 
4 8.3361 
5 31.7038 
6 -95.7338 
7 130.016 
8 151.68 
9 24.2421 
10 -146.23 
11 -35.4896 
12 87.2305 
13 -156.609 
14 -53.7239 
15 -137.787 
16 101.707 
17 -16.435 
18 -151.266 
19 91.6548 
20 -28.3492 
21 -56.6093 
22 -167.975 
23 61.0831 
24 -50.2828 
25 176.958 
26 65.5921 
27 -162.79 
28 74.2156 
29 -53.4328 
30 -173.801 
31 58.5502 
32 -50.8067 
33 -54.4009 
34 177.951 
35 68.5939 
36 -73.0246 
37 47.6676 
38 165.841 
39 -160.501 
40 92.1961 
41 -34.144 
42 -174.103 
43 -63.3885 
44 51.0521 
45 172.555 
46 58.1246 
47 -61.0565 
48 166.764 
49 -63.3005 
50 48.1993 
51 -130.105 
52 101.947 
53 -9.40736 
54 -142.482 
55 106.164 
56 -14.5344 
57 -31.1756 
58 -142.529 
59 96.7724 
60 116.628 
61 3.96893 
62 -132.702 
63 -178.694 
64 64.4481 
65 -53.1825 
66 -175.104 
67 67.2649 
68 -58.2466 
69 -62.6235 
70 179.746 
71 54.2344 
72 -63.8013 
73 -177.869 
74 61.8489 
75 -50.1905 
76 -170.472 
77 63.8775 
78 52.9532 
79 -67.3287 
80 167.021 
81 -58.5595 
82 173.525 
83 66.6552 
84 -150.406 
85 -29.623 
86 83.6167 
87 -94.3293 
88 151.016 
89 32.3298 
90 -76.8223 
91 164.857 
92 48.8181 
93 -87.8854 
94 156.075 
95 30.4349 
96 34.7115 
97 -81.3277 
98 153.032 
99 -145.867 
100 -28.0737 
101 80.7214 
102 119.181 
103 4.89608 
104 -117.903 
105 121.564 
106 -1.23446 
107 -124.151 
108 -115.821 
109 121.38 
110 -1.5369 
111 -123.536 
112 -1.51171 
113 118.142 
114 -164.826 
115 78.0986 
116 -35.1182 
ITEM: TIMESTEP
39200
ITEM: NUMBER OF ENTRIES
116
ITEM: BOX BOUNDS pp pp pp
-2.1659880786948438e+01 2.1659880786948438e+01
-1.1125721167720103e+01 1.1125721167720103e+01
-1.1125721167720103e+01 1.1125721167720103e+01
ITEM: ENTRIES index c_dphi
1 -156.961 
2 -159.435 
3 73.622 
4 -42.9599 
5 -32.6088 
6 -159.552 
7 83.8663 
8 86.5636 
9 -40.3794 
10 -113.414 
11 14.2353 
12 131.237 
13 -150.969 
14 -32.0823 
15 -157.857 
16 76.3625 
17 -44.897 
18 -146.806 
19 97.4563 
20 -20.5219 
21 -32.716 
22 -148.444 
23 79.2937 
24 -36.4346 
25 -151.103 
26 93.1683 
27 -168.226 
28 79.972 
29 -46.6919 
30 -158.901 
31 74.4354 
32 -47.0987 
33 -40.7728 
34 -167.437 
35 71.0291 
36 -79.1442 
37 39.688 
38 164.656 
39 -152.725 
40 88.3775 
41 -31.7415 
42 174.443 
43 -65.9413 
44 56.3533 
45 164.662 
46 49.9302 
47 -67.5112 
48 -178.648 
49 -66.0017 
50 55.9368 
51 -118.449 
52 123.791 
53 12.0737 
54 -111.555 
55 136.728 
56 6.20557 
57 16.1029 
58 -95.6141 
59 133.864 
60 79.4495 
61 -41.7836 
62 -157.721 
63 -177.129 
64 66.1884 
65 -61.9182 
66 -167.794 
67 64.0998 
68 -51.1108 
69 -60.9211 
70 170.972 
71 55.7618 
72 -74.9102 
73 157.975 
74 38.0995 
75 -86.6895 
76 153.435 
77 40.4254 
78 36.6479 
79 -83.2273 
80 163.763 
81 -63.7078 
82 172.065 
83 56.9822 
84 -164.551 
85 -52.8886 
86 74.9923 
87 -82.9864 
88 149.718 
89 35.0604 
90 -74.7483 
91 -179.926 
92 56.5594 
93 -52.3055 
94 -175.82 
95 52.8726 
96 61.9957 
97 -61.5186 
98 167.174 
99 119.784 
100 -135.46 
101 -15.3407 
102 108.891 
103 -14.2751 
104 -128.381 
105 117.056 
106 2.94969 
107 -119.779 
108 -134.218 
109 111.676 
110 -11.0523 
111 -103.46 
112 18.6305 
113 134.785 
114 -160.385 
115 68.8979 
116 -42.4617 
ITEM: TIMESTEP
39300
ITEM: NUMBER OF ENTRIES
116
ITEM: BOX BOUNDS pp pp pp
-2.1659880786948438e+01 2.1659880786948438e+01
-1.1125721167720103e+01 1.1125721167720103e+01
-1.1125721167720103e+01 1.1125721167720103e+01
ITEM: ENTRIES index c_dphi
1 -172.64 
2 169.097 
3 61.0825 
4 -59.9409 
5 -72.0044 
6 179.981 
7 58.9579 
8 56.3974 
9 -51.6169 
10 -104.022 
11 13.6703 
12 134.522 
13 -116.909 
14 7.55567 
15 -173.437 
16 69.9528 
17 -53.4365 
18 -123.481 
19 108.783 
20 -6.33954 
21 -32.4825 
22 -152.059 
23 95.3728 
24 -24.2042 
25 -153.466 
26 86.9567 
27 -139.627 
28 105.028 
29 -7.03807 
30 -127.335 
31 120.599 
32 -11.9896 
33 -16.6464 
34 -128.712 
35 98.6994 
36 -54.0951 
37 63.9972 
38 175.495 
39 -168.49 
40 71.5757 
41 -52.2719 
42 124.598 
43 -106.088 
44 7.31311 
45 167.537 
46 56.6445 
47 -61.7728 
48 -168.963 
49 -45.8518 
50 69.9039 
51 -131.058 
52 112.524 
53 -10.6382 
54 -122.876 
55 113.962 
56 -6.45853 
57 -4.73698 
58 -127.899 
59 111.681 
60 73.9624 
61 -58.8741 
62 -177.599 
63 -170.921 
64 69.9484 
65 -52.2637 
66 -162.612 
67 75.1757 
68 -43.4813 
69 -46.2781 
70 -168.49 
71 72.8529 
72 -74.9634 
73 163.786 
74 45.8671 
75 -84.3701 
76 157.711 
77 36.8801 
78 43.9626 
79 -73.9567 
80 165.213 
81 -47.8159 
82 -159.788 
83 68.9407 
84 -161.109 
85 -44.9786 
86 74.5409 
87 -110.892 
88 124.864 
89 4.80301 
90 -54.519 
91 -168.965 
92 75.4424 
93 -44.5514 
94 -160.144 
95 69.8943 
96 77.6191 
97 -37.9738 
98 -167.935 
99 74.2177 
100 -174.324 
101 -57.1986 
102 92.5964 
103 -24.6426 
104 -143.09 
105 88.1238 
106 -30.3233 
107 -154.637 
108 -144.789 
109 96.7644 
110 -27.5496 
111 -86.8239 
112 29.3856 
113 149.892 
114 -167.385 
115 71.6075 
116 -49.3978 
ITEM: TIMESTEP
39400
ITEM: NUMBER OF ENTRIES
116
ITEM: BOX BOUNDS pp pp pp
-2.1659880786948438e+01 2.1659880786948438e+01
-1.1125721167720103e+01 1.1125721167720103e+01
-1.1125721167720103e+01 1.1125721167720103e+01
ITEM: ENTRIES index c_dphi
1 -164.782 
2 -164.995 
3 71.3836 
4 -46.3461 
5 -43.0245 
6 -166.645 
7 75.6249 
8 76.5685 
9 -47.0525 
10 -85.6275 
11 30.9241 
12 146.31 
13 -141.358 
14 -27.5317 
15 -175.495 
16 61.6893 
17 -57.6587 
18 -92.5823 
19 147.177 
20 21.6592 
21 -30.3597 
22 -150.258 
23 86.4156 
24 -33.4824 
25 -148.478 
26 91.6236 
27 -102.681 
28 134.555 
29 12.1899 
30 -106.086 
31 131.549 
32 16.6779 
33 10.5072 
34 -111.858 
35 133.271 
36 -96.5615 
37 17.708 
38 142.857 
39 -168.235 
40 71.2848 
41 -43.8621 
42 84.4702 
43 -153.541 
44 -30.6461 
45 -160.101 
46 76.3999 
47 -42.0715 
48 -178.783 
49 -57.9187 
50 67.6152 
51 -158.484 
52 84.0687 
53 -39.044 
54 -153.688 
55 83.1994 
56 -36.2401 
57 -40.6953 
58 -163.808 
59 76.7526 
60 109.054 
61 -11.6152 
62 -141.501 
63 171.999 
64 61.318 
65 -49.3057 
66 -168.285 
67 81.0912 
68 -57.6042 
69 -46.3421 
70 -156.966 
71 64.339 
72 -43.5566 
73 -157.216 
74 79.0684 
75 -34.1982 
76 -157.914 
77 79.4614 
78 87.7987 
79 -35.9167 
80 -158.542 
81 178.875 
82 62.5933 
83 -70.5194 
84 174.862 
85 -75.7564 
86 34.4204 
87 -112.225 
88 133.522 
89 12.0527 
90 -43.8147 
91 -157.555 
92 83.649 
93 -42.0485 
94 -160.845 
95 71.6917 
96 73.3999 
97 -45.3963 
98 -172.86 
99 70.5474 
100 -177.589 
101 -64.2664 
102 106.304 
103 -19.4324 
104 -135.537 
105 98.9525 
106 -17.1518 
107 -135.312 
108 -139.1 
109 104.795 
110 -13.3646 
111 -81.5574 
112 45.0923 
113 172.564 
114 -169.633 
115 76.0041 
116 -46.925 
ITEM: TIMESTEP
39500
ITEM: NUMBER OF ENTRIES
116
ITEM: BOX BOUNDS pp pp pp
-2.1659880786948438e+01 2.1659880786948438e+01
-1.1125721167720103e+01 1.1125721167720103e+01
-1.1125721167720103e+01 1.1125721167720103e+01
ITEM: ENTRIES index c_dphi
1 -142.032 
2 -128.637 
3 102.515 
4 -21.6633 
5 -4.59685 
6 -133.445 
7 102.377 
8 110.995 
9 -17.8533 
10 -66.7033 
11 56.5954 
12 170.003 
13 -145.853 
14 -23.3573 
15 -165.246 
16 78.3261 
17 -46.8147 
18 -105.041 
19 140.749 
20 23.4257 
21 -27.5858 
22 -152.764 
23 89.3074 
24 -35.8706 
25 -147.929 
26 86.893 
27 -121.622 
28 107.427 
29 -16.88 
30 -129.774 
31 105.919 
32 1.17682 
33 -10.0328 
34 -134.339 
35 120.918 
36 -116.691 
37 13.9841 
38 128.988 
39 176.903 
40 51.0816 
41 -62.803 
42 121.108 
43 -123.966 
44 -5.55373 
45 -177.359 
46 57.3499 
47 -59.5086 
48 -164.793 
49 -43.8806 
50 77.5757 
51 -145.716 
52 95.5636 
53 -26.1701 
54 -144.724 
55 93.542 
56 -26.004 
57 -30.594 
58 -152.328 
59 88.1262 
60 76.1417 
61 -48.2768 
62 -159.626 
63 -172.008 
64 73.7729 
65 -43.7627 
66 -164.212 
67 78.2528 
68 -49.9924 
69 -51.2253 
70 -168.761 
71 62.9939 
72 -66.8029 
73 171.197 
74 51.7925 
75 -65.1988 
76 175.397 
77 56.8013 
78 47.8862 
79 -71.5184 
80 169.886 
81 -122.61 
82 114.204 
83 -1.82152 
84 -174.256 
85 -58.8485 
86 59.0028 
87 -107.033 
88 131.585 
89 7.2049 
90 -52.4849 
91 -175.392 
92 71.6913 
93 -52.6049 
94 -165.521 
95 70.3026 
96 64.4497 
97 -48.4667 
98 -172.643 
99 42.4673 
100 163.145 
101 -83.0665 
102 95.5258 
103 -26.7035 
104 -148.717 
105 91.342 
106 -30.6719 
107 -146.429 
108 -140.692 
109 97.2943 
110 -18.4625 
111 -88.7378 
112 30.8611 
113 152.084 
114 -178.32 
115 61.153 
116 -63.1876 
ITEM: TIMESTEP
39600
ITEM: NUMBER OF ENTRIES
116
ITEM: BOX BOUNDS pp pp pp
-2.1659880786948438e+01 2.1659880786948438e+01
-1.1125721167720103e+01 1.1125721167720103e+01
-1.1125721167720103e+01 1.1125721167720103e+01
ITEM: ENTRIES index c_dphi
1 -97.126 
2 -104.864 
3 141.382 
4 23.5537 
5 17.0085 
6 -96.7449 
7 145.426 
8 134.456 
9 20.7027 
10 -102.433 
11 27.8065 
12 141.477 
13 -148.434 
14 -25.4246 
15 -171.223 
16 73.8389 
17 -50.4632 
18 -68.747 
19 163.064 
20 53.4167 
21 -25.2755 
22 -147.303 
23 97.6133 
24 -24.4141 
25 -150.99 
26 86.9826 
27 -137.213 
28 103.925 
29 -15.9755 
30 -136.035 
31 104.065 
32 -17.1724 
33 -23.2575 
34 -143.158 
35 95.6047 
36 -123.472 
37 -1.86393 
38 114.048 
39 147.148 
40 33.3438 
41 -89.3113 
42 123.712 
43 -111.575 
44 4.7678 
45 172.778 
46 51.5742 
47 -64.7682 
48 -170.258 
49 -50.009 
50 72.1723 
51 -144.344 
52 96.5096 
53 -26.6611 
54 -140.058 
55 96.7718 
56 -20.911 
57 -26.5051 
58 -149.676 
59 92.6414 
60 101.488 
61 -25.8951 
62 -135.945 
63 -176.024 
64 61.2924 
65 -67.5021 
66 -175.527 
67 55.678 
68 -52.8439 
69 -63.985 
70 167.22 
71 58.6986 
72 -66.7611 
73 170.387 
74 52.1868 
75 -77.862 
76 163.937 
77 44.9895 
78 50.0481 
79 -68.1525 
80 172.9 
81 -123.082 
82 119.134 
83 -0.212779 
84 -156.701 
85 -37.1328 
86 91.0805 
87 -103.49 
88 126.723 
89 11.1815 
90 -70.3908 
91 156.693 
92 44.9455 
93 -77.8212 
94 170.431 
95 55.095 
96 38.0102 
97 -73.7373 
98 170.926 
99 72.839 
100 -155.684 
101 -41.1461 
102 71.0179 
103 -44.1986 
104 -166.877 
105 79.8908 
106 -42.7881 
107 -164.893 
108 -170.833 
109 66.4879 
110 -55.6169 
111 -103.741 
112 16.2539 
113 133.484 
114 -178.917 
115 59.2436 
116 -60.8979 
ITEM: TIMESTEP
39700
ITEM: NUMBER OF ENTRIES
116
ITEM: BOX BOUNDS pp pp pp
-2.1659880786948438e+01 2.1659880786948438e+01
-1.1125721167720103e+01 1.1125721167720103e+01
-1.1125721167720103e+01 1.1125721167720103e+01
ITEM: ENTRIES index c_dphi
1 -133.761 
2 -140.502 
3 107.674 
4 -14.6209 
5 -16.7563 
6 -128.581 
7 109.124 
8 100.359 
9 -11.4662 
10 -80.602 
11 44.6621 
12 158.542 
13 -151.789 
14 -29.0318 
15 -164.026 
16 74.7262 
17 -38.2663 
18 -60.7804 
19 175.796 
20 62.6321 
21 -18.982 
22 -145.566 
23 95.9307 
24 -30.6535 
25 -136.465 
26 96.9505 
27 -120.127 
28 120.121 
29 10.5725 
30 -126.709 
31 123.743 
32 -6.95715 
33 -3.3935 
34 -112.942 
35 116.358 
36 -129.126 
37 -11.5863 
38 100.406 
39 162.495 
40 49.1961 
41 -71.3413 
42 78.7049 
43 -160.321 
44 -49.6057 
45 177.956 
46 56.9491 
47 -66.0522 
48 135.598 
49 -106.343 
50 14.7483 
51 174.996 
52 51.8003 
53 -61.1396 
54 174.456 
55 61.516 
56 -62.348 
57 -60.6869 
58 -173.627 
59 62.5092 
60 119.688 
61 5.02747 
62 -129.765 
63 -162.497 
64 79.9685 
65 -44.8277 
66 -154.096 
67 81.1073 
68 -36.562 
69 -30.5471 
70 -155.343 
71 86.9874 
72 -72.275 
73 160.734 
74 45.1433 
75 -80.4072 
76 164.002 
77 46.5838 
78 27.5503 
79 -88.0403 
80 154.541 
81 -159.453 
82 77.9244 
83 -31.9086 
84 -158.512 
85 -35.1322 
86 81.0701 
87 -114.448 
88 118.369 
89 3.05822 
90 -75.9633 
91 160.022 
92 29.8232 
93 -72.8631 
94 156.938 
95 51.1515 
96 40.13 
97 -90.0689 
98 164.145 
99 156.124 
100 -75.8199 
101 41.4001 
102 77.1718 
103 -52.7715 
104 -168.411 
105 63.8634 
106 -51.7761 
107 -166.193 
108 179.887 
109 64.2475 
110 -50.1696 
111 -66.3226 
112 60.4988 
113 174.816 
114 -153.403 
115 90.1241 
116 -30.0335 
ITEM: TIMESTEP
39800
ITEM: NUMBER OF ENTRIES
116
ITEM: BOX BOUNDS pp pp pp
-2.1659880786948438e+01 2.1659880786948438e+01
-1.1125721167720103e+01 1.1125721167720103e+01
-1.1125721167720103e+01 1.1125721167720103e+01
ITEM: ENTRIES index c_dphi
1 -138.939 
2 -128.224 
3 122.848 
4 -17.2691 
5 -9.70741 
6 -118.636 
7 101.247 
8 110.106 
9 1.17808 
10 -106.256 
11 8.97199 
12 128.828 
13 -151.476 
14 -42.0593 
15 -137.528 
16 102.154 
17 -8.44417 
18 -96.1193 
19 146.781 
20 30.4066 
21 -19.8802 
22 -138.337 
23 96.683 
24 -21.7741 
25 -148.064 
26 93.4792 
27 -103.6 
28 134.926 
29 9.29259 
30 -104.386 
31 129.981 
32 17.0879 
33 19.2626 
34 -106.371 
35 140.736 
36 -105.313 
37 16.3285 
38 139.798 
39 165.582 
40 43.0382 
41 -80.9501 
42 80.3258 
43 -164.701 
44 -54.4071 
45 -173.068 
46 62.1403 
47 -57.4618 
48 120.919 
49 -114.347 
50 11.0433 
51 172.136 
52 47.3127 
53 -68.841 
54 161.07 
55 44.9167 
56 -74.1064 
57 -75.1392 
58 168.707 
59 49.684 
60 116.176 
61 -4.67108 
62 -133.994 
63 -152.062 
64 86.2594 
65 -28.3582 
66 -136.012 
67 109.37 
68 -14.334 
69 -19.619 
70 -134.237 
71 102.059 
72 -53.8516 
73 -168.169 
74 68.7588 
75 -42.7351 
76 -165.807 
77 71.5825 
78 64.8407 
79 -58.2313 
80 179.158 
81 -169.704 
82 82.1931 
83 -45.5286 
84 176.325 
85 -53.7937 
86 52.2166 
87 -160.901 
88 82.3403 
89 -34.858 
90 -30.3481 
91 -168.787 
92 78.8947 
93 -51.8115 
94 -164.129 
95 86.6277 
96 65.1357 
97 -47.1823 
98 -156.425 
99 78.1365 
100 -145.063 
101 -41.6636 
102 87.7485 
103 -45.8089 
104 -151.518 
105 69.3001 
106 -36.4086 
107 -157.143 
108 -176.332 
109 77.9593 
110 -42.7746 
111 -79.3252 
112 55.4334 
113 165.536 
114 -131.898 
115 113.177 
116 -7.65442 
ITEM: TIMESTEP
39900
ITEM: NUMBER OF ENTRIES
116
ITEM: BOX BOUNDS pp pp pp
-2.1659880786948438e+01 2.1659880786948438e+01
-1.1125721167720103e+01 1.1125721167720103e+01
-1.1125721167720103e+01 1.1125721167720103e+01
ITEM: ENTRIES index c_dphi
1 -97.5238 
2 -80.6845 
3 165.107 
4 26.092 
5 38.2261 
6 -75.9824 
7 145.002 
8 155.7 
9 41.4913 
10 -131.715 
11 -8.05862 
12 114.757 
13 -136.858 
14 -25.5308 
15 -154.295 
16 86.2148 
17 -32.755 
18 -80.2602 
19 160.17 
20 50.2906 
21 -37.8332 
22 -151.247 
23 81.6464 
24 -31.7673 
25 -170.6 
26 75.9863 
27 -108.788 
28 122.336 
29 9.49521 
30 -116.229 
31 130.93 
32 12.6464 
33 3.9994 
34 -108.842 
35 132.875 
36 -100.241 
37 19.6533 
38 141.635 
39 154.547 
40 32.3685 
41 -86.4727 
42 106.088 
43 -148.152 
44 -36.1088 
45 -146.828 
46 86.0001 
47 -27.5759 
48 107.701 
49 -140.949 
50 -20.5495 
51 -172.52 
52 78.9792 
53 -47.073 
54 -165.038 
55 68.9098 
56 -56.5376 
57 -50.5574 
58 -176.61 
59 57.943 
60 107.186 
61 -12.6809 
62 -125.676 
63 -139.307 
64 98.9836 
65 -26.4602 
66 -146.81 
67 87.7458 
68 -25.1013 
69 -21.1934 
70 -146.637 
71 100.516 
72 -57.8177 
73 177.107 
74 56.9299 
75 -66.1724 
76 173.65 
77 58.9027 
78 50.467 
79 -69.7102 
80 175.542 
81 -160.247 
82 85.5381 
83 -29.7559 
84 -151.055 
85 -32.1549 
86 99.6675 
87 -154.679 
88 83.533 
89 -30.5348 
90 -70.4946 
91 170.918 
92 42.1126 
93 -68.7468 
94 162.448 
95 49.8409 
96 46.6083 
97 -82.1968 
98 165.196 
99 -113.299 
100 6.12229 
101 128.43 
102 94.6608 
103 -31.5611 
104 -145.774 
105 87.0356 
106 -27.1773 
107 -146.743 
108 -154.261 
109 91.5265 
110 -28.0387 
111 -77.113 
112 43.4084 
113 158.288 
114 -118.471 
115 126.6 
116 -0.142692 
ITEM: TIMESTEP
40000
ITEM: NUMBER OF ENTRIES
116
ITEM: BOX BOUNDS pp pp pp
-2.1659880786948438e+01 2.1659880786948438e+01
-1.1125721167720103e+01 1.1125721167720103e+01
-1.1125721167720103e+01 1.1125721167720103e+01
ITEM: ENTRIES index c_dphi
1 -105.973 
2 -104.543 
3 132.803 
4 16.0295 
5 12.0655 
6 -110.588 
7 132.638 
8 133.454 
9 10.8004 
10 -123.769 
11 -0.460305 
12 121.406 
13 -145.057 
14 -15.0654 
15 158.743 
16 35.5574 
17 -76.6804 
18 -84.9439 
19 158.328 
20 42.4681 
21 -7.0164 
22 -128.509 
23 111.637 
24 -9.85519 
25 -130.65 
26 107.857 
27 -141.026 
28 93.5661 
29 -19.2624 
30 -149.01 
31 98.1619 
32 -23.6016 
33 -30.9431 
34 -143.772 
35 94.4648 
36 -76.099 
37 47.6645 
38 168.678 
39 138.799 
40 23.7702 
41 -99.1652 
42 127.908 
43 -110.794 
44 14.1558 
45 -141.907 
46 94.0588 
47 -20.8644 
48 96.0449 
49 -152.32 
50 -39.1216 
51 -175.237 
52 76.8321 
53 -43.4163 
54 -165.094 
55 74.6578 
56 -57.1626 
57 -56.4634 
58 -176.712 
59 51.4679 
60 105.561 
61 -6.94126 
62 -125.954 
63 -132.393 
64 100.164 
65 -15.9902 
66 -145.219 
67 98.627 
68 -17.7756 
69 -32.3379 
70 -148.492 
71 95.1055 
72 -66.6428 
73 168.261 
74 49.0134 
75 -70.3028 
76 170.449 
77 54.7933 
78 49.4199 
79 -69.8279 
80 174.516 
81 -177.834 
82 59.3403 
83 -47.8904 
84 166.915 
85 -65.6013 
86 50.0707 
87 -167.396 
88 66.2832 
89 -49.6942 
90 -30.2277 
91 -146.667 
92 101.971 
93 -21.519 
94 -132.881 
95 94.9207 
96 96.8861 
97 -14.4754 
98 -146.674 
99 137.859 
100 -103.947 
101 16.7423 
102 104.118 
103 -20.0896 
104 -135.281 
105 107.786 
106 -7.40455 
107 -128.006 
108 -138.32 
109 106.489 
110 -14.1118 
111 -61.9185 
112 64.2023 
113 -179.526 
114 -128.846 
115 116.351 
116 -4.44976 
ITEM: TIMESTEP
40100
ITEM: NUMBER OF ENTRIES
116
ITEM: BOX BOUNDS pp pp pp
-2.1659880786948438e+01 2.1659880786948438e+01
-1.1125721167720103e+01 1.1125721167720103e+01
-1.1125721167720103e+01 1.1125721167720103e+01
ITEM: ENTRIES index c_dphi
1 -125.159 
2 -5.248 
3 115.688 
4 -44.5094 
5 -170.852 
6 76.733 
7 -49.3857 
8 -161.801 
9 76.957 
10 60.7475 
11 -51.6675 
12 -172.91 
13 -60.0773 
14 173.131 
15 51.2016 
16 -34.6321 
17 -152.909 
18 92.3854 
19 -25.891 
20 -151.084 
21 90.6393 
22 -79.5517 
23 41.2142 
24 163.898 
25 -143.412 
26 -161.581 
27 86.7497 
28 -30.7825 
29 -39.634 
30 -151.303 
31 91.1647 
32 85.7892 
33 -25.8798 
34 170.479 
35 44.7868 
36 -69.0484 
37 -128.715 
38 111.069 
39 -17.2049 
40 -122.985 
41 108.741 
42 -2.7686 
43 -9.54459 
44 -137.818 
45 110.672 
46 148.544 
47 24.4385 
48 -92.7316 
49 110.697 
50 -116.857 
51 -2.98431 
52 -136.083 
53 111.573 
54 -10.5093 
55 130.712 
56 -105.031 
57 14.7066 
58 -174.428 
59 62.7581 
60 -54.8626 
61 172.147 
62 54.5265 
63 -65.0385 
64 -59.1184 
65 -176.739 
66 63.6959 
67 106.298 
68 -14.7922 
69 -143.359 
70 -127.887 
71 116.638 
72 -4.33991 
73 -116.933 
74 122.09 
75 -1.45742 
76 14.5972 
77 -106.38 
78 130.073 
79 -173.329 
80 71.7857 
81 -56.803 
82 -157.267 
83 -40.7883 
84 81.5861 
85 -152.811 
86 86.0262 
87 -30.5174 
88 -74.5358 
89 171.45 
90 52.9078 
91 -72.6099 
92 168.847 
93 41.4038 
94 48.658 
95 -69.8846 
96 162.672 
97 -91.9324 
98 25.6195 
99 147.96 
100 -128.11 
101 -11.9759 
102 96.7641 
103 -31.924 
104 -144.838 
105 85.9138 
106 -27.0005 
107 -145.398 
108 -154.167 
109 92.9186 
110 -25.479 
111 -79.0386 
112 46.3152 
113 165.377 
114 -149.547 
115 97.4052 
116 -25.885 
ITEM: TIMESTEP
40200
ITEM: NUMBER OF ENTRIES
116
ITEM: BOX BOUNDS pp pp pp
-2.1659880786948438e+01 2.1659880786948438e+01
-1.1125721167720103e+01 1.1125721167720103e+01
-1.1125721167720103e+01 1.1125721167720103e+01
ITEM: ENTRIES index c_dphi
1 -173.492 
2 -61.1695 
3 56.8349 
4 -51.7674 
5 -161.182 
6 78.6833 
7 -41.278 
8 -161.413 
9 68.1366 
10 77.1363 
11 -42.9984 
12 -173.449 
13 -60.7488 
14 179.205 
15 64.218 
16 -16.9726 
17 -141.888 
18 99.5635 
19 -25.3517 
20 -138.799 
21 96.2861 
22 -81.0463 
23 45.5276 
24 162.235 
25 -151.423 
26 -143.456 
27 92.1518 
28 -30.645 
29 -23.6345 
30 -148.027 
31 89.1763 
32 95.766 
33 -28.6264 
34 174.067 
35 63.4392 
36 -57.7708 
37 -111.281 
38 115.155 
39 2.58838 
40 -120.949 
41 126.484 
42 12.615 
43 -12.1238 
44 -124.69 
45 121.441 
46 139.828 
47 16.2119 
48 -94.819 
49 82.5668 
50 -155.843 
51 -37.2273 
52 -130.76 
53 109.718 
54 -9.78492 
55 179.238 
56 -59.6219 
57 66.8671 
58 -176.212 
59 61.9976 
60 -55.2884 
61 -171.798 
62 70.9158 
63 -50.0078 
64 -53.3822 
65 -170.668 
66 68.4082 
67 105.438 
68 -11.0288 
69 -133.994 
70 -169.942 
71 71.2023 
72 -47.4992 
73 -169.853 
74 71.4458 
75 -50.9969 
76 -54.5556 
77 -173.257 
78 64.3001 
79 171.95 
80 58.7084 
81 -73.4504 
82 -147.483 
83 -27.6777 
84 96.2839 
85 -94.7152 
86 151.341 
87 29.6731 
88 -84.5135 
89 146.809 
90 28.8878 
91 -102.226 
92 139.852 
93 26.4511 
94 18.7672 
95 -99.1541 
96 147.445 
97 58.5889 
98 -171.016 
99 -55.3925 
100 -147.057 
101 -23.1439 
102 94.339 
103 -28.0879 
104 -142.496 
105 81.2381 
106 -33.1705 
107 -156.335 
108 -159.989 
109 85.6028 
110 -37.5617 
111 -103.21 
112 16.6702 
113 132.564 
114 -174.457 
115 60.9601 
116 -58.271 
ITEM: TIMESTEP
40300
ITEM: NUMBER OF ENTRIES
116
ITEM: BOX BOUNDS pp pp pp
-2.1659880786948438e+01 2.1659880786948438e+01
-1.1125721167720103e+01 1.1125721167720103e+01
-1.1125721167720103e+01 1.1125721167720103e+01
ITEM: ENTRIES index c_dphi
1 173.794 
2 -58.7152 
3 62.1834 
4 -64.6221 
5 170.226 
6 38.7224 
7 -68.5714 
8 159.925 
9 56.5809 
10 52.2153 
11 -79.2879 
12 177.368 
13 -87.7933 
14 160.903 
15 45.008 
16 12.1061 
17 -113.602 
18 121.152 
19 -4.55576 
20 -122.429 
21 111.863 
22 -66.0601 
23 53.5797 
24 167.705 
25 -156.677 
26 -148.467 
27 86.3134 
28 -41.2045 
29 -20.3832 
30 -145.603 
31 86.8791 
32 96.0608 
33 -29.159 
34 -141.878 
35 105.475 
36 -25.7395 
37 -115.52 
38 132.116 
39 11.7065 
40 -112.16 
41 127.431 
42 0.204826 
43 11.4628 
44 -108.946 
45 123.827 
46 122.791 
47 6.81961 
48 -112.432 
49 68.7035 
50 -179.8 
51 -60.4378 
52 -139.989 
53 103.932 
54 -20.8037 
55 173.236 
56 -69.7554 
57 54.1168 
58 -107.074 
59 137.805 
60 24.3122 
61 -103.18 
62 143.328 
63 11.9417 
64 14.3407 
65 -99.1517 
66 129.462 
67 120.854 
68 3.36139 
69 -117.563 
70 -133.978 
71 106.74 
72 -18.2642 
73 -130.331 
74 104.664 
75 -11.0493 
76 -17.3084 
77 -142.313 
78 101.973 
79 63.6512 
80 -53.115 
81 -176.792 
82 -145.119 
83 -32.321 
84 97.2536 
85 -99.5327 
86 139.672 
87 22.4599 
88 -77.9305 
89 156.837 
90 47.0392 
91 -82.6271 
92 167.575 
93 42.6056 
94 32.2987 
95 -77.4989 
96 157.531 
97 23.1063 
98 143.421 
99 -90.7211 
100 -163.887 
101 -40.5781 
102 84.1766 
103 -44.6162 
104 -161.756 
105 73.8785 
106 -43.2614 
107 -157.329 
108 -168.51 
109 74.3499 
110 -39.7174 
111 172.533 
112 -55.3855 
113 56.1026 
114 -153.226 
115 86.3512 
116 -32.7974 
ITEM: TIMESTEP
40400
ITEM: NUMBER OF ENTRIES
116
ITEM: BOX BOUNDS pp pp pp
-2.1659880786948438e+01 2.1659880786948438e+01
-1.1125721167720103e+01 1.1125721167720103e+01
-1.1125721167720103e+01 1.1125721167720103e+01
ITEM: ENTRIES index c_dphi
1 140.173 
2 -102.675 
3 11.5645 
4 -72.6838 
5 168.525 
6 53.9607 
7 -68.2449 
8 177.191 
9 50.5464 
10 52.6403 
11 -61.924 
12 171.432 
13 -73.6464 
14 169.091 
15 48.9793 
16 -13.6724 
17 -132.271 
18 100.191 
19 -18.4076 
20 -136.244 
21 105.158 
22 -66.5509 
23 48.8474 
24 162.233 
25 -134.672 
26 -139.761 
27 107.321 
28 -22.5045 
29 -16.1857 
30 -129.104 
31 101.071 
32 108.072 
33 -4.84665 
34 -164.015 
35 73.7494 
36 -45.5219 
37 -111.587 
38 135.693 
39 19.5181 
40 -99.5021 
41 144.323 
42 13.2176 
43 22.2208 
44 -93.9544 
45 134.941 
46 107.47 
47 -17.0682 
48 -136.676 
49 85.6714 
50 -164.976 
51 -41.0825 
52 -117.853 
53 127.309 
54 7.96041 
55 -158.223 
56 -35.3349 
57 80.4892 
58 -175.746 
59 63.3619 
60 -45.7011 
61 169.32 
62 60.2572 
63 -69.7875 
64 -60.5944 
65 -169.657 
66 60.2978 
67 -161.072 
68 79.0778 
69 -50.4781 
70 -98.3075 
71 146.452 
72 22.5695 
73 -99.2983 
74 136.819 
75 15.9419 
76 34.7516 
77 -89.1311 
78 149.992 
79 73.8519 
80 -48.4062 
81 -164.146 
82 -141.226 
83 -31.6701 
84 94.8291 
85 -104.643 
86 141.596 
87 19.9035 
88 -80.155 
89 166.444 
90 44.0077 
91 -75.0212 
92 162.542 
93 38.3794 
94 40.7627 
95 -81.674 
96 154.163 
97 62.8094 
98 177.995 
99 -61.3905 
100 -138.979 
101 -18.8473 
102 68.2152 
103 -52.4728 
104 176.089 
105 63.0149 
106 -68.4231 
107 -176.297 
108 -162.59 
109 65.9717 
110 -41.9023 
111 176.63 
112 -66.7379 
113 62.6178 
114 -169.024 
115 77.2184 
116 -44.0614 
ITEM: TIMESTEP
40500
ITEM: NUMBER OF ENTRIES
116
ITEM: BOX BOUNDS pp pp pp
-2.1659880786948438e+01 2.1659880786948438e+01
-1.1125721167720103e+01 1.1125721167720103e+01
-1.1125721167720103e+01 1.1125721167720103e+01
ITEM: ENTRIES index c_dphi
1 154.501 
2 -82.4774 
3 31.6484 
4 -75.2495 
5 164.982 
6 42.9199 
7 -75.4545 
8 162.483 
9 44.314 
10 32.2929 
11 -89.7692 
12 152.061 
13 -55.7978 
14 -179.189 
15 62.7723 
16 -20.8585 
17 -143.188 
18 102.948 
19 -19.3817 
20 -142.593 
21 95.0779 
22 -71.6067 
23 50.3755 
24 166.98 
25 -139.911 
26 -131.425 
27 106.814 
28 -22.7062 
29 -6.6155 
30 -128.377 
31 102.103 
32 111.37 
33 -10.3916 
34 -163.851 
35 81.3948 
36 -43.6558 
37 -98.62 
38 139.225 
39 21.5686 
40 -97.2718 
41 145.072 
42 24.8832 
43 16.9296 
44 -100.727 
45 139.085 
46 97.9494 
47 -25.3519 
48 -141.173 
49 85.1634 
50 -157.775 
51 -39.4033 
52 -98.472 
53 146.409 
54 17.2627 
55 -137.312 
56 -15.7805 
57 102.625 
58 170.863 
59 52.3102 
60 -64.9345 
61 171.325 
62 54.0807 
63 -70.1219 
64 -65.2774 
65 177.478 
66 53.2752 
67 -164.691 
68 89.4955 
69 -35.5325 
70 -111.648 
71 128.091 
72 11.3155 
73 -124.182 
74 119.042 
75 -3.92209 
76 -7.43363 
77 -124.21 
78 112.827 
79 -60.6313 
80 -173.666 
81 64.8194 
82 -135.64 
83 -13.1831 
84 102.422 
85 -67.4146 
86 176.014 
87 56.274 
88 -70.8603 
89 174.707 
90 56.4121 
91 -69.7668 
92 171.939 
93 44.6663 
94 51.2171 
95 -67.0774 
96 165.65 
97 64.1672 
98 -177.362 
99 -62.4174 
100 -106 
101 17.9266 
102 6.55931 
103 -106.435 
104 128.797 
105 13.583 
106 -111.186 
107 126.577 
108 129.116 
109 4.34741 
110 -117.89 
111 -151.478 
112 -33.1697 
113 87.5655 
114 -173.326 
115 68.3669 
116 -58.6928 
ITEM: TIMESTEP
40600
ITEM: NUMBER OF ENTRIES
116
ITEM: BOX BOUNDS pp pp pp
-2.1659880786948438e+01 2.1659880786948438e+01
-1.1125721167720103e+01 1.1125721167720103e+01
-1.1125721167720103e+01 1.1125721167720103e+01
ITEM: ENTRIES index c_dphi
1 -163.972 
2 -40.478 
3 75.587 
4 -61.1936 
5 175.47 
6 55.8955 
7 -78.1991 
8 162.226 
9 45.1372 
10 42.232 
11 -77.3426 
12 165.568 
13 -56.5799 
14 -178.127 
15 69.4392 
16 -34.786 
17 -159.751 
18 92.0226 
19 -32.9428 
20 -155.304 
21 79.7303 
22 -64.3104 
23 66.1889 
24 179.821 
25 -125.835 
26 -129.368 
27 108.462 
28 -7.14749 
29 -10.2914 
30 -132.462 
31 111.929 
32 111.945 
33 -10.2251 
34 175.62 
35 60.4098 
36 -59.9984 
37 -115.202 
38 115.798 
39 -0.393285 
40 -118.112 
41 125.697 
42 10.8879 
43 -5.8005 
44 -121.992 
45 123.199 
46 72.838 
47 -54.8303 
48 -164.744 
49 96.9515 
50 -139.878 
51 -19.9189 
52 -99.6429 
53 147.69 
54 24.0161 
55 -136.379 
56 -18.8256 
57 111.393 
58 -153.86 
59 91.8656 
60 -29.9317 
61 -136.3 
62 101.903 
63 -22.0257 
64 -22.6813 
65 -144.479 
66 91.5928 
67 172.525 
68 57.3419 
69 -65.4711 
70 -128.152 
71 117.297 
72 -9.16934 
73 -135.986 
74 97.5475 
75 -21.4348 
76 -5.62826 
77 -132.095 
78 108.923 
79 35.7167 
80 -76.1525 
81 161.979 
82 -116.031 
83 -5.77959 
84 125.908 
85 -67.9126 
86 172.169 
87 57.6552 
88 -60.8204 
89 -179.039 
90 69.1041 
91 -62.0563 
92 -173.913 
93 56.1626 
94 53.6561 
95 -58.2006 
96 171.875 
97 -121.702 
98 -2.94976 
99 107.201 
100 -123.198 
101 1.11281 
102 27.6144 
103 -96.4181 
104 152.631 
105 21.7039 
106 -89.2466 
107 145.736 
108 136.223 
109 25.2721 
110 -99.7448 
111 175.998 
112 -64.6065 
113 51.6721 
114 -161.657 
115 68.1037 
116 -46.9424 
ITEM: TIMESTEP
40700
ITEM: NUMBER OF ENTRIES
116
ITEM: BOX BOUNDS pp pp pp
-2.1659880786948438e+01 2.1659880786948438e+01
-1.1125721167720103e+01 1.1125721167720103e+01
-1.1125721167720103e+01 1.1125721167720103e+01
ITEM: ENTRIES index c_dphi
1 -147.243 
2 -23.4943 
3 94.2238 
4 -115.841 
5 119.024 
6 -4.33089 
7 -138.609 
8 98.0364 
9 -13.4739 
10 -24.1489 
11 -147.504 
12 100.986 
13 -71.9673 
14 167.837 
15 54.4636 
16 -39.8262 
17 -149.69 
18 76.7027 
19 -33.1614 
20 -167.086 
21 83.0501 
22 -62.8336 
23 73.5812 
24 -176.013 
25 -101.468 
26 -104.953 
27 143.26 
28 16.5902 
29 15.85 
30 -95.9375 
31 137.393 
32 136.989 
33 25.2012 
34 -167.068 
35 64.2776 
36 -46.1903 
37 -154.845 
38 67.2856 
39 -48.4814 
40 -171.722 
41 72.5113 
42 -33.8521 
43 -55.9649 
44 -171.732 
45 81.9048 
46 91.5897 
47 -28.5938 
48 -144.258 
49 97.1497 
50 -146.716 
51 -19.6077 
52 -117.9 
53 123.237 
54 1.31256 
55 -101.399 
56 21.7288 
57 136.893 
58 -155.622 
59 89.752 
60 -28.6119 
61 -146.543 
62 95.093 
63 -31.9172 
64 -19.0003 
65 -137.364 
66 95.6257 
67 171.828 
68 42.6942 
69 -79.0584 
70 -160.044 
71 84.9254 
72 -40.7477 
73 -146.056 
74 88.2704 
75 -31.0256 
76 -25.0369 
77 -150.71 
78 89.9939 
79 61.2977 
80 -45.8783 
81 -162.678 
82 -139.871 
83 -29.7818 
84 97.0752 
85 -80.3386 
86 154.646 
87 44.1886 
88 -101.43 
89 132.215 
90 20.4231 
91 -103.514 
92 144.695 
93 22.8418 
94 9.46109 
95 -102.33 
96 135.817 
97 29.3561 
98 150.327 
99 -88.2602 
100 -174.023 
101 -68.6771 
102 66.3979 
103 -49.8186 
104 -167.347 
105 77.6712 
106 -39.857 
107 -166.112 
108 -169.408 
109 73.0641 
110 -53.1912 
111 -156.585 
112 -38.174 
113 81.0968 
114 -157.083 
115 89.385 
116 -43.1218 
ITEM: TIMESTEP
40800
ITEM: NUMBER OF ENTRIES
116
ITEM: BOX BOUNDS pp pp pp
-2.1659880786948438e+01 2.1659880786948438e+01
-1.1125721167720103e+01 1.1125721167720103e+01
-1.1125721167720103e+01 1.1125721167720103e+01
ITEM: ENTRIES index c_dphi
1 175.331 
2 -56.7098 
3 55.9584 
4 139.389 
5 10.6356 
6 -107.439 
7 119.681 
8 1.60591 
9 -111.566 
10 -118.045 
11 123.881 
12 10.7089 
13 -95.4411 
14 142.233 
15 29.5483 
16 -64.2613 
17 179.916 
18 56.9195 
19 -58.9031 
20 170.979 
21 55.1559 
22 -62.7959 
23 61.3755 
24 176.891 
25 -101.638 
26 -99.8547 
27 133.94 
28 14.0398 
29 22.7362 
30 -103.469 
31 136.631 
32 144.468 
33 18.2623 
34 -154.106 
35 83.6954 
36 -28.5556 
37 -141.074 
38 92.2972 
39 -25.7025 
40 -147.702 
41 94.2984 
42 -21.0729 
43 -27.6385 
44 -145.638 
45 98.9905 
46 120.424 
47 1.23756 
48 -120.526 
49 104.717 
50 -140.85 
51 -19.4855 
52 -83.0017 
53 160.825 
54 36.2523 
55 -77.8979 
56 46.1794 
57 164.87 
58 -166.982 
59 78.3922 
60 -44.9259 
61 -161.708 
62 74.9744 
63 -47.082 
64 -46.4328 
65 -169.751 
66 68.1928 
67 -144.126 
68 93.9652 
69 -35.9274 
70 -169.467 
71 75.4648 
72 -45.9194 
73 -153.213 
74 85.403 
75 -38.1447 
76 -38.0452 
77 -159.429 
78 77.0229 
79 178.749 
80 53.9509 
81 -58.9372 
82 -155.753 
83 -39.315 
84 76.9653 
85 -107.967 
86 128.988 
87 15.7341 
88 -71.4432 
89 160.883 
90 45.6543 
91 -76.7473 
92 168.024 
93 50.9267 
94 41.3616 
95 -73.8669 
96 169.036 
97 -22.34 
98 103.584 
99 -140.387 
100 -168.441 
101 -51.1017 
102 109.969 
103 -11.8365 
104 -127.287 
105 112.427 
106 -3.02306 
107 -125.768 
108 -139.358 
109 105.192 
110 -17.5532 
111 -150.403 
112 -28.3983 
113 85.5101 
114 170.535 
115 49.9308 
116 -66.0448 
ITEM: TIMESTEP
40900
ITEM: NUMBER OF ENTRIES
116
ITEM: BOX BOUNDS pp pp pp
-2.1659880786948438e+01 2.1659880786948438e+01
-1.1125721167720103e+01 1.1125721167720103e+01
-1.1125721167720103e+01 1.1125721167720103e+01
ITEM: ENTRIES index c_dphi
1 -175.694 
2 -51.1391 
3 63.3275 
4 -172.512 
5 60.2305 
6 -52.4303 
7 176.301 
8 63.6402 
9 -56.4411 
10 -72.6004 
11 174.739 
12 54.6574 
13 -118.014 
14 121.063 
15 -1.36258 
16 -83.1545 
17 157.393 
18 45.2967 
19 -74.156 
20 158.589 
21 39.1362 
22 -48.8892 
23 75.8729 
24 -167.326 
25 -117.381 
26 -114.024 
27 126.691 
28 4.44291 
29 0.539574 
30 -118.746 
31 119.006 
32 124.152 
33 4.86648 
34 -166.546 
35 74.4381 
36 -47.4368 
37 -128.053 
38 107.985 
39 -6.71585 
40 -133.706 
41 111.593 
42 -9.74402 
43 -10.2986 
44 -124.999 
45 113.663 
46 178.565 
47 58.9775 
48 -59.86 
49 72.8994 
50 -168.37 
51 -47.4599 
52 -113.158 
53 126.235 
54 12.9404 
55 -57.965 
56 60.3714 
57 176.861 
58 -109.172 
59 134.177 
60 14.6597 
61 -122.487 
62 117.995 
63 -5.83711 
64 -1.64574 
65 -121.163 
66 115.005 
67 -122.367 
68 125.33 
69 10.7516 
70 -157.015 
71 87.3896 
72 -39.128 
73 -162.438 
74 71.0443 
75 -46.8428 
76 -39.5284 
77 -166.046 
78 76.0669 
79 -149.643 
80 94.6294 
81 -20.372 
82 -176.251 
83 -59.5863 
84 68.316 
85 -171.099 
86 68.6391 
87 -46.704 
88 -83.8332 
89 151.941 
90 33.9475 
91 -91.3397 
92 150.666 
93 32.8858 
94 30.3876 
95 -87.6062 
96 154.613 
97 -22.4287 
98 101.697 
99 -146.81 
100 -175.785 
101 -64.1606 
102 85.6663 
103 -35.3303 
104 -154.719 
105 81.9107 
106 -37.4781 
107 -157.093 
108 -159.345 
109 81.2667 
110 -38.3479 
111 165.446 
112 -74.721 
113 43.951 
114 -139.374 
115 97.5529 
116 -5.63797 
ITEM: TIMESTEP
41000
ITEM: NUMBER OF ENTRIES
116
ITEM: BOX BOUNDS pp pp pp
-2.1659880786948438e+01 2.1659880786948438e+01
-1.1125721167720103e+01 1.1125721167720103e+01
-1.1125721167720103e+01 1.1125721167720103e+01
ITEM: ENTRIES index c_dphi
1 178.568 
2 -57.9677 
3 60.3276 
4 -163.658 
5 76.3677 
6 -40.2559 
7 -168.34 
8 75.0362 
9 -48.3663 
10 -51.1872 
11 -167.811 
12 68.7868 
13 -150.876 
14 89.0665 
15 -29.3858 
16 -79.1865 
17 165.053 
18 42.1791 
19 -73.5818 
20 153.325 
21 37.5638 
22 -60.8053 
23 55.8337 
24 171.574 
25 -156.982 
26 -148.642 
27 92.4592 
28 -34.2194 
29 -27.5314 
30 -146.43 
31 86.891 
32 88.596 
33 -30.303 
34 -165.125 
35 81.409 
36 -44.0457 
37 167.743 
38 48.8883 
39 -66.6256 
40 166.757 
41 51.2428 
42 -74.3883 
43 -63.3985 
44 -178.912 
45 55.4566 
46 -167.399 
47 72.3733 
48 -48.7563 
49 132.073 
50 -106.912 
51 12.7343 
52 -149.361 
53 89.6003 
54 -35.3739 
55 -66.682 
56 60.9451 
57 171.968 
58 -123.43 
59 112.742 
60 -12.0168 
61 -135.176 
62 100.065 
63 -11.3484 
64 -12.7483 
65 -137.507 
66 111.08 
67 -148.205 
68 91.8618 
69 -18.356 
70 -169.93 
71 68.4759 
72 -49.105 
73 -177.054 
74 65.3647 
75 -55.4604 
76 -64.8095 
77 177.61 
78 56.7845 
79 -156.509 
80 84.7281 
81 -25.3341 
82 -154.035 
83 -34.9668 
84 84.9825 
85 -172.635 
86 69.2284 
87 -47.39 
88 -105.165 
89 133.52 
90 15.0728 
91 -107.258 
92 134.294 
93 14.0561 
94 10.4845 
95 -107.963 
96 131.799 
97 -40.2202 
98 81.7106 
99 -164.968 
100 -145.031 
101 -27.7981 
102 41.829 
103 -84.2519 
104 157.137 
105 24.4131 
106 -94.1983 
107 150.494 
108 152.598 
109 33.9866 
110 -81.3211 
111 -164.842 
112 -43.5905 
113 77.2166 
114 -114.407 
115 127.587 
116 8.93153 
ITEM: TIMESTEP
41100
ITEM: NUMBER OF ENTRIES
116
ITEM: BOX BOUNDS pp pp pp
-2.1659880786948438e+01 2.1659880786948438e+01
-1.1125721167720103e+01 1.1125721167720103e+01
-1.1125721167720103e+01 1.1125721167720103e+01
ITEM: ENTRIES index c_dphi
1 163.875 
2 44.428 
3 -80.1033 
4 165.91 
5 41.3792 
6 -74.6424 
7 -78.6457 
8 156.823 
9 40.8015 
10 21.8117 
11 -98.5529 
12 145.187 
13 87.1792 
14 -152.433 
15 -24.3354 
16 -108.952 
17 -116.34 
18 124.639 
19 7.77053 
20 2.73905 
21 -116.282 
22 126.849 
23 126.937 
24 7.91597 
25 -138.7 
26 96.5247 
27 -23.2098 
28 -131.892 
29 -14.0726 
30 105.226 
31 167.558 
32 53.1671 
33 -70.2441 
34 -127.494 
35 112.491 
36 5.12446 
37 -28.6509 
38 -137.971 
39 82.9641 
40 -26.3563 
41 -166.062 
42 84.6178 
43 -121.06 
44 -0.486305 
45 115.218 
46 -169.425 
47 65.359 
48 -52.5313 
49 94.3086 
50 -31.3872 
51 -137.912 
52 94.2559 
53 -12.2692 
54 -140.048 
55 -145.23 
56 108.244 
57 -19.5345 
58 -69.6698 
59 52.712 
60 164.268 
61 -121.901 
62 118.544 
63 -4.97967 
64 -112.726 
65 123.75 
66 6.82811 
67 1.18091 
68 -122.343 
69 120.736 
70 -165.621 
71 -54.2688 
72 -169.135 
73 -56.5218 
74 73.3667 
75 -148.44 
76 86.6023 
77 -29.543 
78 -151.355 
79 86.81 
80 -41.5941 
81 179.061 
82 57.6563 
83 -57.0661 
84 176.33 
85 61.6071 
86 -62.2653 
87 -61.6874 
88 -176.41 
89 59.7178 
90 -155.105 
91 -40.3493 
92 75.9583 
93 -147.672 
94 91.7546 
95 -24.4991 
96 -99.2941 
97 134.269 
98 19.4121 
99 -105.722 
100 139.421 
101 20.7151 
102 10.3454 
103 -104.512 
104 136.782 
105 41.3781 
106 159.816 
107 -75.504 
108 66.6628 
109 -46.8162 
110 -167.909 
111 77.5071 
112 -43.5856 
113 -169.014 
114 -165.284 
115 73.623 
116 -51.8053 
ITEM: TIMESTEP
41200
ITEM: NUMBER OF ENTRIES
116
ITEM: BOX BOUNDS pp pp pp
-2.1659880786948438e+01 2.1659880786948438e+01
-1.1125721167720103e+01 1.1125721167720103e+01
-1.1125721167720103e+01 1.1125721167720103e+01
ITEM: ENTRIES index c_dphi
1 168.877 
2 54.5036 
3 -74.2816 
4 169.636 
5 40.8504 
6 -75.9907 
7 -70.3237 
8 160.891 
9 44.05 
10 52.7496 
11 -60.9768 
12 172.242 
13 79.3999 
14 -166.966 
15 -36.1804 
16 -119.34 
17 -130.573 
18 111.58 
19 -2.51579 
20 -14.6146 
21 -132.462 
22 113.442 
23 112.603 
24 -5.24443 
25 -149.124 
26 98.2321 
27 -23.9382 
28 -114.71 
29 7.01507 
30 126.761 
31 -167.825 
32 74.3541 
33 -40.4247 
34 -121.539 
35 124.879 
36 0.460024 
37 -4.65363 
38 -128.198 
39 107.916 
40 -15.629 
41 -128.204 
42 108.251 
43 -131.252 
44 -13.4528 
45 109.558 
46 -179.068 
47 64.7102 
48 -58.9705 
49 62.5976 
50 -56.2545 
51 -178.235 
52 59.8087 
53 -62.1717 
54 178.661 
55 177.219 
56 55.2384 
57 -63.929 
58 -88.9947 
59 22.9603 
60 140.929 
61 -116.092 
62 125.191 
63 8.51759 
64 -103.519 
65 139.807 
66 15.1975 
67 2.79233 
68 -113.881 
69 121.509 
70 -148.971 
71 -34.5067 
72 179.133 
73 -60.9016 
74 59.924 
75 151.802 
76 18.6899 
77 -91.1873 
78 -116.092 
79 125.121 
80 12.0375 
81 -161.074 
82 81.6397 
83 -32.041 
84 -162.41 
85 83.9091 
86 -45.1242 
87 -47.9718 
88 -161.652 
89 69.3143 
90 170.079 
91 -79.0924 
92 42.3594 
93 -179.463 
94 58.9159 
95 -60.3956 
96 -76.4593 
97 160.583 
98 42.3294 
99 -77.794 
100 163.952 
101 45.1635 
102 39.579 
103 -78.6749 
104 162.536 
105 52.5978 
106 171.533 
107 -64.7085 
108 91.5563 
109 -33.2565 
110 -151.611 
111 89.4396 
112 -28.9145 
113 -145.748 
114 -154.381 
115 87.2647 
116 -29.5684 
ITEM: TIMESTEP
41300
ITEM: NUMBER OF ENTRIES
116
ITEM: BOX BOUNDS pp pp pp
-2.1659880786948438e+01 2.1659880786948438e+01
-1.1125721167720103e+01 1.1125721167720103e+01
-1.1125721167720103e+01 1.1125721167720103e+01
ITEM: ENTRIES index c_dphi
1 169.563 
2 46.5657 
3 -68.1353 
4 172.569 
5 57.8683 
6 -64.4334 
7 -77.3471 
8 167.952 
9 45.6502 
10 -157.198 
11 83.666 
12 -36.7135 
13 100.271 
14 -137.787 
15 -16.9785 
16 -150.356 
17 -146.864 
18 85.9772 
19 -26.7803 
20 -29.1137 
21 -156.272 
22 90.9701 
23 89.56 
24 -37.5987 
25 -164.384 
26 74.9688 
27 -45.1247 
28 -169.293 
29 -41.8754 
30 70.908 
31 -148.766 
32 87.1588 
33 -32.1899 
34 -162.47 
35 77.1872 
36 -42.4966 
37 -9.40747 
38 -131.129 
39 114.9 
40 -6.82191 
41 -131.089 
42 107.189 
43 -130.891 
44 0.556749 
45 115.062 
46 -178.172 
47 67.0962 
48 -54.9003 
49 107.491 
50 -31.0724 
51 -143.545 
52 90.5196 
53 -21.953 
54 -130.917 
55 -153.104 
56 94.4238 
57 -14.5402 
58 -62.5417 
59 55.9682 
60 168.53 
61 -146.83 
62 94.8508 
63 -24.6014 
64 -153.721 
65 86.8267 
66 -35.4015 
67 -33.4472 
68 -152.899 
69 84.8723 
70 -131.054 
71 -9.11325 
72 169.164 
73 -65.8117 
74 49.8894 
75 114.482 
76 1.98404 
77 -116.066 
78 -134.132 
79 101.524 
80 -5.77053 
81 -130.869 
82 110.228 
83 -3.64034 
84 -129.507 
85 116.624 
86 -10.6042 
87 -21.0549 
88 -134.924 
89 97.8483 
90 157.999 
91 -84.1734 
92 36.4875 
93 175.791 
94 54.774 
95 -65.3574 
96 -65.9622 
97 171.243 
98 53.8104 
99 -71.286 
100 171.282 
101 51.5092 
102 51.6118 
103 -65.8205 
104 174.407 
105 29.0238 
106 152.927 
107 -87.2952 
108 111.614 
109 -12.34 
110 -132.767 
111 106.718 
112 -13.7092 
113 -129.328 
114 -141.511 
115 98.0621 
116 -17.5564 
ITEM: TIMESTEP
41400
ITEM: NUMBER OF ENTRIES
116
ITEM: BOX BOUNDS pp pp pp
-2.1659880786948438e+01 2.1659880786948438e+01
-1.1125721167720103e+01 1.1125721167720103e+01
-1.1125721167720103e+01 1.1125721167720103e+01
ITEM: ENTRIES index c_dphi
1 171.858 
2 50.9288 
3 -71.7144 
4 174.631 
5 51.9878 
6 -64.4399 
7 -70.995 
8 166.362 
9 49.9341 
10 96.3192 
11 -21.7321 
12 -140.956 
13 101.483 
14 -135.254 
15 -21.5869 
16 -147.051 
17 -134.421 
18 98.708 
19 -24.3516 
20 -20.2464 
21 -147.118 
22 89.8226 
23 102.88 
24 -23.9916 
25 168.561 
26 41.0686 
27 -79.9383 
28 108.867 
29 -131.699 
30 -16.4938 
31 -138.931 
32 103.199 
33 -16.7286 
34 149.813 
35 25.6074 
36 -89.7993 
37 18.2256 
38 -101.513 
39 142.629 
40 22.8914 
41 -110.195 
42 130.067 
43 -136.596 
44 -4.08899 
45 115.505 
46 -162.226 
47 80.1925 
48 -41.7634 
49 178.788 
50 42.9944 
51 -76.2739 
52 169.609 
53 50.341 
54 -54.5969 
55 -72.309 
56 168.423 
57 63.4848 
58 -77.9905 
59 40.6526 
60 154.403 
61 -173.28 
62 70.6319 
63 -51.517 
64 176.027 
65 53.8786 
66 -67.8844 
67 -51.1057 
68 -173.255 
69 64.9825 
70 -134.619 
71 -11.7856 
72 155.426 
73 -80.724 
74 33.4587 
75 132.118 
76 21.4447 
77 -98.4011 
78 -145.261 
79 97.3693 
80 -28.1102 
81 -107.979 
82 129.198 
83 17.7356 
84 -118.766 
85 129.772 
86 4.05776 
87 6.62813 
88 -104.834 
89 129.452 
90 161.985 
91 -78.7412 
92 35.8933 
93 178.458 
94 54.5975 
95 -60.6318 
96 -70.4506 
97 171.125 
98 48.8688 
99 -65.6839 
100 172.06 
101 52.7407 
102 49.5895 
103 -72.6666 
104 168.014 
105 24.1336 
106 146.976 
107 -94.1016 
108 126.536 
109 6.78434 
110 -114.561 
111 128.675 
112 7.32947 
113 -111.573 
114 -111.543 
115 127.111 
116 8.20859 
ITEM: TIMESTEP
41500
ITEM: NUMBER OF ENTRIES
116
ITEM: BOX BOUNDS pp pp pp
-2.1659880786948438e+01 2.1659880786948438e+01
-1.1125721167720103e+01 1.1125721167720103e+01
-1.1125721167720103e+01 1.1125721167720103e+01
ITEM: ENTRIES index c_dphi
1 167.811 
2 53.7684 
3 -67.2912 
4 167.132 
5 46.0718 
6 -78.8262 
7 -82.8287 
8 156.112 
9 31.2136 
10 84.3475 
11 -23.3723 
12 -144.021 
13 111.625 
14 -133.867 
15 -18.9133 
16 -123.973 
17 -126.259 
18 125.217 
19 -2.86939 
20 -12.9331 
21 -121.457 
22 110.457 
23 112.638 
24 4.11404 
25 131.53 
26 5.56324 
27 -113.056 
28 119.628 
29 -115.758 
30 -5.63994 
31 -179.757 
32 56.6586 
33 -52.617 
34 140.226 
35 25.8639 
36 -101.997 
37 43.0928 
38 -65.3009 
39 163.816 
40 55.4228 
41 -78.644 
42 172.962 
43 174.872 
44 -70.8521 
45 51.5841 
46 -178.829 
47 59.5602 
48 -57.8106 
49 -176.754 
50 71.0872 
51 -56.0517 
52 -163.872 
53 68.9889 
54 -51.7137 
55 -45.3334 
56 -172.472 
57 66.825 
58 -132.572 
59 -16.8923 
60 109.226 
61 166.414 
62 46.7869 
63 -78.5237 
64 164.177 
65 38.8667 
66 -76.196 
67 -72.7131 
68 161.976 
69 46.9136 
70 -71.5122 
71 36.5647 
72 165.072 
73 -77.7373 
74 36.9906 
75 170.489 
76 41.564 
77 -70.0325 
78 -123.55 
79 116.111 
80 -7.01386 
81 -92.5712 
82 146.307 
83 30.6457 
84 -91.8777 
85 152.461 
86 29.2443 
87 25.5014 
88 -90.1597 
89 146.623 
90 178.374 
91 -67.3438 
92 53.1965 
93 -158.398 
94 82.3269 
95 -37.4094 
96 -93.8741 
97 136.555 
98 26.3799 
99 -102.479 
100 147.345 
101 27.0915 
102 13.7714 
103 -96.4036 
104 143.342 
105 63.626 
106 -170.647 
107 -54.9095 
108 133.382 
109 19.9625 
110 -101.153 
111 142.987 
112 21.8715 
113 -103.594 
114 -100.169 
115 138.716 
116 13.2503 
ITEM: TIMESTEP
41600
ITEM: NUMBER OF ENTRIES
116
ITEM: BOX BOUNDS pp pp pp
-2.1659880786948438e+01 2.1659880786948438e+01
-1.1125721167720103e+01 1.1125721167720103e+01
-1.1125721167720103e+01 1.1125721167720103e+01
ITEM: ENTRIES index c_dphi
1 151.225 
2 27.6035 
3 -90.0405 
4 150.689 
5 33.0446 
6 -85.6901 
7 -107.605 
8 134.751 
9 16.0167 
10 -161.396 
11 80.7125 
12 -30.2682 
13 127.844 
14 -109.69 
15 3.79499 
16 -135.812 
17 -127.758 
18 111.925 
19 -13.8932 
20 -10.2815 
21 -130.598 
22 103.583 
23 110.323 
24 -9.99351 
25 104.06 
26 -16.6078 
27 -133.556 
28 127.69 
29 -108.576 
30 -0.385425 
31 162.281 
32 37.0175 
33 -78.7273 
34 141.603 
35 27.9348 
36 -96.9186 
37 45.7353 
38 -72.6221 
39 159.61 
40 41.2525 
41 -84.1683 
42 157.474 
43 171.563 
44 -75.957 
45 32.6645 
46 156.627 
47 35.4256 
48 -80.0004 
49 155.569 
50 50.8384 
51 -65.6816 
52 172.573 
53 56.0534 
54 -82.6956 
55 -72.3587 
56 171.121 
57 32.3723 
58 -152.62 
59 -27.1647 
60 82.0002 
61 153.588 
62 24.9622 
63 -86.0049 
64 148.407 
65 37.4397 
66 -82.9672 
67 -83.5293 
68 165.504 
69 45.0967 
70 -69.1733 
71 49.7725 
72 -160.555 
73 -40.7123 
74 72.7451 
75 166.339 
76 41.7916 
77 -73.4697 
78 -105.171 
79 136.222 
80 21.9325 
81 -103.893 
82 134.135 
83 21.1753 
84 -101.97 
85 145.07 
86 20.0023 
87 6.85172 
88 -106.108 
89 128.824 
90 -179.998 
91 -61.6779 
92 58.9784 
93 -159.904 
94 74.2829 
95 -44.1561 
96 -77.095 
97 149.401 
98 35.6063 
99 -81.2303 
100 164.975 
101 52.2736 
102 37.2313 
103 -76.5635 
104 170.735 
105 140.334 
106 -87.1785 
107 27.1839 
108 178.867 
109 63.3401 
110 -54.5836 
111 -174.342 
112 67.7342 
113 -58.8151 
114 -61.5619 
115 -179.486 
116 53.9651 
ITEM: TIMESTEP
41700
ITEM: NUMBER OF ENTRIES
116
ITEM: BOX BOUNDS pp pp pp
-2.1659880786948438e+01 2.1659880786948438e+01
-1.1125721167720103e+01 1.1125721167720103e+01
-1.1125721167720103e+01 1.1125721167720103e+01
ITEM: ENTRIES index c_dphi
1 -167.755 
2 65.6823 
3 -46.3201 
4 -174.936 
5 73.0613 
6 -48.3736 
7 -62.4262 
8 -174.429 
9 64.1367 
10 159.995 
11 42.8013 
12 -76.6505 
13 160.587 
14 -69.7146 
15 37.6159 
16 -177.7 
17 -177.293 
18 61.9191 
19 -59.0769 
20 -59.9444 
21 179.268 
22 58.2716 
23 64.0835 
24 -56.7045 
25 101.666 
26 -18.6849 
27 -132.302 
28 111.493 
29 -126.497 
30 -9.76118 
31 152.254 
32 32.1663 
33 -79.0557 
34 -162.294 
35 83.7144 
36 -36.4235 
37 40.3403 
38 -74.2534 
39 156.557 
40 41.963 
41 -84.6637 
42 160.743 
43 178.878 
44 -62.5456 
45 54.105 
46 -179.898 
47 59.4582 
48 -62.6335 
49 101.634 
50 -16.2727 
51 -130.247 
52 102.246 
53 -11.7281 
54 -139.847 
55 -142.468 
56 103.558 
57 -24.561 
58 -157.786 
59 -42.4166 
60 70.547 
61 160.308 
62 43.8099 
63 -71.9024 
64 170.53 
65 54.8174 
66 -72.9718 
67 -66.0363 
68 178.251 
69 50.4622 
70 -96.2366 
71 29.728 
72 -177.235 
73 -54.1056 
74 62.3977 
75 163.342 
76 33.7724 
77 -80.7813 
78 -103.174 
79 138.68 
80 16.374 
81 -132.264 
82 103.818 
83 -8.387 
84 -139.37 
85 108.425 
86 -15.4512 
87 -21.817 
88 -134.022 
89 102.101 
90 -154.19 
91 -28.7097 
92 86.5192 
93 -136.279 
94 105.647 
95 -8.14653 
96 -99.9769 
97 132.788 
98 9.8679 
99 -107.42 
100 129.66 
101 19.8156 
102 4.91315 
103 -118.007 
104 132.149 
105 160.409 
106 -71.7964 
107 44.4635 
108 -145.278 
109 90.7712 
110 -23.2646 
111 -144.872 
112 101.092 
113 -20.9212 
114 -32.8563 
115 -146.892 
116 91.0945 
ITEM: TIMESTEP
41800
ITEM: NUMBER OF ENTRIES
116
ITEM: BOX BOUNDS pp pp pp
-2.1659880786948438e+01 2.1659880786948438e+01
-1.1125721167720103e+01 1.1125721167720103e+01
-1.1125721167720103e+01 1.1125721167720103e+01
ITEM: ENTRIES index c_dphi
1 149.492 
2 35.8807 
3 -88.22 
4 157.824 
5 33.7232 
6 -88.5652 
7 -88.1127 
8 147.787 
9 25.4981 
10 -135.896 
11 103.678 
12 -17.0819 
13 -179.237 
14 -62.5011 
15 57.7702 
16 130.206 
17 118.59 
18 7.3831 
19 -113.399 
20 -121.388 
21 127.405 
22 6.62348 
23 2.19385 
24 -109.013 
25 117.729 
26 -4.12164 
27 -122.473 
28 102.15 
29 -131.121 
30 -18.6217 
31 -169.427 
32 76.5534 
33 -40.98 
34 151.564 
35 23.9606 
36 -93.2208 
37 43.708 
38 -79.1067 
39 171.331 
40 48.5163 
41 -65.9017 
42 171.284 
43 -171.393 
44 -47.2205 
45 68.5143 
46 163.37 
47 48.1909 
48 -85.2026 
49 164.031 
50 38.5316 
51 -80.0174 
52 157.507 
53 38.9576 
54 -76.9937 
55 -77.5298 
56 163.921 
57 47.9699 
58 -153.796 
59 -45.6819 
60 92.2203 
61 168.275 
62 52.2447 
63 -77.5158 
64 -177.52 
65 52.7199 
66 -61.4897 
67 -62.608 
68 167.631 
69 53.4218 
70 -71.198 
71 49.6886 
72 177.386 
73 -67.1103 
74 55.9665 
75 155.024 
76 22.2556 
77 -88.3029 
78 -105.467 
79 138.045 
80 18.0992 
81 -146.729 
82 88.0828 
83 -26.7905 
84 -153.941 
85 91.1856 
86 -28.7523 
87 -35.0898 
88 -149.963 
89 90.0988 
90 -148.141 
91 -24.4259 
92 94.263 
93 -143.674 
94 90.3685 
95 -23.2474 
96 -154.591 
97 63.4132 
98 -44.5493 
99 -174.558 
100 77.4795 
101 -32.5625 
102 -57.1154 
103 -165.078 
104 84.8801 
105 -122.473 
106 17.7315 
107 123.238 
108 -159.002 
109 93.2088 
110 -37.641 
111 -147.657 
112 81.4929 
113 -39.8678 
114 -24.5446 
115 -155.394 
116 83.245 
ITEM: TIMESTEP
41900
ITEM: NUMBER OF ENTRIES
116
ITEM: BOX BOUNDS pp pp pp
-2.1659880786948438e+01 2.1659880786948438e+01
-1.1125721167720103e+01 1.1125721167720103e+01
-1.1125721167720103e+01 1.1125721167720103e+01
ITEM: ENTRIES index c_dphi
1 -171.91 
2 65.122 
3 -48.9239 
4 -168.575 
5 77.379 
6 -45.6067 
7 -60.2157 
8 -174.262 
9 62.7526 
10 172.347 
11 46.3655 
12 -61.9714 
13 173.463 
14 -69.7604 
15 53.8915 
16 108.057 
17 112.127 
18 -6.96834 
19 -135.232 
20 -132.238 
21 108.666 
22 -19.5977 
23 -4.58308 
24 -123.679 
25 120.552 
26 5.04529 
27 -120.9 
28 128.725 
29 -118.511 
30 -1.99978 
31 164.307 
32 47.3863 
33 -63.4668 
34 160.278 
35 30.7369 
36 -88.1 
37 61.1288 
38 -47.951 
39 -169.186 
40 81.734 
41 -49.9077 
42 -158.987 
43 159.337 
44 -73.2046 
45 43.2369 
46 146.503 
47 13.9118 
48 -104.414 
49 -166.306 
50 70.4483 
51 -46.9858 
52 -167.584 
53 74.9819 
54 -44.338 
55 -49.8285 
56 -167.263 
57 73.4175 
58 -179.006 
59 -64.9579 
60 66.3747 
61 160.807 
62 47.5528 
63 -84.2648 
64 160.842 
65 29.0244 
66 -85.9038 
67 -67.9856 
68 160.197 
69 45.2685 
70 -55.5764 
71 55.5437 
72 178.593 
73 -61.5592 
74 61.7464 
75 176.689 
76 62.6692 
77 -62.3012 
78 -112.627 
79 122.927 
80 10.9454 
81 -150.825 
82 79.0439 
83 -35.8858 
84 -159.845 
85 85.2256 
86 -29.7139 
87 -44.4661 
88 -159.396 
89 85.6646 
90 -143.737 
91 -17.0598 
92 103.436 
93 -161.671 
94 77.0016 
95 -40.2161 
96 178.653 
97 54.261 
98 -70.5558 
99 170.573 
100 45.7558 
101 -65.0355 
102 -68.4146 
103 166.769 
104 55.9773 
105 41.147 
106 164.744 
107 -70.2234 
108 178.319 
109 55.8372 
110 -65.6368 
111 -165.988 
112 72.5384 
113 -43.5056 
114 -58.7161 
115 179.81 
116 63.7658 
ITEM: TIMESTEP
42000
ITEM: NUMBER OF ENTRIES
116
ITEM: BOX BOUNDS pp pp pp
-2.1659880786948438e+01 2.1659880786948438e+01
-1.1125721167720103e+01 1.1125721167720103e+01
-1.1125721167720103e+01 1.1125721167720103e+01
ITEM: ENTRIES index c_dphi
1 174.418 
2 53.425 
3 -62.754 
4 172.204 
5 56.0251 
6 -66.8028 
7 -66.525 
8 177.296 
9 54.4681 
10 -155.905 
11 86.3968 
12 -37.0336 
13 134.923 
14 -107.502 
15 17.0128 
16 140.423 
17 142.644 
18 17.0635 
19 -104.076 
20 -93.637 
21 140.782 
22 19.6429 
23 27.1432 
24 -98.4378 
25 141.523 
26 29.0149 
27 -88.0585 
28 144.467 
29 -95.7687 
30 24.8375 
31 159.256 
32 42.3753 
33 -73.7211 
34 -170.561 
35 72.0284 
36 -51.4158 
37 51.5432 
38 -60.0285 
39 170.613 
40 59.0412 
41 -65.8497 
42 -177.421 
43 146.984 
44 -97.123 
45 27.2563 
46 -178.011 
47 69.1993 
48 -57.1384 
49 173.577 
50 61.0997 
51 -63.2874 
52 174.549 
53 50.1617 
54 -72.9735 
55 -67.4762 
56 168.137 
57 45.0014 
58 -166.151 
59 -32.8721 
60 78.9718 
61 159.468 
62 31.7425 
63 -90.3158 
64 142.371 
65 20.3123 
66 -89.9041 
67 -99.7098 
68 138.232 
69 28.0156 
70 -85.8331 
71 31.9885 
72 150.817 
73 -97.7347 
74 16.3418 
75 160.485 
76 52.0124 
77 -70.3297 
78 -115.688 
79 130.535 
80 8.65813 
81 171.878 
82 53.1851 
83 -68.5163 
84 176.618 
85 54.9163 
86 -64.6893 
87 -75.2705 
88 163.028 
89 43.4224 
90 -175.079 
91 -54.2165 
92 64.5765 
93 -107.061 
94 126.372 
95 13.4058 
96 -179.917 
97 55.3549 
98 -65.9259 
99 176.043 
100 54.7623 
101 -59.2293 
102 -64.7882 
103 173.931 
104 59.9394 
105 62.5382 
106 -176.463 
107 -53.6676 
108 171.924 
109 67.8407 
110 -53.7718 
111 -175.003 
112 63.3846 
113 -70.9192 
114 -50.6692 
115 -172.282 
116 53.4146 
ITEM: TIMESTEP
42100
ITEM: NUMBER OF ENTRIES
116
ITEM: BOX BOUNDS pp pp pp
-2.1659880786948438e+01 2.1659880786948438e+01
-1.1125721167720103e+01 1.1125721167720103e+01
-1.1125721167720103e+01 1.1125721167720103e+01
ITEM: ENTRIES index c_dphi
1 -178.479 
2 64.389 
3 -55.6217 
4 -170.657 
5 69.3318 
6 -53.525 
7 -69.4573 
8 170.532 
9 47.6752 
10 135.092 
11 13.3575 
12 -98.1408 
13 165.879 
14 -79.2142 
15 47.9462 
16 141.668 
17 131.114 
18 12.3276 
19 -102.372 
20 -106.846 
21 134.367 
22 19.6675 
23 15.1543 
24 -103.632 
25 145.007 
26 31.0302 
27 -90.9837 
28 141.216 
29 12.6151 
30 -101.282 
31 140.478 
32 -91.8396 
33 27.5445 
34 -168.241 
35 73.292 
36 -48.7613 
37 173.819 
38 -73.6802 
39 42.9247 
40 166.655 
41 57.2555 
42 -61.3162 
43 -172.338 
44 69.0906 
45 -62.9383 
46 -62.6808 
47 178.747 
48 46.7185 
49 14.1491 
50 -104.167 
51 138.01 
52 19.6943 
53 -108.764 
54 132.92 
55 -162.138 
56 64.5071 
57 -52.3831 
58 -42.9104 
59 79.7589 
60 166.189 
61 -72.8346 
62 41.527 
63 161.086 
64 34.0329 
65 -76.8588 
66 170.357 
67 59.4649 
68 -62.5903 
69 -76.5499 
70 172.558 
71 50.5031 
72 -174.604 
73 -51.0889 
74 63.9874 
75 140.475 
76 15.1219 
77 -97.0488 
78 138.871 
79 26.7 
80 -95.7759 
81 -108.595 
82 139.235 
83 16.7589 
84 146.912 
85 15.628 
86 -90.7186 
87 -146.075 
88 99.9218 
89 -23.3396 
90 173.754 
91 56.2095 
92 -63.419 
93 172.313 
94 52.6843 
95 -70.1431 
96 -69.08 
97 171.291 
98 48.4641 
99 -152.766 
100 -34.0376 
101 89.9061 
102 -81.2476 
103 159.579 
104 44.933 
105 -164.206 
106 78.7065 
107 -46.5677 
108 -160.599 
109 74.1271 
110 -43.5108 
111 -44.3529 
112 -169.627 
113 72.735 
114 -26.1838 
115 93.2868 
116 -149.798 
ITEM: TIMESTEP
42200
ITEM: NUMBER OF ENTRIES
116
ITEM: BOX BOUNDS pp pp pp
-2.1659880786948438e+01 2.1659880786948438e+01
-1.1125721167720103e+01 1.1125721167720103e+01
-1.1125721167720103e+01 1.1125721167720103e+01
ITEM: ENTRIES index c_dphi
1 175.65 
2 57.1292 
3 -61.6509 
4 178.728 
5 59.948 
6 -62.7515 
7 -67.3189 
8 173.901 
9 51.2015 
10 1.78361 
11 -119.349 
12 124.42 
13 153.079 
14 -87.4553 
15 43.2891 
16 -174.469 
17 179.215 
18 57.264 
19 -63.3125 
20 -53.4768 
21 -175.428 
22 63.9959 
23 68.0585 
24 -53.8923 
25 176.602 
26 65.076 
27 -56.6744 
28 159.732 
29 38.8749 
30 -85.6701 
31 121.586 
32 -119.247 
33 3.85809 
34 -178.21 
35 60.497 
36 -57.2025 
37 157.661 
38 -86.9487 
39 25.8291 
40 -176.974 
41 74.6966 
42 -41.9111 
43 -157.216 
44 86.1761 
45 -48.8871 
46 -44.2858 
47 -160.894 
48 64.0433 
49 35.1473 
50 -70.6264 
51 162.354 
52 56.58 
53 -91.7557 
54 162.471 
55 151.122 
56 29.5533 
57 -94.6963 
58 -29.2937 
59 77.1015 
60 -167.989 
61 -52.7397 
62 73.2698 
63 163.769 
64 54.2661 
65 -70.5707 
66 172.884 
67 48.0473 
68 -77.6134 
69 -57.416 
70 177.747 
71 52.0866 
72 -163.601 
73 -40.8031 
74 71.3338 
75 141.659 
76 19.4516 
77 -93.2776 
78 147.578 
79 34.8492 
80 -90.2144 
81 -92.9693 
82 154.301 
83 29.2378 
84 141.856 
85 14.9901 
86 -94.7778 
87 -157.068 
88 80.3933 
89 -34.8464 
90 164.594 
91 43.9982 
92 -82.7002 
93 163.303 
94 36.6041 
95 -76.102 
96 -77.429 
97 155.873 
98 43.1665 
99 -152.941 
100 -31.079 
101 94.1191 
102 -82.2488 
103 162.742 
104 44.881 
105 -168.658 
106 67.417 
107 -44.313 
108 -174.303 
109 73.9667 
110 -50.3784 
111 -57.6172 
112 -169.347 
113 66.3077 
114 -135.357 
115 -13.9988 
116 103.835 
ITEM: TIMESTEP
42300
ITEM: NUMBER OF ENTRIES
116
ITEM: BOX BOUNDS pp pp pp
-2.1659880786948438e+01 2.1659880786948438e+01
-1.1125721167720103e+01 1.1125721167720103e+01
-1.1125721167720103e+01 1.1125721167720103e+01
ITEM: ENTRIES index c_dphi
1 -171.804 
2 73.1923 
3 -47.4594 
4 -168.11 
5 71.2378 
6 -53.1067 
7 -42.6495 
8 -163.301 
9 72.3543 
10 -87.7626 
11 149.941 
12 28.2337 
13 174.46 
14 -66.931 
15 57.5554 
16 -172.429 
17 -167.143 
18 65.831 
19 -58.3032 
20 -41.9503 
21 -168.976 
22 66.89 
23 78.7306 
24 -48.295 
25 -178.062 
26 67.9243 
27 -53.4991 
28 163.76 
29 45.3226 
30 -80.3059 
31 153.723 
32 -90.8725 
33 32.826 
34 173.609 
35 59.6823 
36 -67.1652 
37 153.737 
38 -92.3156 
39 33.0939 
40 -173.529 
41 72.4314 
42 -50.372 
43 -166.721 
44 70.4755 
45 -52.6816 
46 -46.0696 
47 -168.873 
48 67.9699 
49 35.6335 
50 -72.5718 
51 152.67 
52 44.4651 
53 -92.709 
54 159.086 
55 -175.694 
56 62.8794 
57 -49.3785 
58 -100.941 
59 12.4377 
60 172.627 
61 -74.418 
62 51.5164 
63 -147.891 
64 98.5726 
65 -20.8356 
66 -142.345 
67 98.2464 
68 -28.8091 
69 -26.2723 
70 -145.681 
71 87.2639 
72 -134.412 
73 -16.391 
74 101.271 
75 169.762 
76 56.2417 
77 -68.9831 
78 172.235 
79 47.01 
80 -74.2454 
81 -58.4232 
82 176.352 
83 55.0966 
84 111.18 
85 -7.46126 
86 -131.789 
87 -169.521 
88 66.9205 
89 -47.7385 
90 142.621 
91 22.3154 
92 -98.2084 
93 145.823 
94 25.2996 
95 -93.8715 
96 -99.3883 
97 140.088 
98 20.9168 
99 -162.294 
100 -42.7824 
101 73.9371 
102 -83.9083 
103 155.332 
104 40.6908 
105 -175.16 
106 58.1493 
107 -58.0001 
108 -177.764 
109 66.0865 
110 -51.0736 
111 -63.7889 
112 -179.938 
113 62.9017 
114 -150.101 
115 -26.0058 
116 93.9963 
ITEM: TIMESTEP
42400
ITEM: NUMBER OF ENTRIES
116
ITEM: BOX BOUNDS pp pp pp
-2.1659880786948438e+01 2.1659880786948438e+01
-1.1125721167720103e+01 1.1125721167720103e+01
-1.1125721167720103e+01 1.1125721167720103e+01
ITEM: ENTRIES index c_dphi
1 170.164 
2 52.7727 
3 -62.8135 
4 -168.452 
5 75.9614 
6 -51.061 
7 -59.3437 
8 -174.93 
9 58.0477 
10 -19.6573 
11 -155.752 
12 89.427 
13 -162.327 
14 -52.406 
15 68.1145 
16 170.964 
17 171.291 
18 56.2655 
19 -73.2197 
20 -63.8421 
21 -178.867 
22 51.6476 
23 55.4742 
24 -59.5508 
25 -168.553 
26 77.5873 
27 -44.0091 
28 174.398 
29 60.285 
30 -54.8565 
31 165.596 
32 -74.7286 
33 38.3047 
34 179.768 
35 53.1433 
36 -66.7636 
37 167.4 
38 -68.6701 
39 55.0465 
40 -170.773 
41 59.8845 
42 -54.0367 
43 171.323 
44 57.4018 
45 -59.3343 
46 -69.132 
47 176.947 
48 60.2107 
49 36.31 
50 -76.3575 
51 168.825 
52 56.1576 
53 -73.3923 
54 173.94 
55 167.207 
56 45.9382 
57 -72.9718 
58 -100.547 
59 15.8749 
60 178.663 
61 -57.9473 
62 53.141 
63 -149.434 
64 82.6256 
65 -30.7292 
66 -151.678 
67 94.9675 
68 -23.7374 
69 -30.4041 
70 -143.759 
71 97.5362 
72 176.186 
73 -70.6213 
74 58.2581 
75 173.015 
76 60.124 
77 -68.7932 
78 176.098 
79 47.1806 
80 -71.0116 
81 -66.622 
82 164.461 
83 46.2685 
84 148.1 
85 33.5937 
86 -86.6771 
87 -155.622 
88 84.8862 
89 -35.8686 
90 158.192 
91 42.787 
92 -77.4678 
93 158.747 
94 38.4922 
95 -85.848 
96 -80.0994 
97 159.646 
98 35.3055 
99 157.498 
100 -85.5022 
101 32.1539 
102 -92.0231 
103 149.202 
104 34.7929 
105 -157.217 
106 78.915 
107 -36.3861 
108 -162.112 
109 82.587 
110 -38.2441 
111 -47.7018 
112 -163.003 
113 76.1659 
114 -59.878 
115 61.1895 
116 179.92 
ITEM: TIMESTEP
42500
ITEM: NUMBER OF ENTRIES
116
ITEM: BOX BOUNDS pp pp pp
-2.1659880786948438e+01 2.1659880786948438e+01
-1.1125721167720103e+01 1.1125721167720103e+01
-1.1125721167720103e+01 1.1125721167720103e+01
ITEM: ENTRIES index c_dphi
1 -165.507 
2 72.6173 
3 -47.2256 
4 -153.676 
5 86.4811 
6 -31.8005 
7 -36.0615 
8 -155.904 
9 85.814 
10 -70.9697 
11 159.942 
12 38.2075 
13 178.591 
14 -64.8372 
15 53.2521 
16 152.559 
17 149.957 
18 27.0326 
19 -93.8779 
20 -90.0603 
21 147.016 
22 26.1051 
23 36.394 
24 -86.5301 
25 155.729 
26 40.6409 
27 -73.5365 
28 170.778 
29 56.8807 
30 -62.2861 
31 177.195 
32 -61.9922 
33 54.3749 
34 -168.066 
35 64.0567 
36 -56.9521 
37 -174.657 
38 -42.0632 
39 72.0187 
40 150.501 
41 18.5514 
42 -91.8046 
43 135.728 
44 25.3723 
45 -92.3222 
46 -112.743 
47 136.901 
48 19.2063 
49 11.6221 
50 -101.392 
51 147.05 
52 34.036 
53 -100.489 
54 146.497 
55 -167.327 
56 76.5393 
57 -39.5682 
58 -60.218 
59 43.3546 
60 -173.436 
61 -49.6222 
62 65.9094 
63 176.617 
64 57.8274 
65 -63.9939 
66 167.29 
67 45.4686 
68 -73.9203 
69 -69.188 
70 168.991 
71 49.6017 
72 145.314 
73 -88.7485 
74 27.017 
75 -174.264 
76 60.3336 
77 -58.0374 
78 -178.002 
79 63.6267 
80 -52.5996 
81 -69.5771 
82 172.052 
83 55.8257 
84 -149.604 
85 87.0208 
86 -20.9297 
87 178.574 
88 59.1534 
89 -61.3976 
90 155.501 
91 40.2091 
92 -80.6684 
93 155.727 
94 34.8497 
95 -88.9813 
96 -81.1415 
97 157.981 
98 34.15 
99 176.421 
100 -68.2815 
101 51.281 
102 -80.4018 
103 164.895 
104 42.3446 
105 -143.354 
106 83.875 
107 -18.1549 
108 -161.61 
109 96.3599 
110 -28.8395 
111 -39.2794 
112 -141.309 
113 93.4912 
114 -90.5776 
115 34.6638 
116 149.315 
ITEM: TIMESTEP
42600
ITEM: NUMBER OF ENTRIES
116
ITEM: BOX BOUNDS pp pp pp
-2.1659880786948438e+01 2.1659880786948438e+01
-1.1125721167720103e+01 1.1125721167720103e+01
-1.1125721167720103e+01 1.1125721167720103e+01
ITEM: ENTRIES index c_dphi
1 166.865 
2 45.7534 
3 -69.7485 
4 167.979 
5 52.4775 
6 -70.909 
7 -60.254 
8 -175.756 
9 60.8576 
10 -28.6702 
11 -153.029 
12 79.829 
13 178.881 
14 -55.4499 
15 59.1652 
16 170.375 
17 155.097 
18 36.2448 
19 -76.8467 
20 -82.2216 
21 158.927 
22 45.835 
23 42.3186 
24 -76.5332 
25 178.801 
26 63.8893 
27 -50.6434 
28 134.961 
29 1.72738 
30 -111.956 
31 159.308 
32 -68.2129 
33 43.6237 
34 -141.812 
35 99.6359 
36 -23.1989 
37 179.032 
38 -62.2407 
39 57.6534 
40 111.076 
41 -12.0202 
42 -128.096 
43 122.733 
44 6.65711 
45 -114.171 
46 -122.357 
47 121.567 
48 0.739179 
49 39.0181 
50 -79.6339 
51 148.834 
52 30.1815 
53 -82.4862 
54 158.862 
55 176.208 
56 47.5115 
57 -62.1219 
58 -69.4022 
59 47.688 
60 -172.408 
61 -40.2065 
62 77.6521 
63 171.482 
64 37.5905 
65 -77.6696 
66 161.243 
67 45.9831 
68 -64.8656 
69 -83.1858 
70 161.554 
71 50.7055 
72 -165.643 
73 -37.3847 
74 65.5944 
75 -178.247 
76 54.2536 
77 -55.8167 
78 174.05 
79 63.9793 
80 -58.4505 
81 -65.244 
82 -175.314 
83 62.256 
84 175.283 
85 56.7387 
86 -65.4972 
87 160.537 
88 46.4748 
89 -79.4133 
90 171.275 
91 51.7328 
92 -68.1843 
93 172.226 
94 52.3085 
95 -68.232 
96 -77.013 
97 163.07 
98 42.5293 
99 -123.313 
100 -9.76976 
101 111.618 
102 -128.229 
103 113.042 
104 -7.35443 
105 -167.946 
106 69.2843 
107 -45.4123 
108 -170.997 
109 74.3064 
110 -48.2269 
111 -48.3292 
112 -163.026 
113 74.4409 
114 -53.5986 
115 68.5758 
116 -179.544 
ITEM: TIMESTEP
42700
ITEM: NUMBER OF ENTRIES
116
ITEM: BOX BOUNDS pp pp pp
-2.1659880786948438e+01 2.1659880786948438e+01
-1.1125721167720103e+01 1.1125721167720103e+01
-1.1125721167720103e+01 1.1125721167720103e+01
ITEM: ENTRIES index c_dphi
1 170.95 
2 56.3146 
3 -57.9417 
4 -177.036 
5 68.7077 
6 -62.4004 
7 -52.5364 
8 -166.793 
9 62.0991 
10 -104.213 
11 125.424 
12 -0.0914438 
13 -147.89 
14 -28.6872 
15 81.7862 
16 125.968 
17 127.572 
18 8.53357 
19 -113.132 
20 -114.36 
21 126.601 
22 4.93577 
23 6.67224 
24 -112.366 
25 164.425 
26 40.1146 
27 -70.7993 
28 177.655 
29 53.9513 
30 -68.0981 
31 -169.724 
32 -46.1159 
33 67.0614 
34 163.649 
35 41.139 
36 -66.7245 
37 153.876 
38 -90.1337 
39 28.2911 
40 156.033 
41 44.7297 
42 -81.9606 
43 169.867 
44 43.177 
45 -78.8293 
46 -67.1169 
47 166.193 
48 44.1865 
49 54.7783 
50 -71.0358 
51 171.547 
52 45.7326 
53 -66.1684 
54 168.018 
55 165.584 
56 50.6963 
57 -69.4266 
58 -73.3825 
59 56.8174 
60 152.959 
61 -76.3478 
62 40.5956 
63 159.237 
64 28.6511 
65 -86.1498 
66 143.618 
67 28.8176 
68 -85.796 
69 -88.2646 
70 156.935 
71 42.321 
72 -165.681 
73 -54.7877 
74 68.355 
75 -176.262 
76 67.402 
77 -52.2585 
78 -169.17 
79 71.1695 
80 -52.8338 
81 -54.2314 
82 -173.892 
83 62.1048 
84 172.728 
85 52.8201 
86 -66.7775 
87 -135.147 
88 106.284 
89 -14.6135 
90 -141.795 
91 100.96 
92 -12.6095 
93 -142.565 
94 103.865 
95 -25.3199 
96 -23.6221 
97 -137.192 
98 93.6228 
99 -145.28 
100 -28.2948 
101 86.5738 
102 -153.364 
103 87.6568 
104 -26.3196 
105 -172.632 
106 74.2195 
107 -47.4979 
108 -161.778 
109 76.5048 
110 -48.6291 
111 -50.1063 
112 -171.824 
113 63.0424 
114 -115.479 
115 -3.35154 
116 115.559 
ITEM: TIMESTEP
42800
ITEM: NUMBER OF ENTRIES
116
ITEM: BOX BOUNDS pp pp pp
-2.1659880786948438e+01 2.1659880786948438e+01
-1.1125721167720103e+01 1.1125721167720103e+01
-1.1125721167720103e+01 1.1125721167720103e+01
ITEM: ENTRIES index c_dphi
1 171.665 
2 51.2258 
3 -66.5502 
4 -176.954 
5 65.2703 
6 -56.5145 
7 -58.5182 
8 -176.294 
9 61.9211 
10 -12.1689 
11 -141.764 
12 90.2316 
13 166.747 
14 -67.9862 
15 46.9843 
16 172.43 
17 175.781 
18 64.4371 
19 -67.9161 
20 -62.4356 
21 -173.779 
22 53.8677 
23 56.1271 
24 -55.2164 
25 172.277 
26 48.8305 
27 -63.8746 
28 177.33 
29 61.4967 
30 -63.0706 
31 -153.259 
32 -32.5742 
33 71.7128 
34 135.024 
35 11.9712 
36 -104.297 
37 158.733 
38 -79.137 
39 37.4968 
40 171.1 
41 59.2518 
42 -67.6408 
43 175.969 
44 49.0769 
45 -72.1828 
46 -62.9059 
47 170.202 
48 48.9419 
49 48.1375 
50 -72.9043 
51 166.452 
52 45.4099 
53 -65.593 
54 173.365 
55 161.906 
56 50.5112 
57 -53.3112 
58 -93.5541 
59 21.5619 
60 154.341 
61 -85.5393 
62 33.1027 
63 -146.276 
64 93.6566 
65 -26.5972 
66 -159.573 
67 80.1729 
68 -39.5058 
69 -52.9096 
70 -173.163 
71 67.1579 
72 -144.397 
73 -32.8131 
74 98.4367 
75 -164.218 
76 78.1027 
77 -46.9595 
78 -160.119 
79 74.8189 
80 -42.4394 
81 -46.5731 
82 -171.635 
83 71.1064 
84 144.933 
85 22.1847 
86 -92.1751 
87 -107.749 
88 129.853 
89 12.1909 
90 -127.417 
91 114.736 
92 -6.54946 
93 -129.818 
94 108.897 
95 -11.9701 
96 -8.00998 
97 -129.295 
98 109.838 
99 -170.313 
100 -51.6255 
101 68.3627 
102 177.495 
103 55.6774 
104 -60.894 
105 -173.779 
106 71.6713 
107 -47.6282 
108 -167.825 
109 72.8754 
110 -53.2756 
111 -50.6226 
112 -169.922 
113 63.9268 
114 143.923 
115 -109.168 
116 17.023 
ITEM: TIMESTEP
42900
ITEM: NUMBER OF ENTRIES
116
ITEM: BOX BOUNDS pp pp pp
-2.1659880786948438e+01 2.1659880786948438e+01
-1.1125721167720103e+01 1.1125721167720103e+01
-1.1125721167720103e+01 1.1125721167720103e+01
ITEM: ENTRIES index c_dphi
1 -174.659 
2 60.3265 
3 -58.2202 
4 -165.201 
5 76.2519 
6 -40.1872 
7 -50.9668 
8 -169.513 
9 74.0475 
10 31.4563 
11 -101.167 
12 134.015 
13 -171.365 
14 -50.9562 
15 69.2023 
16 136.254 
17 154.312 
18 39.8776 
19 -98.2325 
20 -88.4264 
21 157.139 
22 19.0293 
23 28.7985 
24 -85.6357 
25 170.474 
26 38.7405 
27 -69.7442 
28 -165.14 
29 74.5954 
30 -43.1676 
31 177.746 
32 -71.744 
33 42.9168 
34 172.578 
35 48.8674 
36 -69.2384 
37 155.89 
38 -80.4554 
39 29.4791 
40 178.085 
41 52.7978 
42 -62.2347 
43 168.424 
44 53.3917 
45 -66.2888 
46 -74.1008 
47 170.867 
48 51.1864 
49 66.6179 
50 -50.6208 
51 -176.523 
52 66.2388 
53 -45.6178 
54 -162.857 
55 146 
56 25.0261 
57 -88.0877 
58 -105.237 
59 10.0085 
60 -154.568 
61 -14.5001 
62 97.7177 
63 -175.748 
64 42.3744 
65 -74.4589 
66 163.532 
67 46.6985 
68 -54.591 
69 -71.4426 
70 171.724 
71 70.4347 
72 -173.718 
73 -50.7922 
74 60.5088 
75 174.279 
76 54.1105 
77 -64.1565 
78 169.84 
79 51.573 
80 -69.9913 
81 -63.5071 
82 178.226 
83 56.6616 
84 -164.729 
85 80.5404 
86 -48.2843 
87 -150.352 
88 89.9962 
89 -25.4014 
90 -137.896 
91 98.8394 
92 -18.8324 
93 -141.926 
94 100.403 
95 -18.6608 
96 -33.4631 
97 -151.135 
98 89.8017 
99 -167.295 
100 -46.3425 
101 69.6831 
102 -162.787 
103 69.321 
104 -47.7442 
105 168.214 
106 54.1301 
107 -62.2411 
108 177.312 
109 60.9411 
110 -68.6036 
111 -63.1928 
112 -179.564 
113 50.8912 
114 -126.778 
115 -16.9634 
116 98.4373 
ITEM: TIMESTEP
43000
ITEM: NUMBER OF ENTRIES
116
ITEM: BOX BOUNDS pp pp pp
-2.1659880786948438e+01 2.1659880786948438e+01
-1.1125721167720103e+01 1.1125721167720103e+01
-1.1125721167720103e+01 1.1125721167720103e+01
ITEM: ENTRIES index c_dphi
1 -176.227 
2 63.2498 
3 -57.0722 
4 -174.85 
5 64.828 
6 -54.327 
7 -60.5802 
8 179.098 
9 59.9427 
10 177.135 
11 58.7294 
12 -73.1689 
13 -172.196 
14 -54.6176 
15 63.6841 
16 145.443 
17 151.565 
18 33.8805 
19 -92.2637 
20 -93.0144 
21 149.301 
22 23.1567 
23 29.2717 
24 -88.413 
25 162.691 
26 37.909 
27 -73.6463 
28 165.336 
29 43.8025 
30 -72.9626 
31 -179.862 
32 -61.3321 
33 57.8729 
34 -158.694 
35 77.9545 
36 -30.9653 
37 -173.289 
38 -47.4307 
39 71.5082 
40 165.07 
41 45.7798 
42 -81.442 
43 163.64 
44 36.4179 
45 -77.0699 
46 -79.9751 
47 152.803 
48 39.3153 
49 46.9473 
50 -75.3668 
51 170.937 
52 48.6227 
53 -79.0434 
54 158.642 
55 -173.431 
56 68.5522 
57 -41.7766 
58 -104.695 
59 21.0192 
60 -155.328 
61 -37.9951 
62 85.06 
63 -158.566 
64 79.2465 
65 -34.1751 
66 -162.741 
67 83.837 
68 -40.5543 
69 -53.5059 
70 -166.928 
71 68.6812 
72 -175.787 
73 -52.635 
74 61.4485 
75 157.663 
76 32.8332 
77 -79.3304 
78 147.695 
79 35.5318 
80 -87.4746 
81 -100.264 
82 147.572 
83 24.5657 
84 -177.185 
85 66.591 
86 -48.312 
87 -149.954 
88 93.3667 
89 -22.5225 
90 -166.579 
91 77.989 
92 -40.4237 
93 -168.56 
94 73.0272 
95 -53.1283 
96 -44.4348 
97 -162.847 
98 70.9971 
99 169.126 
100 -77.4744 
101 41.556 
102 -160.276 
103 77.5449 
104 -41.4698 
105 -169.488 
106 77.8674 
107 -41.7835 
108 -166.642 
109 73.7071 
110 -53.9975 
111 -44.7872 
112 -164.438 
113 67.8572 
114 -45.3196 
115 66.9665 
116 -178.979 
ITEM: TIMESTEP
43100
ITEM: NUMBER OF ENTRIES
116
ITEM: BOX BOUNDS pp pp pp
-2.1659880786948438e+01 2.1659880786948438e+01
-1.1125721167720103e+01 1.1125721167720103e+01
-1.1125721167720103e+01 1.1125721167720103e+01
ITEM: ENTRIES index c_dphi
1 146.969 
2 31.7956 
3 -95.7155 
4 160.507 
5 32.9957 
6 -84.3199 
7 -94.9633 
8 137.526 
9 20.2101 
10 61.0962 
11 -63.5769 
12 -178.429 
13 -157.787 
14 -37.9037 
15 87.1661 
16 141.962 
17 130.139 
18 21.5623 
19 -101.591 
20 -111.481 
21 139.943 
22 16.7894 
23 13.6918 
24 -94.8849 
25 -170.334 
26 74.1289 
27 -43.1183 
28 -164.56 
29 65.9911 
30 -49.1038 
31 -175.08 
32 -46.4541 
33 58.9718 
34 153.461 
35 29.2854 
36 -89.5508 
37 165.898 
38 -76.9034 
39 42.0915 
40 -178.833 
41 68.5199 
42 -55.2924 
43 -166.422 
44 69.7659 
45 -53.7743 
46 -50.6668 
47 -174.479 
48 61.9807 
49 49.9371 
50 -56.9873 
51 171.017 
52 64.0921 
53 -69.3971 
54 -176.321 
55 -166.753 
56 79.5717 
57 -51.1769 
58 -31.8447 
59 70.5623 
60 166.242 
61 -66.408 
62 46.0255 
63 -171.633 
64 61.1977 
65 -56.046 
66 169.114 
67 51.8699 
68 -63.717 
69 -56.9316 
70 -174.175 
71 70.2377 
72 -178.51 
73 -56.3015 
74 58.972 
75 -150.683 
76 85.4289 
77 -28.7256 
78 -157.445 
79 88.4001 
80 -33.5576 
81 -48.9215 
82 -163.076 
83 74.9662 
84 176.949 
85 61.4772 
86 -47.4914 
87 130.861 
88 3.62844 
89 -113.492 
90 -179.622 
91 65.1833 
92 -53.8292 
93 -166.823 
94 74.1645 
95 -51.628 
96 -52.9007 
97 -171.913 
98 62.2943 
99 -129.502 
100 -9.63137 
101 102.333 
102 -168.216 
103 67.0572 
104 -47.8407 
105 169.416 
106 53.6434 
107 -68.7475 
108 178.216 
109 55.8254 
110 -66.0111 
111 -75.2056 
112 162.403 
113 40.5669 
114 -90.0842 
115 22.2589 
116 144.946 
ITEM: TIMESTEP
43200
ITEM: NUMBER OF ENTRIES
116
ITEM: BOX BOUNDS pp pp pp
-2.1659880786948438e+01 2.1659880786948438e+01
-1.1125721167720103e+01 1.1125721167720103e+01
-1.1125721167720103e+01 1.1125721167720103e+01
ITEM: ENTRIES index c_dphi
1 -157.538 
2 80.1903 
3 -39.171 
4 -145.063 
5 95.5757 
6 -22.7911 
7 -44.6411 
8 -164.002 
9 77.6308 
10 89.74 
11 -40.6938 
12 -152.982 
13 -148.81 
14 -24.7964 
15 93.5901 
16 156.804 
17 149.443 
18 29.0973 
19 -81.6921 
20 -96.1086 
21 143.546 
22 32.7563 
23 27.9393 
24 -92.4064 
25 174.255 
26 53.3054 
27 -59.905 
28 153.416 
29 33.6487 
30 -87.4348 
31 171.842 
32 -64.8328 
33 57.1107 
34 -171.438 
35 79.5213 
36 -40.8087 
37 -173.38 
38 -56.9603 
39 56.7414 
40 159.457 
41 45.2734 
42 -71.9581 
43 161.369 
44 44.1378 
45 -84.4472 
46 -79.467 
47 163.302 
48 34.7165 
49 64.526 
50 -43.6643 
51 176.538 
52 68.348 
53 -64.5797 
54 -172.77 
55 -177.123 
56 60.2625 
57 -44.1619 
58 -53.575 
59 59.1316 
60 -172.503 
61 -38.7026 
62 74.0977 
63 -174.764 
64 50.2322 
65 -67.143 
66 172.458 
67 55.0826 
68 -52.538 
69 -71.3209 
70 171.304 
71 63.6833 
72 152.4 
73 -85.6073 
74 35.6758 
75 175.115 
76 50.5951 
77 -70.789 
78 165.255 
79 43.8706 
80 -70.2249 
81 -64.8775 
82 173.738 
83 59.6428 
84 -171.133 
85 68.9074 
86 -57.9628 
87 151.12 
88 27.4111 
89 -86.3254 
90 165.775 
91 45.0585 
92 -73.1941 
93 167.809 
94 49.5566 
95 -71.4746 
96 -77.6726 
97 164.075 
98 43.0436 
99 -151.291 
100 -32.2557 
101 84.9348 
102 -152.697 
103 87.6688 
104 -34.3062 
105 -171.732 
106 72.2771 
107 -48.3059 
108 -166.033 
109 73.3836 
110 -50.0426 
111 -51.7198 
112 -172.303 
113 64.2711 
114 -92.756 
115 26.0584 
116 142.555 
ITEM: TIMESTEP
43300
ITEM: NUMBER OF ENTRIES
116
ITEM: BOX BOUNDS pp pp pp
-2.1659880786948438e+01 2.1659880786948438e+01
-1.1125721167720103e+01 1.1125721167720103e+01
-1.1125721167720103e+01 1.1125721167720103e+01
ITEM: ENTRIES index c_dphi
1 -171.295 
2 64.53 
3 -53.1487 
4 -162.891 
5 79.43 
6 -38.7162 
7 -52.7106 
8 -170.389 
9 71.4645 
10 -154.622 
11 73.3602 
12 -39.3023 
13 -172.67 
14 -47.5474 
15 68.4909 
16 139.209 
17 132.171 
18 7.54506 
19 -99.8029 
20 -112.051 
21 123.322 
22 15.9744 
23 11.1834 
24 -113.443 
25 175.331 
26 57.9527 
27 -61.6956 
28 173.361 
29 59.1741 
30 -67.942 
31 171.304 
32 -61.2811 
33 60.3889 
34 -140.912 
35 96.0101 
36 -11.717 
37 179.121 
38 -63.3509 
39 61.5177 
40 147.667 
41 32.7123 
42 -90.0512 
43 148.969 
44 26.2057 
45 -96.0763 
46 -92.4761 
47 144.76 
48 22.4784 
49 71.4089 
50 -54.6481 
51 -165.322 
52 68.6211 
53 -60.7856 
54 173.157 
55 165.273 
56 45.6559 
57 -59.3857 
58 -67.5574 
59 57.6526 
60 -175.728 
61 -61.964 
62 59.5894 
63 -170.512 
64 80.5407 
65 -49.9647 
66 -169.45 
67 60.0445 
68 -60.5031 
69 -53.3748 
70 176.12 
71 55.5723 
72 -173.84 
73 -59.289 
74 64.0604 
75 165.932 
76 49.8564 
77 -74.5547 
78 173.242 
79 48.8313 
80 -70.682 
81 -68.2692 
82 167.32 
83 47.8065 
84 162.877 
85 41.9749 
86 -77.0025 
87 -154.039 
88 90.8118 
89 -22.7447 
90 158.811 
91 37.7089 
92 -82.1206 
93 150.846 
94 31.0166 
95 -88.0521 
96 -89.0784 
97 151.092 
98 32.0235 
99 159.192 
100 -82.6951 
101 34.6036 
102 -173.033 
103 73.8858 
104 -54.304 
105 168.209 
106 52.8138 
107 -62.8513 
108 171.662 
109 55.9973 
110 -72.9422 
111 -66.0681 
112 178.267 
113 49.3274 
114 -56.3687 
115 67.6881 
116 176.707 
ITEM: TIMESTEP
43400
ITEM: NUMBER OF ENTRIES
116
ITEM: BOX BOUNDS pp pp pp
-2.1659880786948438e+01 2.1659880786948438e+01
-1.1125721167720103e+01 1.1125721167720103e+01
-1.1125721167720103e+01 1.1125721167720103e+01
ITEM: ENTRIES index c_dphi
1 -176.626 
2 67.2949 
3 -52.0033 
4 177.009 
5 57.7111 
6 -66.9112 
7 -65.4704 
8 175.231 
9 50.6091 
10 -164.528 
11 86.2629 
12 -34.6738 
13 -172.952 
14 -57.6802 
15 64.8132 
16 143.633 
17 144.036 
18 32.3933 
19 -94.2673 
20 -98.8835 
21 149.474 
22 22.8133 
23 21.9364 
24 -89.7061 
25 -173.42 
26 66.0821 
27 -54.1785 
28 177.051 
29 61.7792 
30 -52.5728 
31 -177.491 
32 -55.8802 
33 61.0524 
34 -161.253 
35 84.8225 
36 -39.5643 
37 172.466 
38 -60.2914 
39 65.8877 
40 149.909 
41 14.2941 
42 -98.2767 
43 131.941 
44 19.3707 
45 -92.4439 
46 -116.573 
47 130.856 
48 19.0416 
49 55.7677 
50 -47.6583 
51 170.157 
52 66.7311 
53 -64.2312 
54 -167.657 
55 175.967 
56 60.7301 
57 -70.4515 
58 -52.0032 
59 51.2878 
60 154.911 
61 -70.3914 
62 42.5686 
63 -175.76 
64 55.2339 
65 -59.8731 
66 171.757 
67 56.6502 
68 -59.2365 
69 -60.8715 
70 -175.979 
71 68.1348 
72 178.486 
73 -67.5551 
74 54.6042 
75 -163.445 
76 78.2911 
77 -35.6405 
78 -157.612 
79 88.4568 
80 -39.3475 
81 -46.8269 
82 -160.758 
83 71.4372 
84 161.53 
85 42.7514 
86 -72.5344 
87 -165.389 
88 74.3204 
89 -45.078 
90 -166.461 
91 77.6933 
92 -47.6805 
93 -164.533 
94 70.0936 
95 -48.6868 
96 -47.2547 
97 -172.628 
98 68.5911 
99 159.059 
100 -79.0162 
101 39.6847 
102 158.236 
103 32.599 
104 -89.8338 
105 -176.649 
106 65.3937 
107 -45.498 
108 -162.047 
109 87.0612 
110 -44.0894 
111 -45.4361 
112 -156.328 
113 72.5215 
114 173.863 
115 -68.3618 
116 51.5299 
ITEM: TIMESTEP
43500
ITEM: NUMBER OF ENTRIES
116
ITEM: BOX BOUNDS pp pp pp
-2.1659880786948438e+01 2.1659880786948438e+01
-1.1125721167720103e+01 1.1125721167720103e+01
-1.1125721167720103e+01 1.1125721167720103e+01
ITEM: ENTRIES index c_dphi
1 -160.368 
2 77.745 
3 -43.0536 
4 -174.261 
5 64.9409 
6 -52.3739 
7 -57.6882 
8 -178.487 
9 64.1984 
10 -140.628 
11 109.493 
12 -0.881943 
13 -140.765 
14 -21.7744 
15 101.837 
16 125.639 
17 134.17 
18 17.5047 
19 -113.017 
20 -107.946 
21 135.388 
22 4.8666 
23 12.8269 
24 -103.839 
25 170.373 
26 50.9564 
27 -73.751 
28 -161.238 
29 73.4938 
30 -48.318 
31 179.296 
32 -67.9857 
33 48.409 
34 162.813 
35 41.4727 
36 -84.6519 
37 130.174 
38 -102.752 
39 17.9037 
40 144.403 
41 8.74259 
42 -98.7278 
43 136.351 
44 28.8808 
45 -87.988 
46 -106.858 
47 145.672 
48 28.8031 
49 66.8182 
50 -49.988 
51 -167.72 
52 75.4738 
53 -47.4659 
54 -164.272 
55 -177.659 
56 68.418 
57 -52.0147 
58 -45.0928 
59 70.3259 
60 -170.083 
61 -49.5696 
62 67.3638 
63 -158.57 
64 78.336 
65 -40.9752 
66 -167.148 
67 73.541 
68 -44.0533 
69 -51.8889 
70 -171.2 
71 71.2056 
72 166.766 
73 -70.5118 
74 42.3491 
75 -152.63 
76 82.2187 
77 -28.9842 
78 -164.242 
79 84.5552 
80 -39.0904 
81 -40.0033 
82 -151.206 
83 85.1481 
84 169.084 
85 50.734 
86 -74.3406 
87 134.691 
88 13.3229 
89 -111.91 
90 -177.603 
91 67.7829 
92 -53.0072 
93 -167.897 
94 71.3133 
95 -53.2828 
96 -44.7963 
97 -165.586 
98 69.8175 
99 179.731 
100 -61.4136 
101 56.8304 
102 179.695 
103 52.1979 
104 -70.1551 
105 175.108 
106 57.1544 
107 -49.922 
108 -173.006 
109 79.918 
110 -55.0519 
111 -55.882 
112 -162.958 
113 62.0718 
114 127.659 
115 -115.291 
116 2.17295 
ITEM: TIMESTEP
43600
ITEM: NUMBER OF ENTRIES
116
ITEM: BOX BOUNDS pp pp pp
-2.1659880786948438e+01 2.1659880786948438e+01
-1.1125721167720103e+01 1.1125721167720103e+01
-1.1125721167720103e+01 1.1125721167720103e+01
ITEM: ENTRIES index c_dphi
1 -179.319 
2 53.4618 
3 -60.709 
4 169.185 
5 55.0144 
6 -63.5958 
7 -60.3745 
8 -174.545 
9 66.8445 
10 -168.076 
11 77.3852 
12 -47.801 
13 175.912 
14 -65.4337 
15 57.8986 
16 160.727 
17 165.662 
18 34.9705 
19 -81.549 
20 -73.9756 
21 155.333 
22 38.8133 
23 47.9382 
24 -82.7535 
25 172.049 
26 52.7179 
27 -65.7191 
28 -151.69 
29 92.2502 
30 -35.44 
31 -174.596 
32 -57.4326 
33 66.2478 
34 160.545 
35 32.8858 
36 -79.8876 
37 112.712 
38 -132.167 
39 -5.94047 
40 168.242 
41 51.5573 
42 -66.0592 
43 176.081 
44 58.4644 
45 -67.2345 
46 -64.227 
47 178.156 
48 52.4575 
49 52.0505 
50 -70.0196 
51 -177.526 
52 60.4043 
53 -67.3625 
54 170.567 
55 -173.407 
56 66.7465 
57 -48.3829 
58 -47.3416 
59 77.7034 
60 -164.325 
61 -43.7156 
62 74.4946 
63 176.895 
64 62.588 
65 -68.7025 
66 -173.363 
67 55.3464 
68 -59.0558 
69 -61.4677 
70 167.242 
71 52.8397 
72 164.81 
73 -68.9562 
74 46.3441 
75 175.507 
76 49.7451 
77 -64.113 
78 168.642 
79 54.7842 
80 -65.5955 
81 -65.4253 
82 -179.283 
83 60.3369 
84 -166.184 
85 77.7295 
86 -41.7344 
87 157.195 
88 43.5024 
89 -76.3685 
90 -177.344 
91 65.5765 
92 -56.7957 
93 -178.736 
94 58.8916 
95 -61.6572 
96 -60.8202 
97 176.808 
98 56.2588 
99 -160.453 
100 -43.7172 
101 77.5214 
102 -151.745 
103 88.9359 
104 -33.8354 
105 -172.452 
106 68.5485 
107 -36.3572 
108 -173.035 
109 82.0593 
110 -54.036 
111 -52.7875 
112 -157.693 
113 66.2115 
114 27.8308 
115 142.278 
116 -99.355 
ITEM: TIMESTEP
43700
ITEM: NUMBER OF ENTRIES
116
ITEM: BOX BOUNDS pp pp pp
-2.1659880786948438e+01 2.1659880786948438e+01
-1.1125721167720103e+01 1.1125721167720103e+01
-1.1125721167720103e+01 1.1125721167720103e+01
ITEM: ENTRIES index c_dphi
1 -152.319 
2 87.2422 
3 -26.1748 
4 -136.763 
5 109.82 
6 -16.3243 
7 -33.8234 
8 -147.24 
9 86.6154 
10 -144.854 
11 88.0555 
12 -23.5335 
13 -159.985 
14 -43.1816 
15 72.7248 
16 167.152 
17 159.665 
18 44.0864 
19 -74.6451 
20 -76.3869 
21 168.034 
22 49.303 
23 41.4623 
24 -74.1163 
25 -173.011 
26 71.6372 
27 -55.6235 
28 -173.731 
29 63.6297 
30 -53.7006 
31 -178.5 
32 -55.7578 
33 69.4799 
34 -167.052 
35 76.2005 
36 -43.8669 
37 122.366 
38 -129.93 
39 -14.5356 
40 148.646 
41 49.5595 
42 -72.0716 
43 176.223 
44 54.5922 
45 -84.6905 
46 -64.2678 
47 174.101 
48 34.8184 
49 61.4852 
50 -39.62 
51 176.937 
52 75.8321 
53 -58.6643 
54 -159.769 
55 178.994 
56 53.6259 
57 -64.9673 
58 -68.0806 
59 34.8918 
60 177.73 
61 -60.1683 
62 50.1765 
63 173.177 
64 52.335 
65 -62.3248 
66 176.792 
67 62.1318 
68 -62.3662 
69 -68.5808 
70 176.76 
71 52.2615 
72 161.558 
73 -81.572 
74 50.0909 
75 151.848 
76 33.9626 
77 -90.4008 
78 160.887 
79 36.5236 
80 -81.2275 
81 -88.2166 
82 147.42 
83 29.6689 
84 170.12 
85 48.4422 
86 -63.5384 
87 -166.401 
88 74.8459 
89 -42.9296 
90 -129.815 
91 109.208 
92 -10.1355 
93 -136.322 
94 104.335 
95 -15.3449 
96 -19.0381 
97 -138.382 
98 101.939 
99 -139.813 
100 -22.1587 
101 93.0024 
102 177.162 
103 60.4528 
104 -58.9514 
105 171.602 
106 43.4307 
107 -69.1939 
108 159.993 
109 47.3682 
110 -71.8356 
111 -78.2889 
112 169.087 
113 49.8827 
114 57.0817 
115 -173.341 
116 -60.8577 
ITEM: TIMESTEP
43800
ITEM: NUMBER OF ENTRIES
116
ITEM: BOX BOUNDS pp pp pp
-2.1659880786948438e+01 2.1659880786948438e+01
-1.1125721167720103e+01 1.1125721167720103e+01
-1.1125721167720103e+01 1.1125721167720103e+01
ITEM: ENTRIES index c_dphi
1 173.558 
2 62.4351 
3 -55.7889 
4 -174.206 
5 67.5696 
6 -63.0838 
7 -48.0037 
8 -166.228 
9 63.1189 
10 168.885 
11 55.0753 
12 -74.8482 
13 179.595 
14 -67.5062 
15 50.4754 
16 -151.271 
17 -162.803 
18 88.9784 
19 -31.7915 
20 -39.0184 
21 -147.237 
22 91.9934 
23 77.7171 
24 -30.5012 
25 -169.181 
26 73.0859 
27 -52.8719 
28 143.417 
29 17.1884 
30 -104.319 
31 -171.208 
32 -46.3478 
33 68.18 
34 172.884 
35 53.218 
36 -69.4425 
37 158.98 
38 -84.6738 
39 40.309 
40 172.561 
41 59.2719 
42 -58.9546 
43 -177.253 
44 64.5201 
45 -63.9641 
46 -51.4039 
47 -169.63 
48 61.8853 
49 94.4292 
50 -25.7206 
51 -150.435 
52 89.4152 
53 -23.5592 
54 -143.709 
55 159.066 
56 36.6406 
57 -80.7322 
58 -84.503 
59 38.9085 
60 152.122 
61 -89.3925 
62 23.3845 
63 159.584 
64 45.8868 
65 -72.6236 
66 173.275 
67 54.7644 
68 -73.0278 
69 -72.6296 
70 168.86 
71 41.0678 
72 -175.593 
73 -52.241 
74 70.4589 
75 178.607 
76 66.1568 
77 -68.4698 
78 -179.843 
79 45.5299 
80 -67.3931 
81 -51.9966 
82 173.377 
83 60.4536 
84 167.826 
85 46.4476 
86 -76.5888 
87 -159.869 
88 76.015 
89 -44.1497 
90 -147.884 
91 96.2058 
92 -27.6174 
93 -149.328 
94 86.8485 
95 -33.4183 
96 -20.8819 
97 -144.705 
98 95.0282 
99 -161.044 
100 -38.3163 
101 77.1053 
102 168.933 
103 41.9798 
104 -68.0031 
105 -167.263 
106 62.861 
107 -45.978 
108 -172.846 
109 78.3155 
110 -42.97 
111 -60.1513 
112 -168.99 
113 69.7243 
114 94.7749 
115 -139.931 
116 -24.5713 
ITEM: TIMESTEP
43900
ITEM: NUMBER OF ENTRIES
116
ITEM: BOX BOUNDS pp pp pp
-2.1659880786948438e+01 2.1659880786948438e+01
-1.1125721167720103e+01 1.1125721167720103e+01
-1.1125721167720103e+01 1.1125721167720103e+01
ITEM: ENTRIES index c_dphi
1 -171.391 
2 72.6604 
3 -48.1892 
4 -150.596 
5 88.554 
6 -34.6478 
7 -41.2901 
8 -162.14 
9 74.6584 
10 149.293 
11 25.504 
12 -91.8259 
13 -121.211 
14 0.255343 
15 117.444 
16 113.436 
17 112.953 
18 -7.31499 
19 -129.788 
20 -124.785 
21 114.948 
22 -7.52499 
23 -3.8233 
24 -124.091 
25 -176.905 
26 62.6342 
27 -52.3935 
28 150.73 
29 21.3981 
30 -98.096 
31 139.544 
32 -106.594 
33 18.3564 
34 166.553 
35 38.5139 
36 -75.9299 
37 -157.609 
38 -35.796 
39 83.9352 
40 -135.069 
41 94.583 
42 -19.4454 
43 -132.457 
44 113.514 
45 -2.10913 
46 -17.1174 
47 -131.146 
48 113.231 
49 72.0173 
50 -54.742 
51 -161.519 
52 71.722 
53 -43.857 
54 -170.616 
55 158.773 
56 30.7701 
57 -80.3514 
58 -110.65 
59 23.1188 
60 150.685 
61 -93.4812 
62 26.7126 
63 -157.762 
64 86.9352 
65 -32.1367 
66 -141.396 
67 99.5319 
68 -26.0935 
69 -36.8308 
70 -155.903 
71 78.4718 
72 -173.904 
73 -57.5572 
74 62.7287 
75 -164.422 
76 82.9586 
77 -37.3353 
78 -161.931 
79 77.7751 
80 -49.3112 
81 -35.1037 
82 -155.398 
83 77.5161 
84 173.372 
85 52.7324 
86 -63.5028 
87 -178.398 
88 61.1177 
89 -53.4322 
90 159.338 
91 44.6758 
92 -79.5864 
93 163.688 
94 39.426 
95 -81.6497 
96 -74.049 
97 161.689 
98 40.6131 
99 -175.035 
100 -54.6605 
101 66.6932 
102 -143.849 
103 96.5872 
104 -14.7422 
105 -172.202 
106 62.6214 
107 -58.9803 
108 -176.456 
109 61.9427 
110 -51.2788 
111 -64.4195 
112 173.979 
113 60.7572 
114 81.8647 
115 -154.422 
116 -32.3501 
ITEM: TIMESTEP
44000
ITEM: NUMBER OF ENTRIES
116
ITEM: BOX BOUNDS pp pp pp
-2.1659880786948438e+01 2.1659880786948438e+01
-1.1125721167720103e+01 1.1125721167720103e+01
-1.1125721167720103e+01 1.1125721167720103e+01
ITEM: ENTRIES index c_dphi
1 169.086 
2 47.3014 
3 -75.1006 
4 -178.219 
5 59.3792 
6 -56.4347 
7 -65.2179 
8 172.38 
9 56.5663 
10 -142.163 
11 98.8941 
12 -26.0693 
13 -134.028 
14 -4.94375 
15 111.107 
16 102.827 
17 101.24 
18 -21.6796 
19 -140.887 
20 -132.553 
21 104.527 
22 -14.6806 
23 -15.0462 
24 -137.966 
25 162.588 
26 42.3967 
27 -78.7542 
28 166.567 
29 53.3647 
30 -61.6439 
31 148.558 
32 -95.482 
33 27.5965 
34 -148.595 
35 93.6343 
36 -29.3196 
37 -169.238 
38 -40.648 
39 80.2152 
40 161.8 
41 31.6721 
42 -92.2062 
43 148.697 
44 24.8189 
45 -81.1753 
46 -98.1283 
47 137.994 
48 31.9993 
49 37.9648 
50 -80.3186 
51 155.726 
52 37.4421 
53 -82.329 
54 159.388 
55 -172.944 
56 65.5974 
57 -62.5374 
58 -91.2144 
59 28.6813 
60 176.833 
61 -67.942 
62 54.6453 
63 -164.359 
64 83.5155 
65 -40.3525 
66 -154.402 
67 81.7294 
68 -42.2769 
69 -30.3857 
70 -154.254 
71 81.7399 
72 179.393 
73 -60.1451 
74 57.4729 
75 -170.441 
76 68.3627 
77 -41.5228 
78 -166.572 
79 83.5427 
80 -45.3756 
81 -55.7035 
82 -165.589 
83 65.4926 
84 -169.658 
85 64.9091 
86 -43.1634 
87 -177.034 
88 58.4968 
89 -55.0563 
90 145.477 
91 23.7827 
92 -95.7245 
93 150.388 
94 30.8808 
95 -87.9175 
96 -97.5577 
97 142.935 
98 24.1368 
99 169.453 
100 -68.5937 
101 48.8227 
102 -139.219 
103 98.4958 
104 -13.9275 
105 178.783 
106 50.974 
107 -71.3606 
108 169.519 
109 47.184 
110 -62.6725 
111 -75.4396 
112 162.226 
113 52.3693 
114 109.95 
115 -120.019 
116 -7.03948 
ITEM: TIMESTEP
44100
ITEM: NUMBER OF ENTRIES
116
ITEM: BOX BOUNDS pp pp pp
-2.1659880786948438e+01 2.1659880786948438e+01
-1.1125721167720103e+01 1.1125721167720103e+01
-1.1125721167720103e+01 1.1125721167720103e+01
ITEM: ENTRIES index c_dphi
1 -168.056 
2 71.8742 
3 -42.982 
4 -163.09 
5 82.0533 
6 -43.0202 
7 -43.2004 
8 -158.057 
9 76.8699 
10 -119.36 
11 118.973 
12 -4.70961 
13 168.805 
14 -69.3169 
15 44.8795 
16 157.386 
17 152.823 
18 36.9607 
19 -87.1833 
20 -79.5453 
21 164.593 
22 40.4486 
23 37.3925 
24 -78.4697 
25 114.765 
26 -1.8852 
27 -126.242 
28 -168.991 
29 72.8622 
30 -47.237 
31 -160.793 
32 -38.8192 
33 76.0464 
34 175.312 
35 58.5684 
36 -57.4141 
37 173.971 
38 -50.2311 
39 62.4525 
40 174.814 
41 41.8508 
42 -70.3881 
43 163.569 
44 51.3296 
45 -63.4687 
46 -76.1124 
47 171.649 
48 56.8503 
49 23.8391 
50 -81.6333 
51 142.86 
52 37.3877 
53 -98.9029 
54 155.625 
55 156.076 
56 27.5176 
57 -91.7014 
58 -57.5162 
59 56.334 
60 173.785 
61 -71.8234 
62 54.1321 
63 142.308 
64 23.3091 
65 -92.5721 
66 157 
67 41.1188 
68 -84.0013 
69 -85.1486 
70 158.97 
71 33.85 
72 -137.197 
73 -10.0013 
74 103.24 
75 -141.359 
76 92.324 
77 -22.1965 
78 -148.35 
79 97.1299 
80 -22.0321 
81 -23.2751 
82 -137.796 
83 103.042 
84 -178.612 
85 58.4152 
86 -61.991 
87 -175.319 
88 56.2118 
89 -67.1471 
90 157.243 
91 29.7837 
92 -89.7863 
93 158.566 
94 38.996 
95 -73.9745 
96 -79.0538 
97 161.376 
98 48.4057 
99 175.711 
100 -55.8105 
101 61.6773 
102 167.29 
103 48.6248 
104 -68.6222 
105 167.766 
106 33.6513 
107 -79.2912 
108 155.005 
109 42.0623 
110 -70.8804 
111 -88.26 
112 158.797 
113 45.8548 
114 84.5775 
115 -143.489 
116 -25.3535 
ITEM: TIMESTEP
44200
ITEM: NUMBER OF ENTRIES
116
ITEM: BOX BOUNDS pp pp pp
-2.1659880786948438e+01 2.1659880786948438e+01
-1.1125721167720103e+01 1.1125721167720103e+01
-1.1125721167720103e+01 1.1125721167720103e+01
ITEM: ENTRIES index c_dphi
1 -175.802 
2 64.3998 
3 -45.232 
4 -174.094 
5 76.2739 
6 -54.2966 
7 -66.5335 
8 -176.165 
9 53.2643 
10 -60.7167 
11 178.699 
12 60.1607 
13 161.692 
14 -80.4178 
15 33.7259 
16 168.814 
17 168.87 
18 43.5373 
19 -72.5611 
20 -72.3945 
21 162.273 
22 46.1744 
23 50.2454 
24 -75.0872 
25 152.127 
26 35.4086 
27 -82.6617 
28 -166.025 
29 78.6772 
30 -45.7389 
31 168.615 
32 -69.3683 
33 52.5794 
34 136.395 
35 17.7258 
36 -103.928 
37 -159.487 
38 -40.3972 
39 76.1833 
40 -135.836 
41 104.457 
42 -15.8938 
43 -135.265 
44 104.384 
45 -15.5583 
46 -16.7699 
47 -137.12 
48 102.937 
49 18.5518 
50 -97.8426 
51 136.534 
52 20.1397 
53 -111.313 
54 132.292 
55 173.198 
56 55.8512 
57 -66.3416 
58 -95.191 
59 22.6707 
60 160.777 
61 -83.0543 
62 36.2309 
63 157.263 
64 45.255 
65 -75.9254 
66 160.461 
67 39.281 
68 -87.5306 
69 -67.3146 
70 171.505 
71 44.6934 
72 -161.795 
73 -40.9658 
74 79.0078 
75 -170.042 
76 73.4158 
77 -53.4907 
78 -163.955 
79 69.1385 
80 -47.4124 
81 -41.5925 
82 -168.499 
83 74.9501 
84 175.535 
85 61.6183 
86 -70.3297 
87 -147.755 
88 92.8442 
89 -22.6166 
90 140.617 
91 12.6098 
92 -99.5831 
93 134.625 
94 22.4323 
95 -97.3675 
96 -114.469 
97 133.338 
98 13.5383 
99 144.776 
100 -88.5252 
101 28.548 
102 -152.875 
103 91.9566 
104 -33.755 
105 -171.294 
106 63.2538 
107 -49.7123 
108 -174.835 
109 72.1987 
110 -49.3834 
111 -57.521 
112 -170.487 
113 67.9308 
114 80.8752 
115 -161.653 
116 -32.5432 
ITEM: TIMESTEP
44300
ITEM: NUMBER OF ENTRIES
116
ITEM: BOX BOUNDS pp pp pp
-2.1659880786948438e+01 2.1659880786948438e+01
-1.1125721167720103e+01 1.1125721167720103e+01
-1.1125721167720103e+01 1.1125721167720103e+01
ITEM: ENTRIES index c_dphi
1 173.628 
2 50.5187 
3 -73.7216 
4 168.416 
5 44.1754 
6 -68.4746 
7 -73.7395 
8 162.02 
9 49.3701 
10 -125.178 
11 112.338 
12 -8.11127 
13 179.386 
14 -70.8501 
15 67.0668 
16 166.584 
17 160.562 
18 44.4826 
19 -79.344 
20 -75.0963 
21 168.824 
22 44.9975 
23 46.4903 
24 -69.5892 
25 -175.286 
26 68.7708 
27 -47.1613 
28 -164.977 
29 65.6709 
30 -52.3137 
31 143.39 
32 -98.1643 
33 24.2322 
34 168.29 
35 57.3253 
36 -69.2539 
37 -162.634 
38 -49.5781 
39 76.7329 
40 -129.309 
41 121.137 
42 -7.35736 
43 -110.042 
44 121.463 
45 -0.488545 
46 9.93575 
47 -118.559 
48 119.489 
49 11.011 
50 -94.1792 
51 126.307 
52 21.1171 
53 -110.66 
54 144.149 
55 142.389 
56 18.0578 
57 -94.0498 
58 -110.637 
59 0.0798798 
60 152.302 
61 -88.9721 
62 28.6873 
63 157.391 
64 40.2572 
65 -75.7571 
66 158.692 
67 42.6777 
68 -84.1744 
69 -83.7139 
70 160.272 
71 33.4196 
72 177.478 
73 -60.7276 
74 65.1363 
75 -129.212 
76 108.192 
77 -10.0335 
78 -124.249 
79 117.526 
80 -1.65238 
81 -12.2942 
82 -130.519 
83 110.302 
84 -176.746 
85 52.8292 
86 -59.6397 
87 -171.809 
88 77.0495 
89 -41.598 
90 -171.177 
91 70.9324 
92 -48.4151 
93 -172.125 
94 68.5271 
95 -54.2343 
96 -59.1983 
97 -178.546 
98 58.6927 
99 -172.208 
100 -52.6067 
101 70.2055 
102 173.126 
103 54.6885 
104 -71.302 
105 172.115 
106 52.9523 
107 -70.8679 
108 171.703 
109 47.8832 
110 -69.1343 
111 -69.9423 
112 166.238 
113 49.2201 
114 74.0126 
115 -168.766 
116 -49.0585 
ITEM: TIMESTEP
44400
ITEM: NUMBER OF ENTRIES
116
ITEM: BOX BOUNDS pp pp pp
-2.1659880786948438e+01 2.1659880786948438e+01
-1.1125721167720103e+01 1.1125721167720103e+01
-1.1125721167720103e+01 1.1125721167720103e+01
ITEM: ENTRIES index c_dphi
1 -170.938 
2 62.012 
3 -59.9087 
4 -166.068 
5 72.0117 
6 -39.0178 
7 -51.9686 
8 -173.889 
9 75.0813 
10 44.11 
11 -90.173 
12 151.236 
13 -167.89 
14 -47.727 
15 79.8799 
16 -151.798 
17 -150.261 
18 96.2221 
19 -29.8373 
20 -35.8817 
21 -149.399 
22 84.5417 
23 87.7783 
24 -25.7388 
25 -175.634 
26 61.976 
27 -52.0588 
28 139.165 
29 9.14018 
30 -102.084 
31 158.497 
32 -78.7665 
33 34.5765 
34 -164.023 
35 68.3196 
36 -47.2694 
37 178.679 
38 -53.5011 
39 64.6939 
40 -165.596 
41 68.6332 
42 -57.6499 
43 -159.439 
44 74.2781 
45 -33.6678 
46 -48.8296 
47 -175.113 
48 76.9414 
49 44.28 
50 -63.9469 
51 172.569 
52 64.3421 
53 -64.1648 
54 -172.392 
55 112.423 
56 -7.11897 
57 -123.858 
58 -129.755 
59 -7.55478 
60 131.366 
61 -98.723 
62 15.9557 
63 139.359 
64 15.2227 
65 -100.945 
66 133.869 
67 17.7015 
68 -101.995 
69 -104.441 
70 139.391 
71 19.6953 
72 -161.063 
73 -39.4188 
74 77.0058 
75 -91.8952 
76 145.05 
77 24.3914 
78 -94.4179 
79 144.923 
80 28.6366 
81 20.7501 
82 -99.9088 
83 143.805 
84 -150.307 
85 91.4159 
86 -26.5011 
87 179.59 
88 61.8186 
89 -60.0275 
90 -174.304 
91 67.929 
92 -53.2524 
93 174.983 
94 53.802 
95 -67.2495 
96 -51.5507 
97 -172.732 
98 66.2163 
99 174.959 
100 -67.8938 
101 56.832 
102 160.966 
103 45.4102 
104 -80.6003 
105 -168.513 
106 76.9283 
107 -53.1452 
108 -165.757 
109 64.1696 
110 -51.1987 
111 -45.7765 
112 -175.85 
113 68.7818 
114 84.9517 
115 -166.134 
116 -31.2134 
ITEM: TIMESTEP
44500
ITEM: NUMBER OF ENTRIES
116
ITEM: BOX BOUNDS pp pp pp
-2.1659880786948438e+01 2.1659880786948438e+01
-1.1125721167720103e+01 1.1125721167720103e+01
-1.1125721167720103e+01 1.1125721167720103e+01
ITEM: ENTRIES index c_dphi
1 164.621 
2 36.2573 
3 -72.3843 
4 160.119 
5 51.477 
6 -71.5181 
7 -84.9874 
8 166.371 
9 43.376 
10 -157.25 
11 76.3537 
12 -44.3487 
13 -175.569 
14 -50.5627 
15 63.9244 
16 -149.451 
17 -144.568 
18 89.9857 
19 -28.4798 
20 -25.5434 
21 -150.99 
22 90.5446 
23 94.4613 
24 -30.9852 
25 -165.679 
26 69.9819 
27 -46.5204 
28 121.778 
29 11.6769 
30 -114.842 
31 162.853 
32 -78.496 
33 39.9717 
34 179.035 
35 46.2245 
36 -71.6661 
37 -163.308 
38 -41.7186 
39 67.2402 
40 -161.96 
41 80.0833 
42 -39.8753 
43 -164.299 
44 75.742 
45 -46.343 
46 -42.4695 
47 -162.428 
48 75.4869 
49 25.2904 
50 -89.6093 
51 155.392 
52 40.4922 
53 -80.3344 
54 164.766 
55 95.0941 
56 -21.6929 
57 -135.098 
58 -103.574 
59 24.6599 
60 157.393 
61 -77.6579 
62 36.6834 
63 156.611 
64 34.0193 
65 -86.2824 
66 154.537 
67 34.2353 
68 -82.8711 
69 -93.4372 
70 146.261 
71 29.1547 
72 -167.736 
73 -39.1739 
74 66.1077 
75 -80.1807 
76 152.117 
77 40.2787 
78 -89.5067 
79 158.655 
80 38.1959 
81 28.4184 
82 -83.4196 
83 156.121 
84 -162.627 
85 77.4671 
86 -39.6025 
87 -177.417 
88 57.0182 
89 -59.1081 
90 160.036 
91 37.9846 
92 -79.4999 
93 158.999 
94 41.5142 
95 -78.9502 
96 -81.6784 
97 160.837 
98 40.3727 
99 172.709 
100 -70.2208 
101 50.2561 
102 -151.701 
103 86.9747 
104 -27.8676 
105 -173.885 
106 64.1601 
107 -54.5757 
108 -176.031 
109 65.2337 
110 -54.0756 
111 -56.1392 
112 -174.875 
113 65.8157 
114 40.0214 
115 147.2 
116 -72.6189 
ITEM: TIMESTEP
44600
ITEM: NUMBER OF ENTRIES
116
ITEM: BOX BOUNDS pp pp pp
-2.1659880786948438e+01 2.1659880786948438e+01
-1.1125721167720103e+01 1.1125721167720103e+01
-1.1125721167720103e+01 1.1125721167720103e+01
ITEM: ENTRIES index c_dphi
1 179.942 
2 69.7372 
3 -50.315 
4 -177.718 
5 62.2296 
6 -67.5131 
7 -58.586 
8 -178.638 
9 51.619 
10 -26.548 
11 -145.444 
12 86.4163 
13 144.543 
14 -99.9568 
15 21.5616 
16 -134.211 
17 -130.426 
18 117.905 
19 -8.40753 
20 -18.8345 
21 -130.504 
22 103.184 
23 103.771 
24 -7.89848 
25 156.378 
26 30.4257 
27 -81.2081 
28 138.651 
29 18.461 
30 -97.8887 
31 -163.803 
32 -45.5808 
33 74.29 
34 155.561 
35 43.6059 
36 -86.2136 
37 177.052 
38 -64.4403 
39 58.4513 
40 -175.546 
41 75.7235 
42 -42.0513 
43 -163.201 
44 79.024 
45 -54.4713 
46 -43.5487 
47 -161.323 
48 65.1813 
49 26.711 
50 -85.8956 
51 144.624 
52 32.0176 
53 -89.211 
54 158.182 
55 119.997 
56 -4.70028 
57 -125.378 
58 -102.078 
59 10.203 
60 -136.325 
61 -16.3081 
62 110.599 
63 -177.242 
64 51.7246 
65 -63.1325 
66 177.301 
67 62.4441 
68 -51.665 
69 -66.3767 
70 178.766 
71 64.6572 
72 168.532 
73 -67.8127 
74 52.1494 
75 -173.727 
76 63.303 
77 -56.5512 
78 -173.198 
79 66.9477 
80 -50.2284 
81 -58.2967 
82 -178.151 
83 64.673 
84 -153.154 
85 78.1218 
86 -32.5824 
87 -138.924 
88 100.658 
89 -24.7635 
90 170.747 
91 52.7993 
92 -70.4113 
93 179.115 
94 55.9046 
95 -62.9374 
96 -68.2781 
97 168.511 
98 49.6693 
99 160.35 
100 -91.9093 
101 37.106 
102 -154.226 
103 81.1466 
104 -30.3138 
105 178.25 
106 57.8327 
107 -58.6983 
108 179.19 
109 62.6595 
110 -60.392 
111 -60.4424 
112 -176.973 
113 59.9752 
114 103.499 
115 -139.961 
116 -17.8381 
ITEM: TIMESTEP
44700
ITEM: NUMBER OF ENTRIES
116
ITEM: BOX BOUNDS pp pp pp
-2.1659880786948438e+01 2.1659880786948438e+01
-1.1125721167720103e+01 1.1125721167720103e+01
-1.1125721167720103e+01 1.1125721167720103e+01
ITEM: ENTRIES index c_dphi
1 175.234 
2 47.6573 
3 -77.411 
4 160.63 
5 35.5613 
6 -71.7937 
7 -75.7996 
8 159.132 
9 51.7771 
10 -99.8313 
11 140.699 
12 19.2988 
13 160.863 
14 -64.2042 
15 53.3474 
16 138.925 
17 144.515 
18 38.4078 
19 -99.7859 
20 -95.4479 
21 158.445 
22 20.2516 
23 23.2259 
24 -82.881 
25 164.527 
26 44.8608 
27 -75.5086 
28 -169.205 
29 64.7226 
30 -43.7644 
31 109.371 
32 -141.616 
33 -29.9385 
34 131.355 
35 10.7211 
36 -99.8568 
37 162.396 
38 -86.2602 
39 40.1946 
40 -103.996 
41 134.673 
42 18.085 
43 -102.178 
44 141.234 
45 19.1533 
46 14.7684 
47 -101.819 
48 136.1 
49 39.2914 
50 -80.4286 
51 163.819 
52 44.0986 
53 -93.2899 
54 146.99 
55 178.023 
56 56.3589 
57 -66.4162 
58 -83.6461 
59 35.6905 
60 -166.033 
61 -50.2796 
62 71.9797 
63 169.042 
64 54.3207 
65 -62.2683 
66 177.444 
67 60.8547 
68 -67.835 
69 -61.2058 
70 -177.795 
71 53.5155 
72 -168.477 
73 -46.8528 
74 73.9496 
75 -173.178 
76 69.2644 
77 -53.6249 
78 -161.695 
79 75.4155 
80 -44.1381 
81 -45.6342 
82 -168.524 
83 71.9229 
84 -172.855 
85 64.2707 
86 -52.5519 
87 -158.551 
88 85.1953 
89 -37.5317 
90 150.487 
91 36.7444 
92 -88.5381 
93 147.412 
94 22.1293 
95 -98.8455 
96 -85.8065 
97 148.911 
98 27.9362 
99 164.023 
100 -86.0017 
101 45.6795 
102 -169.85 
103 74.9378 
104 -39.882 
105 176.547 
106 54.097 
107 -57.6536 
108 171.293 
109 59.5425 
110 -66.2564 
111 -70.9811 
112 177.268 
113 51.4693 
114 -162.619 
115 -38.2981 
116 74.5864 
ITEM: TIMESTEP
44800
ITEM: NUMBER OF ENTRIES
116
ITEM: BOX BOUNDS pp pp pp
-2.1659880786948438e+01 2.1659880786948438e+01
-1.1125721167720103e+01 1.1125721167720103e+01
-1.1125721167720103e+01 1.1125721167720103e+01
ITEM: ENTRIES index c_dphi
1 164.152 
2 27.4378 
3 -83.1358 
4 139.805 
5 29.2317 
6 -83.4802 
7 -100.099 
8 149.327 
9 36.615 
10 -95.9029 
11 148.975 
12 22.8529 
13 139.87 
14 -86.0513 
15 21.0871 
16 143.487 
17 139.927 
18 21.3399 
19 -95.0051 
20 -100.388 
21 141.025 
22 24.6798 
23 18.4184 
24 -100.168 
25 153.72 
26 34.2472 
27 -92.1603 
28 174.726 
29 48.792 
30 -69.8585 
31 144.239 
32 -88.5041 
33 29.1685 
34 156.986 
35 42.0175 
36 -83.4902 
37 -174.814 
38 -48.1867 
39 61.4071 
40 -155.558 
41 76.6124 
42 -35.798 
43 -154.856 
44 92.7331 
45 -27.0272 
46 -37.5567 
47 -149.967 
48 90.2726 
49 51.1646 
50 -79.5171 
51 170.037 
52 39.3549 
53 -74.2688 
54 155.049 
55 -161.868 
56 76.015 
57 -43.6644 
58 -57.2952 
59 62.4768 
60 164.39 
61 -84.2787 
62 35.2461 
63 165.544 
64 46.8272 
65 -65.0484 
66 169.664 
67 57.7888 
68 -71.619 
69 -75.3425 
70 172.782 
71 43.374 
72 -158.803 
73 -41.1525 
74 74.7517 
75 -175.235 
76 70.7417 
77 -49.4206 
78 -166.656 
79 73.1818 
80 -52.6328 
81 -40.086 
82 -160.248 
83 73.9371 
84 162.128 
85 38.0057 
86 -86.2168 
87 -171.035 
88 72.2809 
89 -54.0961 
90 170.665 
91 52.8505 
92 -65.1881 
93 167.401 
94 49.3627 
95 -74.7844 
96 -76.7904 
97 165.171 
98 41.0239 
99 -176.41 
100 -55.6009 
101 58.8772 
102 158.061 
103 39.212 
104 -83.2228 
105 165.625 
106 41.509 
107 -71.9907 
108 159.089 
109 45.5897 
110 -76.7945 
111 -83.9938 
112 162.507 
113 40.1224 
114 -174.388 
115 -52.2781 
116 68.4497 
ITEM: TIMESTEP
44900
ITEM: NUMBER OF ENTRIES
116
ITEM: BOX BOUNDS pp pp pp
-2.1659880786948438e+01 2.1659880786948438e+01
-1.1125721167720103e+01 1.1125721167720103e+01
-1.1125721167720103e+01 1.1125721167720103e+01
ITEM: ENTRIES index c_dphi
1 179.824 
2 64.8584 
3 -53.3465 
4 178.722 
5 60.5175 
6 -66.3116 
7 -64.217 
8 177.578 
9 50.749 
10 -97.3518 
11 146.168 
12 23.4481 
13 112.395 
14 -133.62 
15 -22.7069 
16 171.335 
17 158.806 
18 43.6858 
19 -68.1012 
20 -79.7879 
21 165.092 
22 53.3049 
23 38.2419 
24 -76.8782 
25 143.025 
26 17.939 
27 -99.1405 
28 177.334 
29 58.6602 
30 -60.0762 
31 -166.352 
32 -33.7443 
33 84.6156 
34 -178.17 
35 67.1384 
36 -56.2852 
37 167.173 
38 -71.9877 
39 47.8057 
40 -177.529 
41 64.3705 
42 -54.2376 
43 -172.725 
44 68.6671 
45 -54.624 
46 -56.6727 
47 -175.281 
48 61.4281 
49 88.0277 
50 -28.8522 
51 -154.483 
52 88.6375 
53 -33.6208 
54 -150.501 
55 167.767 
56 42.5126 
57 -72.9296 
58 -55.9402 
59 61.1771 
60 147.727 
61 -92.5955 
62 27.4287 
63 158.866 
64 44.157 
65 -74.9742 
66 171.43 
67 52.2993 
68 -73.8608 
69 -65.2709 
70 175.598 
71 49.4378 
72 -170.186 
73 -48.3979 
74 69.6513 
75 -143.395 
76 97.0926 
77 -17.143 
78 -152.053 
79 93.711 
80 -32.5406 
81 -28.9098 
82 -143.145 
83 90.603 
84 169.237 
85 53.0561 
86 -66.5542 
87 172.002 
88 53.898 
89 -68.6522 
90 147.47 
91 31.1734 
92 -93.6024 
93 157.152 
94 32.3765 
95 -86.551 
96 -88.9801 
97 146.244 
98 27.3167 
99 173.907 
100 -65.1286 
101 51.6633 
102 -153.925 
103 81.13 
104 -42.3266 
105 -167.112 
106 73.2399 
107 -45.1437 
108 -162.284 
109 79.3326 
110 -42.6361 
111 -48.0785 
112 -166.462 
113 71.5693 
114 148.257 
115 -86.3977 
116 24.7646 
ITEM: TIMESTEP
45000
ITEM: NUMBER OF ENTRIES
116
ITEM: BOX BOUNDS pp pp pp
-2.1659880786948438e+01 2.1659880786948438e+01
-1.1125721167720103e+01 1.1125721167720103e+01
-1.1125721167720103e+01 1.1125721167720103e+01
ITEM: ENTRIES index c_dphi
1 161.566 
2 29.8214 
3 -91.1322 
4 144.433 
5 23.4798 
6 -83.8223 
7 -106.039 
8 133.008 
9 25.7057 
10 -104.65 
11 135.525 
12 22.0153 
13 155.119 
14 -74.2959 
15 38.4896 
16 176.025 
17 174.01 
18 56.1134 
19 -63.8729 
20 -64.748 
21 177.356 
22 57.3693 
23 53.908 
24 -63.9883 
25 179.976 
26 59.2795 
27 -62.7056 
28 174.478 
29 64.9469 
30 -63.3636 
31 156.558 
32 -90.2694 
33 32.6654 
34 177.292 
35 48.5455 
36 -60.649 
37 -165.632 
38 -48.9914 
39 74.5123 
40 -135.478 
41 105.395 
42 -18.6239 
43 -139.906 
44 96.0755 
45 -20.7782 
46 -21.7867 
47 -145.806 
48 97.3407 
49 56.684 
50 -56.0897 
51 -174.464 
52 72.7625 
53 -61.2919 
54 -174.066 
55 169.365 
56 34.9619 
57 -76.7888 
58 -59.5904 
59 71.3216 
60 -178.317 
61 -57.0649 
62 60.8952 
63 164.167 
64 45.7963 
65 -77.1497 
66 174.198 
67 51.2523 
68 -67.4313 
69 -61.1357 
70 175.918 
71 57.2347 
72 148.036 
73 -86.3859 
74 38.5998 
75 168.544 
76 42.4142 
77 -72.5094 
78 166.708 
79 51.7847 
80 -67.1616 
81 -81.6273 
82 163.449 
83 44.5028 
84 171.446 
85 50.2061 
86 -60.5518 
87 179.988 
88 56.152 
89 -61.7181 
90 175.417 
91 57.7631 
92 -71.7044 
93 -178.968 
94 51.5647 
95 -61.3144 
96 -58.9165 
97 171.616 
98 58.7369 
99 171.879 
100 -70.4902 
101 58.1872 
102 -161.63 
103 85.9432 
104 -44.4941 
105 167.697 
106 46.7986 
107 -68.2343 
108 164.923 
109 49.89 
110 -74.1782 
111 -74.0684 
112 170.899 
113 46.8305 
114 166.376 
115 -66.4003 
116 43.6221 
ITEM: TIMESTEP
45100
ITEM: NUMBER OF ENTRIES
116
ITEM: BOX BOUNDS pp pp pp
-2.1659880786948438e+01 2.1659880786948438e+01
-1.1125721167720103e+01 1.1125721167720103e+01
-1.1125721167720103e+01 1.1125721167720103e+01
ITEM: ENTRIES index c_dphi
1 -171.926 
2 62.4398 
3 -57.4532 
4 -179.031 
5 61.076 
6 -53.3963 
7 -63.2447 
8 176.862 
9 62.3899 
10 -143.274 
11 96.719 
12 -31.3378 
13 -142.817 
14 -18.6884 
15 95.057 
16 158.723 
17 157.987 
18 39.2105 
19 -79.1448 
20 -80.4384 
21 160.785 
22 42.4294 
23 35.8555 
24 -82.9214 
25 168.216 
26 49.7439 
27 -79.103 
28 -175.695 
29 73.0815 
30 -60.9651 
31 -168.815 
32 -47.5054 
33 72.4257 
34 168.377 
35 43.9523 
36 -79.7485 
37 151.511 
38 -90.5319 
39 32.3599 
40 177.253 
41 55.3351 
42 -63.3054 
43 174.075 
44 55.4345 
45 -64.0076 
46 -67.6284 
47 173.731 
48 54.2891 
49 59.1252 
50 -61.1416 
51 -176.575 
52 63.158 
53 -47.9129 
54 -168.18 
55 -175.797 
56 63.4258 
57 -52.1576 
58 -37.5446 
59 81.6411 
60 -167.995 
61 -52.0392 
62 59.8246 
63 165.083 
64 52.1999 
65 -67.3006 
66 172.862 
67 53.3614 
68 -74.2551 
69 -70.0833 
70 170.416 
71 42.7997 
72 170.586 
73 -65.0347 
74 50.2168 
75 156.438 
76 33.9137 
77 -83.5502 
78 161.089 
79 43.6255 
80 -76.386 
81 -90.4482 
82 152.088 
83 32.0764 
84 154.181 
85 36.4308 
86 -91.7393 
87 179.058 
88 61.9593 
89 -69.4389 
90 159.955 
91 40.2084 
92 -87.2752 
93 163.953 
94 36.4695 
95 -76.3 
96 -82.4601 
97 150.056 
98 37.2868 
99 151.808 
100 -83.9917 
101 36.3521 
102 165.009 
103 47.0929 
104 -81.0868 
105 174.83 
106 53.899 
107 -59.2922 
108 178.279 
109 65.0877 
110 -60.7899 
111 -58.7864 
112 -171.978 
113 62.1446 
114 -144.697 
115 -25.6659 
116 97.7078 
ITEM: TIMESTEP
45200
ITEM: NUMBER OF ENTRIES
116
ITEM: BOX BOUNDS pp pp pp
-2.1659880786948438e+01 2.1659880786948438e+01
-1.1125721167720103e+01 1.1125721167720103e+01
-1.1125721167720103e+01 1.1125721167720103e+01
ITEM: ENTRIES index c_dphi
1 -176.183 
2 63.3387 
3 -45.41 
4 177.15 
5 68.4017 
6 -62.3718 
7 -61.6374 
8 -170.386 
9 58.8404 
10 -177.072 
11 60.3642 
12 -59.482 
13 -137.086 
14 -17.5337 
15 101.814 
16 177.329 
17 177.851 
18 56.3509 
19 -62.233 
20 -56.2823 
21 -177.782 
22 63.6338 
23 57.4134 
24 -64.0866 
25 -172.703 
26 63.8775 
27 -60.3413 
28 172.906 
29 46.9345 
30 -75.352 
31 167.867 
32 -72.2995 
33 55.7023 
34 158.068 
35 36.0579 
36 -83.5806 
37 162.585 
38 -83.7268 
39 41.0029 
40 -173.595 
41 67.7744 
42 -43.8567 
43 -164.59 
44 83.7791 
45 -45.9596 
46 -48.6875 
47 -160.319 
48 69.9428 
49 54.3054 
50 -63.7313 
51 173.952 
52 55.9155 
53 -64.6581 
54 177.305 
55 -173.632 
56 58.5939 
57 -51.6873 
58 -46.0004 
59 87.2389 
60 166.007 
61 -71.7505 
62 44.6672 
63 177.931 
64 54.9341 
65 -59.5047 
66 -179.84 
67 65.7216 
68 -56.8422 
69 -65.7879 
70 179.773 
71 57.2094 
72 168.161 
73 -83.0413 
74 39.005 
75 167.646 
76 61.3399 
77 -62.6388 
78 -170.761 
79 65.2608 
80 -64.4546 
81 -58.7444 
82 177.277 
83 47.5615 
84 147.38 
85 31.9435 
86 -97.9118 
87 153.012 
88 38.6626 
89 -80.0195 
90 131.942 
91 14.8963 
92 -114.85 
93 128.948 
94 -0.797926 
95 -114.006 
96 -111.62 
97 118.634 
98 5.42535 
99 159.765 
100 -78.0564 
101 47.1355 
102 -166.183 
103 72.7989 
104 -42.1985 
105 -174.003 
106 67.4182 
107 -49.0927 
108 -165.913 
109 77.576 
110 -47.3344 
111 -54.6057 
112 -171.116 
113 63.9731 
114 170.931 
115 -65.9177 
116 50.7463 
ITEM: TIMESTEP
45300
ITEM: NUMBER OF ENTRIES
116
ITEM: BOX BOUNDS pp pp pp
-2.1659880786948438e+01 2.1659880786948438e+01
-1.1125721167720103e+01 1.1125721167720103e+01
-1.1125721167720103e+01 1.1125721167720103e+01
ITEM: ENTRIES index c_dphi
1 -173.405 
2 59.0688 
3 -58.406 
4 176.869 
5 59.3942 
6 -55.6047 
7 -55.1772 
8 -172.652 
9 72.3492 
10 -174.389 
11 64.5011 
12 -55.7404 
13 -143.386 
14 -14.3711 
15 104.637 
16 164.139 
17 174.342 
18 50.399 
19 -74.345 
20 -65.5603 
21 170.497 
22 45.7528 
23 52.8257 
24 -71.1171 
25 -176.621 
26 61.6824 
27 -61.2974 
28 178.122 
29 50.7698 
30 -64.8761 
31 135.934 
32 -117.229 
33 2.32869 
34 169.544 
35 44.1493 
36 -67.6593 
37 161.552 
38 -83.4895 
39 42.8352 
40 -151.131 
41 90.421 
42 -28.8599 
43 -141.588 
44 99.1309 
45 -23.1407 
46 -31.4794 
47 -150.76 
48 86.9682 
49 90.0004 
50 -30.4365 
51 -150.21 
52 89.3536 
53 -33.5687 
54 -154.006 
55 140.538 
56 21.3027 
57 -95.2978 
58 -60.482 
59 66.6387 
60 -171.116 
61 -53.6824 
62 69.293 
63 179.969 
64 60.1508 
65 -56.6251 
66 176.189 
67 59.4131 
68 -63.9929 
69 -57.9129 
70 -174.689 
71 61.9053 
72 147.385 
73 -91.9991 
74 28.63 
75 173.951 
76 58.5479 
77 -64.4227 
78 -175.009 
79 62.02 
80 -59.6067 
81 -61.404 
82 175.625 
83 53.9986 
84 164.989 
85 38.3443 
86 -75.7176 
87 137.718 
88 19.8313 
89 -100.847 
90 164.72 
91 53.5523 
92 -74.6939 
93 176.992 
94 48.746 
95 -71.8398 
96 -68.675 
97 163.079 
98 42.4929 
99 -166.411 
100 -53.3451 
101 69.9407 
102 -177.097 
103 58.5103 
104 -55.0279 
105 172.941 
106 48.6037 
107 -56.8435 
108 169.636 
109 64.189 
110 -66.0263 
111 -72.6008 
112 -178.048 
113 51.7367 
114 172.503 
115 -62.5531 
116 50.3828 
ITEM: TIMESTEP
45400
ITEM: NUMBER OF ENTRIES
116
ITEM: BOX BOUNDS pp pp pp
-2.1659880786948438e+01 2.1659880786948438e+01
-1.1125721167720103e+01 1.1125721167720103e+01
-1.1125721167720103e+01 1.1125721167720103e+01
ITEM: ENTRIES index c_dphi
1 169.788 
2 48.0382 
3 -76.4896 
4 173.162 
5 48.6341 
6 -65.0882 
7 -74.2511 
8 161.221 
9 47.4989 
10 -163.6 
11 77.5329 
12 -42.3313 
13 160.852 
14 -81.97 
15 43.7788 
16 -164.686 
17 -166.803 
18 75.7355 
19 -49.0637 
20 -42.7922 
21 -160.254 
22 74.947 
23 77.5753 
24 -39.8864 
25 -170.296 
26 73.4096 
27 -47.3791 
28 -175.473 
29 67.5168 
30 -53.1752 
31 150.08 
32 -91.7662 
33 28.5371 
34 -177.716 
35 61.5556 
36 -65.917 
37 170.423 
38 -65.2325 
39 50.871 
40 -152.693 
41 82.4245 
42 -31.3898 
43 -157.149 
44 89.0371 
45 -32.2659 
46 -43.493 
47 -157.307 
48 81.3897 
49 66.5326 
50 -64.263 
51 -167.045 
52 62.1599 
53 -48.6813 
54 -179.477 
55 163.715 
56 40.5355 
57 -74.6943 
58 -60.5114 
59 57.2343 
60 176.055 
61 -63.7094 
62 55.0822 
63 151.975 
64 32.6406 
65 -85.977 
66 151.953 
67 33.3355 
68 -88.7123 
69 -86.2249 
70 155.157 
71 33.1097 
72 -176.051 
73 -46.0472 
74 67.6287 
75 176.53 
76 52.53 
77 -64.3282 
78 176.508 
79 59.6501 
80 -59.4921 
81 -61.8204 
82 -178.679 
83 62.1791 
84 -179.43 
85 55.4725 
86 -57.5911 
87 178.661 
88 46.429 
89 -64.7033 
90 145.473 
91 25.3145 
92 -88.5778 
93 155.045 
94 41.1531 
95 -84.7956 
96 -91.6428 
97 154.465 
98 28.5162 
99 165.359 
100 -75.4417 
101 35.9043 
102 -172.261 
103 65.19 
104 -54.2483 
105 -171.861 
106 73.0721 
107 -47.1707 
108 -171.582 
109 68.1753 
110 -56.5149 
111 -46.9397 
112 -167.182 
113 68.1273 
114 26.6309 
115 139.886 
116 -90.0492 
ITEM: TIMESTEP
45500
ITEM: NUMBER OF ENTRIES
116
ITEM: BOX BOUNDS pp pp pp
-2.1659880786948438e+01 2.1659880786948438e+01
-1.1125721167720103e+01 1.1125721167720103e+01
-1.1125721167720103e+01 1.1125721167720103e+01
ITEM: ENTRIES index c_dphi
1 -170.865 
2 74.3513 
3 -38.5191 
4 -161.696 
5 85.4337 
6 -46.9118 
7 -54.4196 
8 -167.29 
9 60.3645 
10 -28.7987 
11 -147.874 
12 98.2261 
13 171.058 
14 -82.2358 
15 35.6115 
16 -170.834 
17 176.24 
18 69.9921 
19 -52.3378 
20 -63.7839 
21 -170.032 
22 67.6385 
23 57.7437 
24 -48.504 
25 163.6 
26 44.3857 
27 -69.6775 
28 -175.311 
29 69.2579 
30 -49.0911 
31 -176.021 
32 -46.1689 
33 66.6419 
34 -165.834 
35 68.2658 
36 -42.8021 
37 -171.736 
38 -47.7321 
39 69.8011 
40 -174.703 
41 55.0657 
42 -52.5781 
43 169.661 
44 62.0174 
45 -60.1075 
46 -68.8153 
47 -176.459 
48 61.416 
49 28.3251 
50 -91.0553 
51 160.4 
52 41.0196 
53 -90.743 
54 149.877 
55 -152.496 
56 87.7311 
57 -30.8887 
58 -57.925 
59 62.5583 
60 160.881 
61 -77.2005 
62 45.0492 
63 145.289 
64 20.8448 
65 -97.9148 
66 144.397 
67 25.6376 
68 -91.159 
69 -94.8148 
70 146.426 
71 29.6291 
72 156.879 
73 -78.2996 
74 38.6113 
75 151.214 
76 32.7688 
77 -90.5746 
78 154.143 
79 30.7997 
80 -87.4117 
81 -86.4939 
82 150.163 
83 31.9513 
84 171.544 
85 51.166 
86 -62.1566 
87 -156.606 
88 77.7187 
89 -39.3739 
90 -150.908 
91 90.7887 
92 -30.7327 
93 -153.881 
94 84.5972 
95 -35.5785 
96 -27.9569 
97 -149.478 
98 90.346 
99 179.929 
100 -62.3583 
101 51.7852 
102 156.698 
103 29.4994 
104 -87.7111 
105 168.036 
106 59.4216 
107 -66.348 
108 -177.595 
109 56.6357 
110 -68.9805 
111 -54.3255 
112 179.905 
113 54.2888 
114 88.8657 
115 -159.661 
116 -40.8033 
ITEM: TIMESTEP
45600
ITEM: NUMBER OF ENTRIES
116
ITEM: BOX BOUNDS pp pp pp
-2.1659880786948438e+01 2.1659880786948438e+01
-1.1125721167720103e+01 1.1125721167720103e+01
-1.1125721167720103e+01 1.1125721167720103e+01
ITEM: ENTRIES index c_dphi
1 156.835 
2 33.126 
3 -81.7076 
4 154.865 
5 40.0313 
6 -81.4258 
7 -80.5574 
8 164.609 
9 43.152 
10 -39.1218 
11 -151.603 
12 83.4677 
13 -163.609 
14 -45.9126 
15 73.1421 
16 165.356 
17 159.083 
18 41.7714 
19 -77.1608 
20 -85.6652 
21 157.024 
22 38.0914 
23 41.5992 
24 -75.7119 
25 179.472 
26 64.6621 
27 -47.4593 
28 174.708 
29 58.4874 
30 -65.2098 
31 -179.153 
32 -58.0822 
33 57.5779 
34 -165.643 
35 69.9283 
36 -47.1348 
37 -160.635 
38 -41.3069 
39 84.8462 
40 179.289 
41 55.8578 
42 -59.7965 
43 168.7 
44 53.0454 
45 -67.8688 
46 -60.9824 
47 -176.637 
48 62.4492 
49 73.6345 
50 -40.1866 
51 -160.872 
52 85.3075 
53 -50.3817 
54 -164.203 
55 157.444 
56 39.0242 
57 -81.0921 
58 -56.2945 
59 59.9855 
60 -176.01 
61 -58.0053 
62 61.0507 
63 170.564 
64 54.7105 
65 -67.5423 
66 171.419 
67 49.1661 
68 -72.7271 
69 -73.7664 
70 163.981 
71 42.0875 
72 131.418 
73 -107.853 
74 7.85121 
75 146.707 
76 33.1162 
77 -92.6848 
78 158.721 
79 32.9203 
80 -87.6878 
81 -94.5398 
82 139.659 
83 19.0511 
84 153.601 
85 29.8846 
86 -82.3501 
87 172.757 
88 57.3568 
89 -55.0732 
90 -163.342 
91 74.013 
92 -44.6201 
93 -174.937 
94 66.43 
95 -52.2915 
96 -57.5368 
97 -176.17 
98 65.1086 
99 -157.963 
100 -34.2916 
101 83.0334 
102 -176.119 
103 67.4147 
104 -46.3274 
105 -170.756 
106 78.1913 
107 -32.9175 
108 -160.875 
109 88.0157 
110 -49.8225 
111 -49.788 
112 -160.897 
113 61.265 
114 -31.2421 
115 78.7214 
116 -169.777 
ITEM: TIMESTEP
45700
ITEM: NUMBER OF ENTRIES
116
ITEM: BOX BOUNDS pp pp pp
-2.1659880786948438e+01 2.1659880786948438e+01
-1.1125721167720103e+01 1.1125721167720103e+01
-1.1125721167720103e+01 1.1125721167720103e+01
ITEM: ENTRIES index c_dphi
1 -171.916 
2 67.4293 
3 -53.5251 
4 -169.83 
5 69.2155 
6 -49.1753 
7 -47.1578 
8 -168.112 
9 73.497 
10 -39.0319 
11 -150.077 
12 82.8752 
13 -172.034 
14 -48.1628 
15 76.0011 
16 177.754 
17 -174.757 
18 64.4015 
19 -61.7437 
20 -58.3023 
21 -179.143 
22 54.7115 
23 64.74 
24 -56.101 
25 175.7 
26 53.8975 
27 -58.8678 
28 166.244 
29 45.4504 
30 -75.6726 
31 -168.445 
32 -45.7301 
33 66.0994 
34 174.655 
35 63.6136 
36 -66.5179 
37 -172.027 
38 -49.9437 
39 61.7212 
40 172.98 
41 52.7383 
42 -58.6105 
43 175.483 
44 64.1341 
45 -64.2754 
46 -63.8519 
47 -175.201 
48 56.3898 
49 67.729 
50 -50.8487 
51 -178.717 
52 62.7057 
53 -58.3583 
54 -176.936 
55 171.813 
56 51.9457 
57 -74.3891 
58 -52.1324 
59 61.9298 
60 149.504 
61 -78.4122 
62 35.8287 
63 -170.82 
64 62.4317 
65 -56.364 
66 -171.716 
67 69.488 
68 -44.9682 
69 -48.9996 
70 -167.795 
71 77.7485 
72 174.373 
73 -55.3874 
74 63.3173 
75 166.177 
76 41.9164 
77 -81.3015 
78 167.435 
79 44.2167 
80 -68.3044 
81 -73.6185 
82 163.164 
83 50.6425 
84 141.218 
85 16.9102 
86 -104.844 
87 163.225 
88 48.6176 
89 -67.0384 
90 151.521 
91 22.2277 
92 -89.2049 
93 137.458 
94 26.0252 
95 -93.249 
96 -109.439 
97 139.128 
98 19.8537 
99 -173.187 
100 -42.4806 
101 73.6219 
102 -170.551 
103 71.5623 
104 -46.6499 
105 170.807 
106 50.2049 
107 -65.8963 
108 174.228 
109 58.1265 
110 -65.17 
111 -68.3655 
112 175.533 
113 52.2368 
114 39.1434 
115 147.847 
116 -82.1613 
ITEM: TIMESTEP
45800
ITEM: NUMBER OF ENTRIES
116
ITEM: BOX BOUNDS pp pp pp
-2.1659880786948438e+01 2.1659880786948438e+01
-1.1125721167720103e+01 1.1125721167720103e+01
-1.1125721167720103e+01 1.1125721167720103e+01
ITEM: ENTRIES index c_dphi
1 171.755 
2 64.0239 
3 -62.932 
4 -178.487 
5 54.5571 
6 -70.7554 
7 -69.1747 
8 163.869 
9 38.5568 
10 67.1354 
11 -37.5258 
12 -157.933 
13 150.513 
14 -90.6535 
15 34.618 
16 -156.861 
17 -153.259 
18 98.2793 
19 -38.0326 
20 -33.7184 
21 -142.181 
22 81.5075 
23 87.9136 
24 -20.5486 
25 -162.586 
26 73.2554 
27 -36.323 
28 -169.157 
29 61.1969 
30 -54.4557 
31 -160.549 
32 -43.6003 
33 65.5099 
34 173.686 
35 60.0573 
36 -58.1356 
37 146.291 
38 -95.2974 
39 17.8454 
40 158.57 
41 37.2491 
42 -73.7031 
43 170.249 
44 59.2968 
45 -68.4305 
46 -78.4088 
47 170.639 
48 42.9117 
49 56.8398 
50 -56.4512 
51 175.75 
52 62.4586 
53 -70.6667 
54 176.042 
55 -174.785 
56 71.0616 
57 -50.5315 
58 -45.9671 
59 73.0023 
60 148.593 
61 -99.4486 
62 22.703 
63 158.314 
64 45.0003 
65 -77.4222 
66 156.132 
67 33.7093 
68 -90.5541 
69 -80.3756 
70 157.202 
71 32.9385 
72 -174.449 
73 -40.7156 
74 70.8992 
75 -168.792 
76 61.1133 
77 -52.2392 
78 173.238 
79 59.8853 
80 -56.6673 
81 -58.9078 
82 -172.26 
83 71.1871 
84 161.268 
85 44.5869 
86 -71.1641 
87 164.885 
88 45.8647 
89 -71.667 
90 141.562 
91 12.8934 
92 -100.359 
93 135.086 
94 21.8339 
95 -96.245 
96 -109.197 
97 137.551 
98 19.4721 
99 143.076 
100 -85.729 
101 32.873 
102 168.698 
103 43.7926 
104 -76.5497 
105 -161.437 
106 75.5844 
107 -47.7791 
108 -159.902 
109 76.7348 
110 -36.9225 
111 -35.115 
112 -158.479 
113 87.864 
114 80.4751 
115 -161.596 
116 -36.6824 
ITEM: TIMESTEP
45900
ITEM: NUMBER OF ENTRIES
116
ITEM: BOX BOUNDS pp pp pp
-2.1659880786948438e+01 2.1659880786948438e+01
-1.1125721167720103e+01 1.1125721167720103e+01
-1.1125721167720103e+01 1.1125721167720103e+01
ITEM: ENTRIES index c_dphi
1 -174.583 
2 71.7463 
3 -39.4419 
4 -170.865 
5 77.9469 
6 -57.1946 
7 -56.0077 
8 -167.196 
9 57.6626 
10 -99.7089 
11 146.602 
12 36.2172 
13 131.044 
14 -113.373 
15 0.522436 
16 -128.756 
17 -118.6 
18 123.932 
19 -8.56975 
20 1.24035 
21 -116.228 
22 111.27 
23 121.214 
24 3.74591 
25 -159.731 
26 80.4916 
27 -36.9231 
28 165.595 
29 38.7262 
30 -75.4309 
31 178.305 
32 -67.2085 
33 38.9686 
34 172.055 
35 50.0821 
36 -73.1395 
37 166.773 
38 -73.7864 
39 48.5823 
40 -174.454 
41 65.1403 
42 -55.9813 
43 -166.109 
44 72.7691 
45 -45.7039 
46 -54.7635 
47 -175.885 
48 65.6419 
49 41.3895 
50 -80.178 
51 165.567 
52 43.9999 
53 -78.3068 
54 160.126 
55 167.845 
56 50.6137 
57 -73.2242 
58 -55.0944 
59 71.2283 
60 -146.363 
61 -25.1197 
62 103.145 
63 163.28 
64 36.6682 
65 -83.4615 
66 159.872 
67 39.7419 
68 -73.5169 
69 -78.289 
70 161.581 
71 48.3225 
72 162.664 
73 -75.8267 
74 47.0699 
75 173.132 
76 50.1654 
77 -66.7569 
78 166.676 
79 49.7535 
80 -70.3576 
81 -73.27 
82 169.808 
83 49.6967 
84 -169.333 
85 67.8857 
86 -40.3086 
87 155.662 
88 31.624 
89 -83.847 
90 158.011 
91 32.064 
92 -81.692 
93 161.765 
94 48.0091 
95 -72.288 
96 -79.9224 
97 166.321 
98 46.0243 
99 161.84 
100 -74.8271 
101 46.2726 
102 164.298 
103 46.4472 
104 -73.7526 
105 169.914 
106 47.8969 
107 -70.5497 
108 162.426 
109 43.9795 
110 -75.5566 
111 -82.6163 
112 158.937 
113 39.4009 
114 81.793 
115 -152.035 
116 -41.0336 
ITEM: TIMESTEP
46000
ITEM: NUMBER OF ENTRIES
116
ITEM: BOX BOUNDS pp pp pp
-2.1659880786948438e+01 2.1659880786948438e+01
-1.1125721167720103e+01 1.1125721167720103e+01
-1.1125721167720103e+01 1.1125721167720103e+01
ITEM: ENTRIES index c_dphi
1 162.424 
2 33.726 
3 -72.5827 
4 157.761 
5 51.4519 
6 -73.5409 
7 -84.2118 
8 169.479 
9 44.4866 
10 63.4356 
11 -53.2006 
12 -166.729 
13 179.66 
14 -54.5087 
15 52.2951 
16 -143.022 
17 -139.47 
18 99.6325 
19 -19.9 
20 -21.7121 
21 -142.61 
22 97.8577 
23 97.4081 
24 -23.4895 
25 -163.932 
26 69.711 
27 -44.4408 
28 151.975 
29 39.5338 
30 -89.4738 
31 -170.101 
32 -49.2013 
33 68.6022 
34 163.028 
35 43.1316 
36 -82.9756 
37 158.509 
38 -79.1843 
39 40.5947 
40 179.478 
41 58.2096 
42 -57.385 
43 176.677 
44 61.0821 
45 -62.0547 
46 -63.6383 
47 -179.233 
48 57.6303 
49 42.5622 
50 -69.1242 
51 166.744 
52 55.0574 
53 -68.9334 
54 179.38 
55 171.716 
56 50.9868 
57 -71.405 
58 -71.4017 
59 45.3262 
60 -134.369 
61 -10.0131 
62 108.559 
63 -168.922 
64 63.8368 
65 -49.7116 
66 -177.872 
67 68.5793 
68 -50.6307 
69 -64.6176 
70 -178.166 
71 62.624 
72 -155.037 
73 -38.3966 
74 83.3957 
75 163.873 
76 44.8021 
77 -82.1416 
78 167.796 
79 40.8525 
80 -73.1328 
81 -72.0989 
82 160.957 
83 46.9721 
84 173.145 
85 52.1795 
86 -69.8647 
87 165.491 
88 39.2265 
89 -84.2256 
90 154.727 
91 32.9597 
92 -83.0795 
93 161.449 
94 45.41 
95 -76.7832 
96 -74.5467 
97 169.414 
98 47.2209 
99 174.805 
100 -63.0501 
101 55.7327 
102 174.492 
103 54.2819 
104 -67.7232 
105 -174.379 
106 57.6371 
107 -57.7069 
108 179.215 
109 63.8706 
110 -52.8018 
111 -68.5165 
112 176.139 
113 59.4669 
114 -83.7506 
115 36.9307 
116 161.857 
ITEM: TIMESTEP
46100
ITEM: NUMBER OF ENTRIES
116
ITEM: BOX BOUNDS pp pp pp
-2.1659880786948438e+01 2.1659880786948438e+01
-1.1125721167720103e+01 1.1125721167720103e+01
-1.1125721167720103e+01 1.1125721167720103e+01
ITEM: ENTRIES index c_dphi
1 -159.894 
2 87.2244 
3 -37.8108 
4 -155.291 
5 79.6738 
6 -42.4092 
7 -29.7785 
8 -154.814 
9 83.1032 
10 -14.1349 
11 -132.176 
12 110.713 
13 -158.976 
14 -48.1875 
15 75.3169 
16 -130.276 
17 -136.28 
18 108.82 
19 -4.04945 
20 -22.5247 
21 -137.424 
22 109.706 
23 97.4929 
24 -17.4065 
25 -142.971 
26 84.9996 
27 -22.8053 
28 145.956 
29 31.9625 
30 -93.7293 
31 -179.498 
32 -47.1922 
33 69.6908 
34 161.83 
35 43.278 
36 -75.757 
37 157.299 
38 -88.6752 
39 28.6882 
40 154.216 
41 37.0703 
42 -77.6073 
43 154.131 
44 39.4536 
45 -88.7235 
46 -82.6636 
47 162.659 
48 34.4817 
49 19.7779 
50 -88.3919 
51 136.717 
52 28.5477 
53 -97.4473 
54 154.383 
55 -155.494 
56 83.8873 
57 -35.1871 
58 -57.5808 
59 61.4662 
60 -168.607 
61 -39.8337 
62 73.3722 
63 175.752 
64 49.4996 
65 -66.2402 
66 177.345 
67 61.6054 
68 -56.4019 
69 -71.9346 
70 172.326 
71 54.3182 
72 -164.445 
73 -51.9277 
74 65.7605 
75 -175.437 
76 71.5816 
77 -52.7405 
78 -161.608 
79 74.0699 
80 -48.6267 
81 -47.5646 
82 -171.887 
83 65.4168 
84 -154.113 
85 83.9043 
86 -40.4636 
87 175.54 
88 61.8051 
89 -66.4711 
90 151.013 
91 28.2434 
92 -89.0221 
93 141.9 
94 24.6341 
95 -95.3306 
96 -89.6451 
97 153.089 
98 33.1246 
99 177.719 
100 -60.2031 
101 64.5502 
102 -158.76 
103 85.0941 
104 -37.7168 
105 -173.692 
106 63.9413 
107 -59.56 
108 -177.594 
109 58.9044 
110 -55.228 
111 -53.7254 
112 -177.227 
113 68.6409 
114 -58.6898 
115 57.4013 
116 -172.36 
ITEM: TIMESTEP
46200
ITEM: NUMBER OF ENTRIES
116
ITEM: BOX BOUNDS pp pp pp
-2.1659880786948438e+01 2.1659880786948438e+01
-1.1125721167720103e+01 1.1125721167720103e+01
-1.1125721167720103e+01 1.1125721167720103e+01
ITEM: ENTRIES index c_dphi
1 -179.301 
2 69.4037 
3 -54.2528 
4 -170.882 
5 65.4615 
6 -59.5867 
7 -49.6739 
8 -173.33 
9 61.6214 
10 -72.8116 
11 167.08 
12 46.7465 
13 175.222 
14 -68.6574 
15 50.1011 
16 -152.631 
17 -176.82 
18 75.6303 
19 -34.9886 
20 -56.7164 
21 -164.266 
22 85.1146 
23 65.5381 
24 -42.0119 
25 -169.417 
26 75.6734 
27 -47.2597 
28 -171.547 
29 65.7435 
30 -46.9772 
31 -173.816 
32 -33.8725 
33 69.8741 
34 160.716 
35 40.2136 
36 -79.671 
37 152.684 
38 -86.0168 
39 34.027 
40 -177.167 
41 65.7149 
42 -59.1433 
43 -168.592 
44 66.5501 
45 -51.4739 
46 -61.2076 
47 173.934 
48 55.9101 
49 49.4193 
50 -64.3212 
51 165.785 
52 52.0447 
53 -74.9475 
54 171.312 
55 -177.827 
56 61.7262 
57 -53.6727 
58 -70.2079 
59 52.7066 
60 -176.554 
61 -61.6994 
62 51.2472 
63 -153.826 
64 93.2277 
65 -27.3102 
66 -149.674 
67 89.788 
68 -36.728 
69 -30.0483 
70 -150.586 
71 82.8978 
72 176.892 
73 -72.1781 
74 46.7387 
75 175.994 
76 59.8156 
77 -54.2014 
78 -179.644 
79 66.3391 
80 -63.4659 
81 -66.298 
82 179.685 
83 49.8799 
84 179.297 
85 60.2118 
86 -55.5664 
87 -176.507 
88 71.404 
89 -46.8489 
90 150.87 
91 29.695 
92 -94.1888 
93 146.819 
94 22.9347 
95 -92.0068 
96 -95.0204 
97 141.096 
98 26.1543 
99 172.583 
100 -69.2482 
101 63.325 
102 -132.979 
103 117.173 
104 -3.66005 
105 -179.276 
106 65.8085 
107 -61.8654 
108 -179.613 
109 52.7134 
110 -64.6974 
111 -62.3775 
112 169.949 
113 52.5378 
114 -81.0225 
115 30.8103 
116 160.909 
ITEM: TIMESTEP
46300
ITEM: NUMBER OF ENTRIES
116
ITEM: BOX BOUNDS pp pp pp
-2.1659880786948438e+01 2.1659880786948438e+01
-1.1125721167720103e+01 1.1125721167720103e+01
-1.1125721167720103e+01 1.1125721167720103e+01
ITEM: ENTRIES index c_dphi
1 -174.396 
2 51.6252 
3 -54.4146 
4 174.975 
5 68.9352 
6 -51.0466 
7 -60.8599 
8 -166.9 
9 73.1185 
10 -71.7645 
11 161.148 
12 46.4138 
13 172.141 
14 -54.8616 
15 53.5019 
16 -179.89 
17 164.79 
18 50.3358 
19 -63.8511 
20 -70.8299 
21 174.716 
22 60.5295 
23 48.751 
24 -65.7027 
25 148.23 
26 34.4801 
27 -83.9077 
28 -160.081 
29 83.7172 
30 -31.3091 
31 -147.076 
32 -18.8862 
33 94.3312 
34 175.037 
35 62.7317 
36 -61.1184 
37 174.269 
38 -60.8425 
39 57.6547 
40 -167.229 
41 67.1532 
42 -52.9234 
43 -174.301 
44 65.6227 
45 -48.6834 
46 -64.1882 
47 175.735 
48 61.4291 
49 61.5521 
50 -53.5908 
51 178.213 
52 63.0698 
53 -61.0812 
54 -176.224 
55 -169.217 
56 58.9585 
57 -54.491 
58 -46.3054 
59 77.1111 
60 162.336 
61 -76.2719 
62 36.5644 
63 -166.826 
64 75.6661 
65 -43.9397 
66 -156.558 
67 83.8359 
68 -39.0502 
69 -32.2974 
70 -151.903 
71 85.2106 
72 158.902 
73 -85.8064 
74 33.3513 
75 156.278 
76 33.4144 
77 -75.0175 
78 144.285 
79 35.8528 
80 -92.852 
81 -95.2666 
82 156.301 
83 27.5967 
84 155.257 
85 36.9914 
86 -77.4733 
87 -167.567 
88 80.7374 
89 -51.1107 
90 156.893 
91 36.3034 
92 -85.5684 
93 152.506 
94 30.6338 
95 -86.905 
96 -88.5982 
97 149.53 
98 31.9911 
99 163.378 
100 -80.6753 
101 48.1835 
102 -121.533 
103 124.43 
104 5.13762 
105 -157.58 
106 78.1634 
107 -34.8926 
108 -166.019 
109 80.9253 
110 -41.7622 
111 -51.4112 
112 -164.467 
113 72.8453 
114 -54.389 
115 48.6171 
116 -170.394 
ITEM: TIMESTEP
46400
ITEM: NUMBER OF ENTRIES
116
ITEM: BOX BOUNDS pp pp pp
-2.1659880786948438e+01 2.1659880786948438e+01
-1.1125721167720103e+01 1.1125721167720103e+01
-1.1125721167720103e+01 1.1125721167720103e+01
ITEM: ENTRIES index c_dphi
1 -171.312 
2 67.2106 
3 -50.7065 
4 -170.578 
5 71.5049 
6 -49.1007 
7 -58.9647 
8 -176.882 
9 62.5126 
10 -50.975 
11 -171.382 
12 65.6046 
13 177.222 
14 -57.4482 
15 52.5129 
16 174.808 
17 -177.805 
18 57.5763 
19 -64.4812 
20 -59.2358 
21 176.145 
22 54.0878 
23 61.4848 
24 -63.1341 
25 164.35 
26 40.5928 
27 -71.6007 
28 -158.95 
29 84.6162 
30 -43.1001 
31 -173.804 
32 -58.4491 
33 67.7545 
34 -172.725 
35 72.2444 
36 -49.2703 
37 -169.899 
38 -49.7962 
39 67.9478 
40 -147.842 
41 91.1823 
42 -28.4517 
43 -150.137 
44 90.2289 
45 -29.1617 
46 -24.6277 
47 -144.262 
48 96.3477 
49 50.0224 
50 -58.329 
51 163.658 
52 55.3063 
53 -78.0091 
54 173.639 
55 -167.95 
56 66.0472 
57 -51.8705 
58 -42.4381 
59 71.0207 
60 160.356 
61 -76.0721 
62 41.6448 
63 171.254 
64 52.9699 
65 -66.4773 
66 -179.392 
67 61.1609 
68 -61.1077 
69 -58.634 
70 -178.081 
71 59.6502 
72 173.225 
73 -64.2051 
74 56.5731 
75 171.489 
76 47.4437 
77 -72.4916 
78 161.559 
79 41.6239 
80 -74.3953 
81 -74.1665 
82 165.898 
83 49.879 
84 151.48 
85 37.4421 
86 -87.4044 
87 164.345 
88 38.5754 
89 -85.0162 
90 165.174 
91 46.5332 
92 -74.8426 
93 172.306 
94 50.9303 
95 -69.0535 
96 -72.9683 
97 165.656 
98 45.6721 
99 -169.425 
100 -53.4666 
101 71.4911 
102 -156.613 
103 90.0477 
104 -27.5195 
105 -178.716 
106 56.5657 
107 -60.1967 
108 169.025 
109 52.2626 
110 -66.2571 
111 -73.0114 
112 170.226 
113 51.7065 
114 -37.3245 
115 73.4748 
116 -155.732 
ITEM: TIMESTEP
46500
ITEM: NUMBER OF ENTRIES
116
ITEM: BOX BOUNDS pp pp pp
-2.1659880786948438e+01 2.1659880786948438e+01
-1.1125721167720103e+01 1.1125721167720103e+01
-1.1125721167720103e+01 1.1125721167720103e+01
ITEM: ENTRIES index c_dphi
1 167.726 
2 48.7884 
3 -77.8965 
4 168.773 
5 42.0882 
6 -72.2889 
7 -78.0094 
8 155.306 
9 40.9286 
10 -69.799 
11 166.399 
12 48.2046 
13 172.254 
14 -64.891 
15 52.5396 
16 -173.494 
17 -176.67 
18 75.6338 
19 -56.607 
20 -51.665 
21 -159.361 
22 68.3983 
23 66.4431 
24 -41.2528 
25 -158.238 
26 81.2263 
27 -42.5059 
28 173.288 
29 50.2621 
30 -69.233 
31 176.799 
32 -62.8079 
33 47.4603 
34 -153.283 
35 86.8294 
36 -27.1928 
37 -167.535 
38 -52.0655 
39 69.9515 
40 -168.072 
41 82.1832 
42 -42.6745 
43 -153.92 
44 81.2227 
45 -44.1749 
46 -34.9691 
47 -159.827 
48 74.7756 
49 73.4011 
50 -39.6872 
51 -167.93 
52 78.9812 
53 -54.5877 
54 -167.676 
55 154.647 
56 40.4505 
57 -80.9015 
58 -65.0146 
59 52.8575 
60 -174.662 
61 -62.886 
62 55.2693 
63 167.577 
64 53.9644 
65 -67.5706 
66 167.754 
67 46.2192 
68 -78.6335 
69 -75.4376 
70 163.027 
71 38.1748 
72 170.768 
73 -69.8507 
74 57.4204 
75 162.552 
76 43.4716 
77 -83.0548 
78 173.821 
79 47.2947 
80 -67.0986 
81 -72.2638 
82 161.21 
83 46.8165 
84 159.291 
85 35.8445 
86 -87.1075 
87 -163.722 
88 75.6028 
89 -41.1786 
90 -153.416 
91 91.9765 
92 -29.0224 
93 -141.432 
94 97.5688 
95 -26.8244 
96 -31.0492 
97 -152.048 
98 83.5587 
99 161.558 
100 -89.0569 
101 37.5027 
102 108.351 
103 -8.88139 
104 -123.355 
105 -175.295 
106 62.789 
107 -58.3699 
108 179.911 
109 58.7522 
110 -58.1733 
111 -62.6787 
112 176.162 
113 59.2369 
114 117.721 
115 -133.097 
116 -3.86124 
ITEM: TIMESTEP
46600
ITEM: NUMBER OF ENTRIES
116
ITEM: BOX BOUNDS pp pp pp
-2.1659880786948438e+01 2.1659880786948438e+01
-1.1125721167720103e+01 1.1125721167720103e+01
-1.1125721167720103e+01 1.1125721167720103e+01
ITEM: ENTRIES index c_dphi
1 -175.079 
2 60.9238 
3 -62.7613 
4 -176.257 
5 60.0579 
6 -52.2602 
7 -58.075 
8 178.24 
9 65.9218 
10 16.5465 
11 -111.355 
12 128.136 
13 -161.12 
14 -29.8654 
15 86.7395 
16 163.774 
17 165.081 
18 49.7859 
19 -76.3064 
20 -73.8677 
21 170.837 
22 44.7449 
23 45.1615 
24 -70.1336 
25 178.592 
26 56.0772 
27 -62.6998 
28 173.305 
29 61.217 
30 -58.9888 
31 178.229 
32 -64.4867 
33 49.7768 
34 178.223 
35 56.2232 
36 -69.7751 
37 -164.974 
38 -50.11 
39 71.9442 
40 -154.57 
41 89.7748 
42 -33.9915 
43 -153.068 
44 83.1659 
45 -37.4124 
46 -41.7897 
47 -165.556 
48 73.8657 
49 52.7742 
50 -65.6749 
51 -179.602 
52 61.9485 
53 -58.4774 
54 -176.927 
55 177.542 
56 56.8717 
57 -61.3038 
58 -42.0207 
59 75.8302 
60 179.673 
61 -52.9826 
62 66.1758 
63 162.536 
64 35.1971 
65 -84.8922 
66 162.991 
67 42.9017 
68 -69.6701 
69 -75.9525 
70 163.958 
71 51.3865 
72 179.024 
73 -62.6148 
74 55.8294 
75 175.91 
76 59.8679 
77 -57.8304 
78 -169.985 
79 72.3165 
80 -53.943 
81 -55.0326 
82 -172.731 
83 61.0096 
84 163.588 
85 35.1804 
86 -78.0987 
87 164.977 
88 47.9909 
89 -79.4103 
90 -159.904 
91 79.7381 
92 -39.1011 
93 -165.086 
94 76.0749 
95 -44.7282 
96 -39.7648 
97 -158.604 
98 80.5929 
99 -177.687 
100 -58.8191 
101 62.2427 
102 89.0704 
103 -35.0573 
104 -153.189 
105 167.562 
106 40.9949 
107 -72.0591 
108 165.601 
109 52.5473 
110 -67.8311 
111 -77.1549 
112 169.791 
113 49.4127 
114 -60.7664 
115 55.548 
116 177.488 
ITEM: TIMESTEP
46700
ITEM: NUMBER OF ENTRIES
116
ITEM: BOX BOUNDS pp pp pp
-2.1659880786948438e+01 2.1659880786948438e+01
-1.1125721167720103e+01 1.1125721167720103e+01
-1.1125721167720103e+01 1.1125721167720103e+01
ITEM: ENTRIES index c_dphi
1 170.333 
2 38.9801 
3 -73.2053 
4 165.193 
5 53.0079 
6 -63.454 
7 -79.3031 
8 168.511 
9 52.0496 
10 29.7403 
11 -101.313 
12 138.805 
13 165.571 
14 -62.1726 
15 49.6613 
16 173.334 
17 -176.599 
18 49.1776 
19 -62.2237 
20 -58.2037 
21 167.573 
22 56.172 
23 58.9579 
24 -75.2651 
25 142.557 
26 17.0374 
27 -97.4596 
28 -178.948 
29 62.2389 
30 -50.5581 
31 -154.38 
32 -35.5211 
33 90.2877 
34 163.575 
35 47.0081 
36 -82.5385 
37 -176.928 
38 -49.8027 
39 65.5325 
40 -153.648 
41 79.2762 
42 -32.3108 
43 -160.495 
44 87.9176 
45 -33.4191 
46 -49.9548 
47 -161.542 
48 77.1215 
49 47.8207 
50 -71.3897 
51 167.934 
52 48.7233 
53 -61.9858 
54 178.804 
55 -164.235 
56 76.1737 
57 -45.5493 
58 -36.3743 
59 81.3063 
60 -179.369 
61 -61.8345 
62 56.7888 
63 160.721 
64 45.3695 
65 -77.0134 
66 152.878 
67 30.4946 
68 -91.7711 
69 -81.3756 
70 156.241 
71 33.9758 
72 -175.368 
73 -55.9871 
74 57.7202 
75 149.645 
76 34.1307 
77 -80.7221 
78 146.069 
79 31.2162 
80 -98.4171 
81 -79.3274 
82 165.82 
83 36.1865 
84 168.864 
85 48.9936 
86 -71.1313 
87 -157.045 
88 83.5051 
89 -32.2421 
90 -162.912 
91 78.1938 
92 -36.905 
93 -169.148 
94 75.7534 
95 -50.2533 
96 -48.0795 
97 -163.178 
98 70.815 
99 147.134 
100 -94.5846 
101 16.8241 
102 138.226 
103 8.07037 
104 -104.584 
105 173.841 
106 45.5082 
107 -72.2483 
108 171.034 
109 53.2771 
110 -60.6332 
111 -75.6094 
112 166.634 
113 52.7237 
114 -41.1287 
115 84.5617 
116 -159.361 
ITEM: TIMESTEP
46800
ITEM: NUMBER OF ENTRIES
116
ITEM: BOX BOUNDS pp pp pp
-2.1659880786948438e+01 2.1659880786948438e+01
-1.1125721167720103e+01 1.1125721167720103e+01
-1.1125721167720103e+01 1.1125721167720103e+01
ITEM: ENTRIES index c_dphi
1 -173.371 
2 65.1899 
3 -61.0259 
4 -165.007 
5 68.7775 
6 -43.5677 
7 -54.3068 
8 179.477 
9 67.1322 
10 21.7165 
11 -111.774 
12 127.825 
13 159.127 
14 -76.9367 
15 40.4619 
16 175.987 
17 171.915 
18 51.7869 
19 -62.057 
20 -72.293 
21 167.579 
22 53.7354 
23 49.9583 
24 -70.1694 
25 135.317 
26 13.9677 
27 -102.438 
28 -172.068 
29 66.0064 
30 -53.2676 
31 -168.842 
32 -40.6234 
33 73.3274 
34 -157.023 
35 86.4853 
36 -22.5754 
37 176.405 
38 -61.9929 
39 59.8673 
40 -175.29 
41 60.2164 
42 -53.5647 
43 179.77 
44 65.9893 
45 -55.7361 
46 -60.4137 
47 -174.195 
48 64.0799 
49 76.3266 
50 -35.8697 
51 -174.392 
52 73.4119 
53 -59.0606 
54 -171.257 
55 -179.689 
56 67.2722 
57 -60.4157 
58 -66.2324 
59 47.486 
60 178.951 
61 -53.9322 
62 63.7027 
63 159.707 
64 34.1179 
65 -84.2636 
66 152.64 
67 34.2581 
68 -81.7714 
69 -83.3554 
70 158.263 
71 42.2335 
72 167.875 
73 -71.8104 
74 48.4893 
75 150.135 
76 31.3377 
77 -87.6551 
78 146.993 
79 28 
80 -94.2095 
81 -96.1407 
82 144.866 
83 22.6569 
84 169.168 
85 49.592 
86 -60.2749 
87 -162.44 
88 75.1236 
89 -37.5035 
90 -164.008 
91 72.1984 
92 -40.6068 
93 -164.187 
94 83.008 
95 -40.3931 
96 -48.6114 
97 -161.417 
98 75.1822 
99 149.183 
100 -86.642 
101 25.2977 
102 151.286 
103 31.4875 
104 -81.8936 
105 -165.284 
106 73.198 
107 -50.5733 
108 -169.02 
109 67.2082 
110 -47.5021 
111 -55.3654 
112 -179.137 
113 66.153 
114 -72.0931 
115 57.5207 
116 167.126 
ITEM: TIMESTEP
46900
ITEM: NUMBER OF ENTRIES
116
ITEM: BOX BOUNDS pp pp pp
-2.1659880786948438e+01 2.1659880786948438e+01
-1.1125721167720103e+01 1.1125721167720103e+01
-1.1125721167720103e+01 1.1125721167720103e+01
ITEM: ENTRIES index c_dphi
1 168.942 
2 53.4929 
3 -76.583 
4 174.547 
5 44.4715 
6 -70.0036 
7 -63.1209 
8 166.803 
9 52.3282 
10 7.85687 
11 -125.53 
12 121.582 
13 174.249 
14 -73.7059 
15 50.2985 
16 168.87 
17 158.388 
18 46.5743 
19 -72.7191 
20 -80.3745 
21 167.812 
22 48.5189 
23 39.9769 
24 -71.8363 
25 -178.528 
26 60.9582 
27 -60.0088 
28 -173.129 
29 61.1307 
30 -64.1125 
31 167.328 
32 -63.3087 
33 46.4299 
34 -156.275 
35 86.647 
36 -28.2533 
37 -140.737 
38 -23.8178 
39 98.8619 
40 -159.267 
41 79.2063 
42 -42.5682 
43 -159.183 
44 79.0428 
45 -37.6562 
46 -37.0479 
47 -158.822 
48 84.4787 
49 53.8752 
50 -60.1938 
51 167.052 
52 52.983 
53 -76.6754 
54 169.256 
55 -171.983 
56 70.0521 
57 -48.9954 
58 -53.7381 
59 60.2176 
60 126.973 
61 -123.058 
62 0.597487 
63 143.499 
64 29.8327 
65 -91.24 
66 142.764 
67 21.6908 
68 -103.57 
69 -92.6502 
70 146.277 
71 21.016 
72 -164.39 
73 -35.3423 
74 81.2591 
75 -173.516 
76 63.2396 
77 -62.2473 
78 -178.531 
79 55.982 
80 -55.2862 
81 -70.8099 
82 163.703 
83 52.435 
84 142.065 
85 25.371 
86 -85.001 
87 178.654 
88 52.0614 
89 -59.7428 
90 -159.52 
91 78.2982 
92 -36.81 
93 -162.014 
94 82.8773 
95 -39.8323 
96 -39.0531 
97 -154.161 
98 83.129 
99 162.36 
100 -73.5517 
101 41.5485 
102 105.804 
103 -17.0059 
104 -138.488 
105 176.998 
106 57.9771 
107 -61.825 
108 -177.294 
109 62.9042 
110 -58.2729 
111 -56.6273 
112 -176.429 
113 62.3935 
114 -14.215 
115 106.132 
116 -129.318 
ITEM: TIMESTEP
47000
ITEM: NUMBER OF ENTRIES
116
ITEM: BOX BOUNDS pp pp pp
-2.1659880786948438e+01 2.1659880786948438e+01
-1.1125721167720103e+01 1.1125721167720103e+01
-1.1125721167720103e+01 1.1125721167720103e+01
ITEM: ENTRIES index c_dphi
1 177.84 
2 46.8307 
3 -70.2725 
4 170.543 
5 53.4398 
6 -58.448 
7 -74.8518 
8 168.045 
9 56.1572 
10 17.7455 
11 -109.011 
12 133.115 
13 -156.295 
14 -28.1715 
15 85.9259 
16 158.745 
17 168.078 
18 46.094 
19 -72.9396 
20 -77.8906 
21 160.125 
22 41.0915 
23 39.7629 
24 -82.2214 
25 -166.435 
26 63.1684 
27 -51.1924 
28 -149.95 
29 82.6838 
30 -39.015 
31 -164.162 
32 -46.7375 
33 76.5544 
34 -164.011 
35 78.059 
36 -36.0743 
37 166.162 
38 -66.8665 
39 45.5691 
40 164.143 
41 42.1003 
42 -78.7111 
43 163.011 
44 42.1993 
45 -74.9465 
46 -76.3246 
47 162.864 
48 45.7181 
49 94.5962 
50 -29.8749 
51 -149.162 
52 86.3669 
53 -32.7105 
54 -157.182 
55 159.983 
56 40.353 
57 -75.5941 
58 -44.3646 
59 81.6854 
60 116.608 
61 -123.477 
62 -7.45677 
63 144.741 
64 22.8483 
65 -86.96 
66 142.363 
67 32.5551 
68 -95.744 
69 -94.9507 
70 155.241 
71 26.942 
72 -171.251 
73 -43.82 
74 79.0863 
75 172.984 
76 52.4643 
77 -78.965 
78 176.192 
79 44.7631 
80 -63.2877 
81 -64.0505 
82 164.52 
83 56.4693 
84 151.937 
85 32.0017 
86 -100.714 
87 -165.77 
88 73.3497 
89 -39.7212 
90 -136.867 
91 102.628 
92 -15.4292 
93 -143.182 
94 98.7607 
95 -22.6767 
96 -20.1187 
97 -138.176 
98 100.386 
99 170.34 
100 -67.9593 
101 47.8082 
102 107.463 
103 -13.1206 
104 -133.052 
105 174.125 
106 50.126 
107 -66.4047 
108 176.657 
109 60.1258 
110 -59.3446 
111 -61.8466 
112 -178.377 
113 62.1523 
114 -103.765 
115 21.2929 
116 141.183 
ITEM: TIMESTEP
47100
ITEM: NUMBER OF ENTRIES
116
ITEM: BOX BOUNDS pp pp pp
-2.1659880786948438e+01 2.1659880786948438e+01
-1.1125721167720103e+01 1.1125721167720103e+01
-1.1125721167720103e+01 1.1125721167720103e+01
ITEM: ENTRIES index c_dphi
1 -161.531 
2 72.5768 
3 -38.4495 
4 -167.113 
5 81.8608 
6 -41.2204 
7 -48.9574 
8 -159.984 
9 76.9351 
10 103.323 
11 -16.2294 
12 -141.304 
13 -177.649 
14 -50.4426 
15 62.7545 
16 -155.756 
17 -142.692 
18 96.6246 
19 -22.1352 
20 -31.8694 
21 -152.553 
22 88.6872 
23 83.6879 
24 -36.9958 
25 -170.712 
26 54.8586 
27 -58.3018 
28 -174.408 
29 60.4915 
30 -50.5939 
31 -159.45 
32 -45.1712 
33 78.1157 
34 163.341 
35 44.6422 
36 -75.2323 
37 157.564 
38 -74.5548 
39 38.7486 
40 149.386 
41 29.3066 
42 -95.8573 
43 148.683 
44 23.5194 
45 -91.2375 
46 -98.0155 
47 136.821 
48 22.0637 
49 58.6823 
50 -72.278 
51 -179.131 
52 49.9084 
53 -63.1237 
54 165.916 
55 -156.061 
56 83.177 
57 -33.7822 
58 -37.0303 
59 88.6981 
60 147.714 
61 -91.3374 
62 29.5495 
63 157.203 
64 36.1354 
65 -82.2164 
66 150.001 
67 31.6495 
68 -88.9312 
69 -88.8479 
70 152.8 
71 32.2196 
72 -163.688 
73 -45.4001 
74 70.4063 
75 164.93 
76 49.3096 
77 -67.4256 
78 -177.262 
79 66.0026 
80 -61.6422 
81 -67.7002 
82 175.565 
83 47.9197 
84 143.07 
85 15.5739 
86 -94.8205 
87 -166.589 
88 70.1654 
89 -49.887 
90 -125.146 
91 102.297 
92 -7.70461 
93 -131.466 
94 118.533 
95 1.09138 
96 -21.1809 
97 -131.182 
98 111.376 
99 179.124 
100 -45.828 
101 64.729 
102 107.727 
103 -10.2925 
104 -130.696 
105 173.654 
106 64.4843 
107 -68.814 
108 -169.882 
109 56.8196 
110 -60.7122 
111 -54.1102 
112 172.592 
113 55.0597 
114 -0.30895 
115 122.734 
116 -119.818 
ITEM: TIMESTEP
47200
ITEM: NUMBER OF ENTRIES
116
ITEM: BOX BOUNDS pp pp pp
-2.1659880786948438e+01 2.1659880786948438e+01
-1.1125721167720103e+01 1.1125721167720103e+01
-1.1125721167720103e+01 1.1125721167720103e+01
ITEM: ENTRIES index c_dphi
1 168.332 
2 60.3446 
3 -71.5861 
4 -178.63 
5 49.4389 
6 -70.6427 
7 -66.5005 
8 161.569 
9 41.4872 
10 79.2939 
11 -42.1945 
12 -157.058 
13 -172.094 
14 -52.5702 
15 68.2559 
16 -175.755 
17 178.705 
18 74.7619 
19 -48.5279 
20 -63.5577 
21 -167.501 
22 69.2092 
23 51.4781 
24 -52.4651 
25 -162.296 
26 70.2227 
27 -54.4513 
28 -168.416 
29 71.0688 
30 -45.1998 
31 176.979 
32 -55.9329 
33 53.7783 
34 173.801 
35 45.2725 
36 -67.4311 
37 166.422 
38 -74.6905 
39 43.4262 
40 165.165 
41 44.7091 
42 -72.7305 
43 158.386 
44 40.9467 
45 -81.158 
46 -81.0219 
47 161.539 
48 39.4339 
49 39.4326 
50 -72.8854 
51 168.758 
52 56.4402 
53 -79.0859 
54 168.596 
55 179.851 
56 62.9778 
57 -49.1189 
58 -43.0285 
59 67.8994 
60 -147.506 
61 -25.0359 
62 94.384 
63 150.663 
64 26.6306 
65 -84.9054 
66 141.281 
67 29.7451 
68 -94.6862 
69 -102.121 
70 146.343 
71 21.9113 
72 -164.545 
73 -45.2266 
74 73.2408 
75 156.209 
76 35.1472 
77 -74.839 
78 159.738 
79 49.7515 
80 -79.2005 
81 -82.9367 
82 167.077 
83 38.1251 
84 178.548 
85 48.232 
86 -66.2252 
87 -165.349 
88 73.8832 
89 -44.0279 
90 -162.13 
91 80.1792 
92 -44.3114 
93 -156.338 
94 79.171 
95 -38.6476 
96 -42.7459 
97 -167.236 
98 74.9449 
99 -178.532 
100 -58.9028 
101 60.4677 
102 163.721 
103 45.7806 
104 -77.6531 
105 -166.58 
106 65.1865 
107 -48.9995 
108 -169.83 
109 75.9838 
110 -41.5962 
111 -54.7236 
112 -168.91 
113 73.5104 
114 22.4964 
115 146.17 
116 -89.3682 
ITEM: TIMESTEP
47300
ITEM: NUMBER OF ENTRIES
116
ITEM: BOX BOUNDS pp pp pp
-2.1659880786948438e+01 2.1659880786948438e+01
-1.1125721167720103e+01 1.1125721167720103e+01
-1.1125721167720103e+01 1.1125721167720103e+01
ITEM: ENTRIES index c_dphi
1 -173.896 
2 64.3238 
3 -52.0138 
4 -170.178 
5 73.4849 
6 -48.3972 
7 -61.4243 
8 -177.762 
9 60.3561 
10 74.7908 
11 -46.1304 
12 -156.783 
13 161.24 
14 -78.2868 
15 43.2821 
16 -167.909 
17 -168.982 
18 74.1211 
19 -43.8609 
20 -52.8088 
21 -169.706 
22 72.3122 
23 66.9703 
24 -49.9267 
25 177.538 
26 54.121 
27 -67.1107 
28 -169.142 
29 69.9999 
30 -51.3594 
31 176.592 
32 -66.4701 
33 63.075 
34 179.862 
35 62.9923 
36 -58.452 
37 164.386 
38 -76.7573 
39 39.8787 
40 173.278 
41 53.6742 
42 -57.887 
43 172.654 
44 61.0932 
45 -67.7423 
46 -64.5007 
47 -176.062 
48 55.1026 
49 55.2152 
50 -58.2193 
51 172.763 
52 59.3282 
53 -63.9152 
54 -177.35 
55 -167.543 
56 70.9964 
57 -45.3634 
58 -57.5995 
59 59.0576 
60 -172.196 
61 -43.5357 
62 73.285 
63 179.904 
64 44.9727 
65 -65.7253 
66 163.448 
67 52.7496 
68 -61.6206 
69 -70.6974 
70 178.605 
71 64.2343 
72 175.569 
73 -59.2554 
74 64.8592 
75 -160.446 
76 73.058 
77 -47.4393 
78 -168.936 
79 70.5663 
80 -42.4409 
81 -43.4477 
82 -163.945 
83 83.0478 
84 -179.249 
85 65.9681 
86 -58.5032 
87 176.673 
88 57.1417 
89 -65.3982 
90 -162.99 
91 78.2782 
92 -44.4163 
93 -160.872 
94 76.4334 
95 -42.1406 
96 -35.8977 
97 -158.592 
98 82.8339 
99 -170.763 
100 -52.5674 
101 71.6875 
102 -171.062 
103 65.7652 
104 -58.4781 
105 175.603 
106 51.779 
107 -65.7625 
108 175.667 
109 58.1257 
110 -60.5087 
111 -60.9686 
112 -178.51 
113 62.8555 
114 -71.5965 
115 52.5803 
116 169.529 
ITEM: TIMESTEP
47400
ITEM: NUMBER OF ENTRIES
116
ITEM: BOX BOUNDS pp pp pp
-2.1659880786948438e+01 2.1659880786948438e+01
-1.1125721167720103e+01 1.1125721167720103e+01
-1.1125721167720103e+01 1.1125721167720103e+01
ITEM: ENTRIES index c_dphi
1 168.719 
2 45.1673 
3 -65.8682 
4 168.383 
5 57.3474 
6 -68.0652 
7 -80.7793 
8 168.185 
9 42.7727 
10 59.7833 
11 -61.7677 
12 -171.3 
13 150.765 
14 -92.5388 
15 27.8939 
16 -162.313 
17 -149.618 
18 76.1967 
19 -41.607 
20 -32.5334 
21 -166.718 
22 75.4778 
23 89.6756 
24 -44.5095 
25 170.28 
26 49.0967 
27 -70.1706 
28 172.816 
29 47.9093 
30 -73.1311 
31 -167.052 
32 -55.8999 
33 71.877 
34 -163.158 
35 75.4784 
36 -40.3577 
37 -165.71 
38 -50.9753 
39 70.9616 
40 177.665 
41 61.1877 
42 -54.596 
43 -174.439 
44 69.7774 
45 -57.962 
46 -49.8487 
47 -165.632 
48 66.6282 
49 63.8382 
50 -55.4126 
51 179.916 
52 60.6656 
53 -59.9243 
54 -179.175 
55 -171.287 
56 70.2746 
57 -53.5363 
58 -63.9305 
59 58.3374 
60 159.614 
61 -83.7814 
62 37.7519 
63 -169.146 
64 72.4104 
65 -44.2977 
66 -169.515 
67 73.777 
68 -51.0715 
69 -48.7516 
70 -165.46 
71 69.6919 
72 -170.958 
73 -49.3556 
74 74.9454 
75 -161.561 
76 79.5509 
77 -46.7021 
78 -161.597 
79 72.1503 
80 -42.7089 
81 -51.1481 
82 -177.401 
83 67.7396 
84 163.942 
85 48.0755 
86 -78.8091 
87 -171.763 
88 67.9336 
89 -51.7928 
90 178.559 
91 63.1766 
92 -65.8696 
93 -176.821 
94 54.1325 
95 -61.4388 
96 -61.2198 
97 169.734 
98 54.1628 
99 172.85 
100 -68.6725 
101 52.6802 
102 -148.007 
103 89.1081 
104 -32.1985 
105 -167.06 
106 68.5381 
107 -45.4042 
108 -169.093 
109 76.9651 
110 -44.6907 
111 -48.8708 
112 -162.813 
113 75.531 
114 -43.1308 
115 87.2092 
116 -170.448 
ITEM: TIMESTEP
47500
ITEM: NUMBER OF ENTRIES
116
ITEM: BOX BOUNDS pp pp pp
-2.1659880786948438e+01 2.1659880786948438e+01
-1.1125721167720103e+01 1.1125721167720103e+01
-1.1125721167720103e+01 1.1125721167720103e+01
ITEM: ENTRIES index c_dphi
1 174.587 
2 54.1919 
3 -62.0098 
4 167.592 
5 51.3905 
6 -72.0124 
7 -63.6531 
8 -179.855 
9 56.7423 
10 88.442 
11 -28.8778 
12 -142.309 
13 -179.312 
14 -64.0503 
15 57.0223 
16 157.075 
17 158.807 
18 40.8175 
19 -84.6657 
20 -77.4331 
21 164.577 
22 39.0942 
23 40.5475 
24 -77.4419 
25 -176.584 
26 67.2102 
27 -59.7814 
28 -161.62 
29 71.8499 
30 -43.739 
31 161.44 
32 -78.4103 
33 42.2466 
34 177.84 
35 63.5369 
36 -54.2859 
37 -173.689 
38 -58.2433 
39 57.6306 
40 -148.419 
41 98.1558 
42 -24.031 
43 -131.528 
44 106.285 
45 -18.1029 
46 -20.4721 
47 -142.659 
48 92.9531 
49 99.5562 
50 -22.7075 
51 -149.607 
52 88.1293 
53 -29.6132 
54 -151.877 
55 139.85 
56 16.5911 
57 -104.594 
58 -60.4211 
59 61.2891 
60 -162.233 
61 -42.8922 
62 83.4519 
63 -179.901 
64 57.6297 
65 -61.4763 
66 -172.085 
67 68.8087 
68 -49.6161 
69 -62.3065 
70 178.587 
71 60.1627 
72 169.047 
73 -71.1747 
74 47.3618 
75 155.254 
76 39.9838 
77 -77.9436 
78 158.086 
79 40.1587 
80 -86.6432 
81 -91.3463 
82 150.726 
83 23.9243 
84 167.828 
85 58.2551 
86 -69.1267 
87 -158.875 
88 85.0167 
89 -33.4681 
90 -133.997 
91 111.4 
92 -12.753 
93 -135.86 
94 99.9873 
95 -21.2571 
96 -12.7106 
97 -136.863 
98 101.892 
99 -153.61 
100 -39.9816 
101 83.9094 
102 -171.558 
103 67.0265 
104 -50.4474 
105 166.678 
106 41.3158 
107 -65.1716 
108 161.59 
109 55.1024 
110 -73.0476 
111 -82.5332 
112 170.979 
113 42.8294 
114 -40.855 
115 84.8054 
116 -169.314 
ITEM: TIMESTEP
47600
ITEM: NUMBER OF ENTRIES
116
ITEM: BOX BOUNDS pp pp pp
-2.1659880786948438e+01 2.1659880786948438e+01
-1.1125721167720103e+01 1.1125721167720103e+01
-1.1125721167720103e+01 1.1125721167720103e+01
ITEM: ENTRIES index c_dphi
1 -177.566 
2 64.4866 
3 -62.9444 
4 -172.937 
5 59.6316 
6 -54.9899 
7 -58.5648 
8 174.004 
9 59.3828 
10 59.4887 
11 -56.0658 
12 -173.985 
13 -141.948 
14 -26.3143 
15 100.732 
16 151.642 
17 150.903 
18 31.3113 
19 -86.7286 
20 -87.8199 
21 152.588 
22 34.5486 
23 29.274 
24 -90.3178 
25 -162.611 
26 78.9093 
27 -45.5987 
28 -151.401 
29 88.8913 
30 -28.5793 
31 -168.415 
32 -45.6326 
33 73.4098 
34 -160.572 
35 84.5917 
36 -38.8166 
37 163.475 
38 -71.5974 
39 43.0178 
40 167.517 
41 49.891 
42 -77.4734 
43 173.444 
44 46.0799 
45 -68.93 
46 -70.1557 
47 162.48 
48 47.47 
49 55.3065 
50 -52.2159 
51 173.235 
52 65.7124 
53 -62.8553 
54 -170.378 
55 178.657 
56 59.0235 
57 -63.9975 
58 -71.384 
59 37.2356 
60 156.466 
61 -88.6811 
62 39.0922 
63 173.624 
64 56.0423 
65 -62.7808 
66 176.389 
67 57.5655 
68 -66.0293 
69 -64.6565 
70 176.52 
71 52.9257 
72 -148.376 
73 -21.1102 
74 88.202 
75 -159.354 
76 74.4031 
77 -32.3428 
78 -160.601 
79 92.6531 
80 -34.3584 
81 -42.3297 
82 -149.076 
83 83.9128 
84 170.949 
85 50.958 
86 -74.4166 
87 -169.415 
88 67.1275 
89 -59.0103 
90 -173.615 
91 66.1763 
92 -58.9731 
93 179.722 
94 54.573 
95 -60.0684 
96 -47.2407 
97 -172.39 
98 72.9684 
99 -176.581 
100 -55.5828 
101 68.1692 
102 -160.478 
103 76.9162 
104 -36.7596 
105 -162.796 
106 76.9646 
107 -38.5986 
108 -162.064 
109 82.3732 
110 -41.8245 
111 -48.9282 
112 -164.491 
113 71.311 
114 -98.898 
115 24.5343 
116 136.054 
ITEM: TIMESTEP
47700
ITEM: NUMBER OF ENTRIES
116
ITEM: BOX BOUNDS pp pp pp
-2.1659880786948438e+01 2.1659880786948438e+01
-1.1125721167720103e+01 1.1125721167720103e+01
-1.1125721167720103e+01 1.1125721167720103e+01
ITEM: ENTRIES index c_dphi
1 165.31 
2 43.1277 
3 -73.6916 
4 167.475 
5 50.6554 
6 -70.3428 
7 -72.8734 
8 170.307 
9 49.3091 
10 31.0915 
11 -91.9436 
12 153.55 
13 -160.574 
14 -42.6911 
15 81.7002 
16 -175.029 
17 -177.58 
18 58.6999 
19 -54.4842 
20 -64.9571 
21 171.323 
22 58.1389 
23 61.8749 
24 -61.845 
25 -148.43 
26 90.9745 
27 -20.5544 
28 -178.775 
29 69.1158 
30 -49.9824 
31 -167.588 
32 -46.1392 
33 77.3263 
34 -147.751 
35 85.326 
36 -23.4168 
37 171.721 
38 -63.7879 
39 51.0059 
40 173.562 
41 48.7009 
42 -76.553 
43 163.339 
44 38.0854 
45 -71.7993 
46 -71.788 
47 162.958 
48 53.0734 
49 63.9076 
50 -53.8702 
51 -175.102 
52 67.1206 
53 -63.8993 
54 178.323 
55 -176.386 
56 66.8822 
57 -52.971 
58 -57.4379 
59 61.2125 
60 148.389 
61 -96.3042 
62 24.2568 
63 146.643 
64 28.9561 
65 -82.4836 
66 143.325 
67 31.8857 
68 -98.9876 
69 -92.7342 
70 155.826 
71 24.9528 
72 -142.106 
73 -17.5082 
74 102.585 
75 -159.783 
76 74.3479 
77 -36.703 
78 -154.267 
79 94.6822 
80 -28.3977 
81 -40.4682 
82 -151.519 
83 85.4009 
84 171.972 
85 41.2521 
86 -72.335 
87 -167.545 
88 76.214 
89 -46.2563 
90 -160.496 
91 83.7884 
92 -29.3476 
93 -158.192 
94 88.6717 
95 -42.4769 
96 -36.6697 
97 -149.806 
98 79.0457 
99 179.473 
100 -67.0079 
101 44.1895 
102 168.861 
103 43.8677 
104 -72.1595 
105 178.98 
106 63.7901 
107 -65.6941 
108 -173.959 
109 56.5563 
110 -58.77 
111 -49.6701 
112 -179.154 
113 65.5195 
114 2.35082 
115 123.533 
116 -121.035 
ITEM: TIMESTEP
47800
ITEM: NUMBER OF ENTRIES
116
ITEM: BOX BOUNDS pp pp pp
-2.1659880786948438e+01 2.1659880786948438e+01
-1.1125721167720103e+01 1.1125721167720103e+01
-1.1125721167720103e+01 1.1125721167720103e+01
ITEM: ENTRIES index c_dphi
1 -160.084 
2 78.4832 
3 -31.9828 
4 -158.622 
5 90.9123 
6 -37.1887 
7 -41.667 
8 -152.133 
9 79.766 
10 134.351 
11 15.28 
12 -101.9 
13 -177.558 
14 -54.4088 
15 57.6489 
16 -160.324 
17 -168.519 
18 79.3128 
19 -43.9285 
20 -54.1267 
21 -166.295 
22 70.4639 
23 75.0855 
24 -37.0825 
25 -171.753 
26 74.0603 
27 -43.3914 
28 -167.707 
29 76.4883 
30 -39.4932 
31 -148.177 
32 -27.7519 
33 83.7857 
34 160.036 
35 45.8275 
36 -77.6241 
37 163.623 
38 -66.0201 
39 44.1799 
40 -168.24 
41 64.8732 
42 -47.2652 
43 179.509 
44 67.3704 
45 -53.6045 
46 -55.416 
47 -167.554 
48 71.4707 
49 65.2685 
50 -59.7208 
51 -173.571 
52 61.4399 
53 -58.2489 
54 176.762 
55 160.112 
56 30.2061 
57 -84.6156 
58 -25.7506 
59 95.3329 
60 -150.367 
61 -28.7851 
62 91.081 
63 157.858 
64 32.8888 
65 -79.6267 
66 161.367 
67 48.8518 
68 -73.6635 
69 -81.8154 
70 165.669 
71 43.1539 
72 176.136 
73 -72.4754 
74 53.5247 
75 143.812 
76 34.8439 
77 -90.602 
78 157.351 
79 31.9052 
80 -93.6809 
81 -82.9473 
82 151.607 
83 26.0209 
84 170.71 
85 51.3072 
86 -70.5468 
87 173.987 
88 49.288 
89 -61.0908 
90 -170.497 
91 71.4746 
92 -43.4277 
93 -166.128 
94 78.9699 
95 -48.0997 
96 -53.0219 
97 -167.924 
98 65.0061 
99 -162.17 
100 -47.2133 
101 69.4267 
102 -170.617 
103 67.7188 
104 -52.5533 
105 -167.256 
106 78.2359 
107 -40.9663 
108 -160.636 
109 80.1619 
110 -46.1274 
111 -37.9057 
112 -157.108 
113 76.6026 
114 54.9269 
115 166.705 
116 -70.8296 
ITEM: TIMESTEP
47900
ITEM: NUMBER OF ENTRIES
116
ITEM: BOX BOUNDS pp pp pp
-2.1659880786948438e+01 2.1659880786948438e+01
-1.1125721167720103e+01 1.1125721167720103e+01
-1.1125721167720103e+01 1.1125721167720103e+01
ITEM: ENTRIES index c_dphi
1 157.373 
2 40.4084 
3 -83.0584 
4 166.273 
5 42.806 
6 -76.7623 
7 -86.5129 
8 150.02 
9 30.452 
10 174.475 
11 58.3688 
12 -60.0704 
13 174.487 
14 -61.8936 
15 51.3659 
16 -170.841 
17 -163.62 
18 82.3709 
19 -44.5622 
20 -52.3294 
21 -166.339 
22 66.728 
23 70.1014 
24 -43.908 
25 -136.799 
26 95.803 
27 -14.1313 
28 -175.506 
29 64.4945 
30 -50.4523 
31 -166.34 
32 -40.6106 
33 69.4203 
34 156.526 
35 42.1049 
36 -81.6483 
37 -164.858 
38 -47.5715 
39 69.9047 
40 -173.621 
41 63.9299 
42 -56.101 
43 -177.192 
44 62.7772 
45 -54.7427 
46 -47.6685 
47 -167.699 
48 74.7807 
49 42.7596 
50 -86.0346 
51 161.512 
52 32.7179 
53 -80.4629 
54 150.743 
55 177.636 
56 52.4332 
57 -62.8024 
58 -46.4845 
59 72.8531 
60 -178.178 
61 -59.2689 
62 61.8322 
63 163.221 
64 43.4543 
65 -66.9358 
66 170.956 
67 60.5664 
68 -69.2772 
69 -74.867 
70 174.743 
71 44.8993 
72 -152.428 
73 -34.7672 
74 87.7158 
75 173.444 
76 56.018 
77 -68.8466 
78 172.212 
79 47.3476 
80 -70.3615 
81 -70.4111 
82 164.724 
83 47.0152 
84 175.995 
85 60.8739 
86 -65.826 
87 -164.017 
88 71.0411 
89 -43.2253 
90 165.427 
91 47.7566 
92 -72.7392 
93 163.744 
94 43.2479 
95 -78.5855 
96 -70.144 
97 169.36 
98 47.5267 
99 179.984 
100 -63.3355 
101 55.2851 
102 -171.814 
103 71.9288 
104 -45.1503 
105 176.624 
106 68.35 
107 -41.6511 
108 -171.829 
109 78.17 
110 -63.5548 
111 -59.3363 
112 -169.337 
113 48.9377 
114 45.7082 
115 158.024 
116 -98.0686 
ITEM: TIMESTEP
48000
ITEM: NUMBER OF ENTRIES
116
ITEM: BOX BOUNDS pp pp pp
-2.1659880786948438e+01 2.1659880786948438e+01
-1.1125721167720103e+01 1.1125721167720103e+01
-1.1125721167720103e+01 1.1125721167720103e+01
ITEM: ENTRIES index c_dphi
1 170.497 
2 54.4136 
3 -74.5443 
4 177.663 
5 48.7049 
6 -66.2537 
7 -69.7285 
8 161.314 
9 46.355 
10 -165.04 
11 72.6047 
12 -37.2035 
13 -173.936 
14 -54.8817 
15 60.5092 
16 176.351 
17 178.08 
18 54.74 
19 -65.4519 
20 -64.3006 
21 172.359 
22 52.167 
23 59.8833 
24 -63.4572 
25 -126.844 
26 115.913 
27 2.97463 
28 165.043 
29 34.0917 
30 -80.5288 
31 177.122 
32 -64.5412 
33 55.6121 
34 -151.264 
35 80.4359 
36 -30.6095 
37 -176.49 
38 -51.1176 
39 56.4444 
40 121.656 
41 -1.4821 
42 -114.203 
43 128.06 
44 15.3389 
45 -108.802 
46 -107.108 
47 140.171 
48 16.0308 
49 45.34 
50 -63.5926 
51 170.566 
52 61.6331 
53 -72.0266 
54 179.041 
55 175.848 
56 53.4633 
57 -67.4532 
58 -53.3369 
59 54.807 
60 167.045 
61 -82.531 
62 42.8298 
63 173.591 
64 54.9609 
65 -58.753 
66 175.108 
67 61.3938 
68 -66.2623 
69 -60.9484 
70 -174.662 
71 57.6816 
72 -161.625 
73 -30.8335 
74 78.7849 
75 -147.657 
76 79.9424 
77 -31.9429 
78 -151.442 
79 96.6727 
80 -19.0415 
81 -50.7184 
82 -162.604 
83 81.6821 
84 -170.201 
85 67.8154 
86 -46.2434 
87 177.977 
88 62.0459 
89 -55.3092 
90 175.445 
91 58.7843 
92 -57.3695 
93 168.149 
94 51.9953 
95 -75.1904 
96 -66.2578 
97 177.588 
98 50.4028 
99 170.099 
100 -69.9674 
101 36.8885 
102 174.954 
103 50.7635 
104 -62.901 
105 -177.855 
106 70.3528 
107 -53.9073 
108 -164.628 
109 71.1116 
110 -52.8366 
111 -54.098 
112 -178.358 
113 57.6937 
114 92.6342 
115 -151.301 
116 -35.8452 
ITEM: TIMESTEP
48100
ITEM: NUMBER OF ENTRIES
116
ITEM: BOX BOUNDS pp pp pp
-2.1659880786948438e+01 2.1659880786948438e+01
-1.1125721167720103e+01 1.1125721167720103e+01
-1.1125721167720103e+01 1.1125721167720103e+01
ITEM: ENTRIES index c_dphi
1 172.108 
2 50.1476 
3 -63.921 
4 164.808 
5 50.7399 
6 -73.2309 
7 -72.4718 
8 173.46 
9 49.4889 
10 169.601 
11 52.0388 
12 -68.1793 
13 -176.347 
14 -58.0732 
15 52.6082 
16 -177.715 
17 177.328 
18 55.5722 
19 -64.1688 
20 -65.0199 
21 173.224 
22 53.4831 
23 63.7818 
24 -57.9742 
25 -128.438 
26 119.961 
27 0.630442 
28 169.985 
29 44.8982 
30 -78.0387 
31 172.639 
32 -66.1624 
33 52.6553 
34 -160.468 
35 76.8776 
36 -40.7431 
37 -177.89 
38 -50.0355 
39 60.771 
40 148.495 
41 27.3847 
42 -87.6401 
43 152.798 
44 37.7729 
45 -86.0925 
46 -83.4346 
47 161.541 
48 37.6752 
49 37.0087 
50 -76.1542 
51 161.337 
52 48.1741 
53 -75.7278 
54 171.109 
55 -177.454 
56 66.8197 
57 -59.5968 
58 -65.2974 
59 45.5881 
60 -158.187 
61 -37.6265 
62 83.9566 
63 -172.721 
64 62.8137 
65 -49.6678 
66 -176.097 
67 71.4211 
68 -51.6323 
69 -52.7871 
70 -165.269 
71 71.6781 
72 175.347 
73 -67.0165 
74 44.3059 
75 160.228 
76 38.1171 
77 -70.2632 
78 156.284 
79 47.9037 
80 -81.6046 
81 -87.8379 
82 163.782 
83 34.2735 
84 173.352 
85 59.0462 
86 -67.0367 
87 -178.743 
88 58.6368 
89 -48.3989 
90 -146.039 
91 95.6494 
92 -20.721 
93 -149.363 
94 94.2664 
95 -31.0521 
96 -36.76 
97 -153.13 
98 81.5512 
99 -157.142 
100 -40.2654 
101 73.2817 
102 176.066 
103 53.1642 
104 -63.7083 
105 176.117 
106 54.0571 
107 -66.1414 
108 169.857 
109 49.6581 
110 -68.0836 
111 -62.3054 
112 177.496 
113 59.7544 
114 -92.4043 
115 23.7462 
116 155.667 
ITEM: TIMESTEP
48200
ITEM: NUMBER OF ENTRIES
116
ITEM: BOX BOUNDS pp pp pp
-2.1659880786948438e+01 2.1659880786948438e+01
-1.1125721167720103e+01 1.1125721167720103e+01
-1.1125721167720103e+01 1.1125721167720103e+01
ITEM: ENTRIES index c_dphi
1 -178.74 
2 56.5571 
3 -56.6226 
4 179.238 
5 66.058 
6 -56.059 
7 -68.3463 
8 178.474 
9 56.357 
10 150.352 
11 24.7901 
12 -84.6614 
13 -151.442 
14 -26.3387 
15 86.701 
16 -169.388 
17 -171.716 
18 68.0004 
19 -52.3249 
20 -51.5543 
21 -171.838 
22 67.8365 
23 71.2213 
24 -49.0626 
25 -164.448 
26 81.0307 
27 -42.5508 
28 -178.477 
29 58.6818 
30 -55.5097 
31 -166.974 
32 -43.9298 
33 74.7607 
34 141.555 
35 22.8841 
36 -103.67 
37 161.722 
38 -82.48 
39 41.3191 
40 -171.686 
41 67.8075 
42 -48.8793 
43 -171.713 
44 71.5999 
45 -51.2066 
46 -53.4462 
47 -170.133 
48 67.0604 
49 35.1249 
50 -89.7824 
51 160.336 
52 35.4282 
53 -79.8867 
54 155.206 
55 173.971 
56 51.9979 
57 -70.008 
58 -48.2402 
59 71.8726 
60 -165.301 
61 -47.5591 
62 80.8579 
63 167.385 
64 41.7159 
65 -75.5314 
66 162.568 
67 45.3209 
68 -71.763 
69 -74.4223 
70 168.33 
71 51.2465 
72 169.336 
73 -79.3821 
74 46.489 
75 164.988 
76 49.291 
77 -69.3006 
78 170.857 
79 52.2655 
80 -73.4458 
81 -71.6997 
82 169.709 
83 43.9974 
84 -173.747 
85 64.6685 
86 -57.2973 
87 -179.747 
88 60.4692 
89 -49.3098 
90 -139.981 
91 104.077 
92 -16.5725 
93 -139.857 
94 99.4936 
95 -23.9145 
96 -22.3829 
97 -143.033 
98 93.5592 
99 -153.654 
100 -34.9579 
101 79.6665 
102 -173.909 
103 71.1663 
104 -42.8357 
105 -151.605 
106 78.0518 
107 -35.7535 
108 -172.271 
109 73.924 
110 -41.9272 
111 -53.3746 
112 -167.18 
113 76.9688 
114 -12.6022 
115 120.499 
116 -127.044 
ITEM: TIMESTEP
48300
ITEM: NUMBER OF ENTRIES
116
ITEM: BOX BOUNDS pp pp pp
-2.1659880786948438e+01 2.1659880786948438e+01
-1.1125721167720103e+01 1.1125721167720103e+01
-1.1125721167720103e+01 1.1125721167720103e+01
ITEM: ENTRIES index c_dphi
1 -178.751 
2 65.977 
3 -70.5726 
4 -178.882 
5 44.5685 
6 -63.6101 
7 -52.3732 
8 171.077 
9 62.8986 
10 -150.895 
11 84.5757 
12 -27.736 
13 -165.254 
14 -40.7004 
15 84.172 
16 -157.721 
17 -157.593 
18 77.183 
19 -39.3537 
20 -32.1283 
21 -157.353 
22 86.1105 
23 84.0399 
24 -41.1846 
25 174.178 
26 56.0976 
27 -66.5937 
28 170.194 
29 62.3281 
30 -64.6904 
31 -162.747 
32 -47.6459 
33 84.0162 
34 157.404 
35 34.3538 
36 -84.3293 
37 148.038 
38 -93.5502 
39 21.5972 
40 172.945 
41 52.3484 
42 -56.1837 
43 161.175 
44 52.6433 
45 -78.2284 
46 -75.0981 
47 176.37 
48 45.4981 
49 38.831 
50 -72.7153 
51 168.98 
52 57.4332 
53 -82.5311 
54 165.923 
55 178.998 
56 59.663 
57 -59.1989 
58 -92.2439 
59 19.863 
60 -172.217 
61 -49.7618 
62 70.83 
63 177.335 
64 55.3831 
65 -63.2519 
66 165.825 
67 47.1901 
68 -72.2234 
69 -62.7746 
70 178.59 
71 59.177 
72 -172.515 
73 -48.7634 
74 70.9244 
75 -161.991 
76 76.2546 
77 -47.2041 
78 -154.705 
79 81.836 
80 -32.9514 
81 -38.8379 
82 -162.297 
83 82.9161 
84 -149.592 
85 90.2946 
86 -36.0001 
87 -175.247 
88 55.583 
89 -58.7087 
90 -144.335 
91 96.4797 
92 -18.8192 
93 -131.841 
94 112.861 
95 -12.6554 
96 -13.2968 
97 -128.596 
98 105.888 
99 -110.024 
100 10.1844 
101 117.429 
102 -175.225 
103 69.0671 
104 -45.8636 
105 166.512 
106 33.7284 
107 -78.34 
108 146.578 
109 34.5091 
110 -80.6392 
111 -92.1358 
112 155.796 
113 40.6473 
114 148.275 
115 -79.6818 
116 33.3235 
ITEM: TIMESTEP
48400
ITEM: NUMBER OF ENTRIES
116
ITEM: BOX BOUNDS pp pp pp
-2.1659880786948438e+01 2.1659880786948438e+01
-1.1125721167720103e+01 1.1125721167720103e+01
-1.1125721167720103e+01 1.1125721167720103e+01
ITEM: ENTRIES index c_dphi
1 -174.727 
2 61.894 
3 -55.7936 
4 179.067 
5 61.3799 
6 -57.5537 
7 -68.5432 
8 173.769 
9 54.8356 
10 -20.9699 
11 -140.818 
12 110.516 
13 -121.217 
14 -1.21984 
15 116.835 
16 140.905 
17 137.699 
18 29.5115 
19 -99.4609 
20 -97.8659 
21 153.947 
22 24.9742 
23 18.0648 
24 -90.1226 
25 177.331 
26 57.701 
27 -65.9642 
28 159.661 
29 45.9341 
30 -74.1992 
31 135.474 
32 -106.292 
33 9.22927 
34 168.15 
35 45.4432 
36 -73.0745 
37 -174.094 
38 -49.1922 
39 69.1412 
40 -165.276 
41 75.105 
42 -39.0438 
43 -171.952 
44 73.8994 
45 -52.3323 
46 -54.8163 
47 -168.965 
48 64.8032 
49 23.6376 
50 -87.9888 
51 146.01 
52 34.3834 
53 -99.4941 
54 148.879 
55 -173.266 
56 64.6477 
57 -50.4815 
58 -112.077 
59 -4.18291 
60 -158.648 
61 -31.3177 
62 81.1072 
63 -151.058 
64 76.8284 
65 -29.2269 
66 -161.774 
67 92.1706 
68 -29.6607 
69 -41.7345 
70 -147.79 
71 90.3788 
72 171.481 
73 -59.7539 
74 50.148 
75 169.106 
76 42.3648 
77 -71.1038 
78 169.884 
79 56.4158 
80 -63.3741 
81 -76.9754 
82 169.556 
83 49.7662 
84 179.145 
85 53.0873 
86 -66.3421 
87 168.985 
88 38.5009 
89 -74.3968 
90 -118.388 
91 127.655 
92 8.02677 
93 -101.055 
94 139.317 
95 12.9018 
96 16.8437 
97 -102.784 
98 130.801 
99 -76.9394 
100 33.6094 
101 151.489 
102 -150.225 
103 89.3973 
104 -31.1685 
105 -165.496 
106 64.703 
107 -50.2012 
108 -171.939 
109 73.1563 
110 -42.1382 
111 -55.0547 
112 -169.959 
113 74.7466 
114 -159.405 
115 -37.0213 
116 89.4734 
ITEM: TIMESTEP
48500
ITEM: NUMBER OF ENTRIES
116
ITEM: BOX BOUNDS pp pp pp
-2.1659880786948438e+01 2.1659880786948438e+01
-1.1125721167720103e+01 1.1125721167720103e+01
-1.1125721167720103e+01 1.1125721167720103e+01
ITEM: ENTRIES index c_dphi
1 -164.825 
2 73.3009 
3 -43.3749 
4 -167.411 
5 75.9132 
6 -45.5366 
7 -63.3421 
8 179.982 
9 58.5323 
10 99.8252 
11 -15.2237 
12 -131.268 
13 -132.387 
14 -11.0279 
15 103.645 
16 128.036 
17 129.003 
18 2.31305 
19 -114.003 
20 -109.685 
21 123.626 
22 7.3092 
23 11.0424 
24 -115.647 
25 170.695 
26 55.1645 
27 -71.0104 
28 162.39 
29 37.0152 
30 -78.4957 
31 133.962 
32 -109.835 
33 13.7206 
34 -167.572 
35 67.5361 
36 -50.3795 
37 -179.971 
38 -66.5417 
39 58.6945 
40 171.3 
41 55.7126 
42 -74.9404 
43 174.48 
44 43.827 
45 -69.9322 
46 -64.0732 
47 165.274 
48 51.5145 
49 20.6668 
50 -106.148 
51 150.691 
52 23.8761 
53 -91.1794 
54 142.006 
55 -170.234 
56 71.9874 
57 -50.0655 
58 -96.877 
59 24.3867 
60 -163.609 
61 -44.805 
62 73.2774 
63 172.655 
64 55.9411 
65 -67.2303 
66 172.592 
67 49.4205 
68 -70.6943 
69 -62.833 
70 173.996 
71 53.8807 
72 -147.654 
73 -19.2497 
74 89.5011 
75 -175.944 
76 54.118 
77 -51.9403 
78 177.97 
79 71.9113 
80 -52.0928 
81 -66.0835 
82 -172.142 
83 63.8541 
84 -175.626 
85 62.932 
86 -54.244 
87 -177.002 
88 60.3405 
89 -54.7701 
90 -138.451 
91 103.943 
92 -16.1271 
93 -137.66 
94 102.269 
95 -20.0545 
96 -17.5465 
97 -137.617 
98 100.059 
99 -93.7329 
100 21.8218 
101 143.174 
102 -171.676 
103 68.7313 
104 -54.8788 
105 163.049 
106 39.623 
107 -89.3716 
108 165.141 
109 36.1467 
110 -71.4327 
111 -79.375 
112 151.631 
113 44.0511 
114 123.399 
115 -110.04 
116 8.21161 
ITEM: TIMESTEP
48600
ITEM: NUMBER OF ENTRIES
116
ITEM: BOX BOUNDS pp pp pp
-2.1659880786948438e+01 2.1659880786948438e+01
-1.1125721167720103e+01 1.1125721167720103e+01
-1.1125721167720103e+01 1.1125721167720103e+01
ITEM: ENTRIES index c_dphi
1 165.347 
2 49.3424 
3 -71.9295 
4 167.66 
5 46.3877 
6 -76.3361 
7 -73.4678 
8 165.26 
9 42.5365 
10 68.0014 
11 -51.1936 
12 -165.136 
13 152.616 
14 -85.9266 
15 29.3968 
16 150.036 
17 148.247 
18 23.7837 
19 -94.8115 
20 -91.2469 
21 144.29 
22 25.6946 
23 33.0943 
24 -91.369 
25 161.229 
26 48.421 
27 -69.1452 
28 -160.052 
29 72.8192 
30 -50.6119 
31 169.214 
32 -68.7191 
33 60.1432 
34 165.109 
35 49.035 
36 -67.6254 
37 152.983 
38 -83.7338 
39 29.7865 
40 162.752 
41 37.6866 
42 -75.1961 
43 162.52 
44 49.637 
45 -72.4154 
46 -75.0403 
47 172.077 
48 50.0247 
49 41.0856 
50 -81.5091 
51 158.125 
52 35.5307 
53 -80.6285 
54 156.777 
55 179.668 
56 50.9576 
57 -58.4071 
58 -51.1749 
59 73.1475 
60 -171.987 
61 -54.7634 
62 63.3267 
63 103.908 
64 -15.6295 
65 -135.605 
66 113.099 
67 -6.87659 
68 -127.363 
69 -138.298 
70 101.726 
71 -18.7606 
72 -154.093 
73 -35.6874 
74 90.4475 
75 -175.75 
76 60.0945 
77 -57.635 
78 176.288 
79 58.5583 
80 -59.5572 
81 -64.1447 
82 178.126 
83 60.0104 
84 -131.562 
85 114.824 
86 -6.41159 
87 -157.444 
88 93.0407 
89 -23.538 
90 -158.18 
91 82.3403 
92 -37.2501 
93 -170.068 
94 70.3415 
95 -50.588 
96 -54.8261 
97 -174.417 
98 64.6541 
99 -106.413 
100 14.9226 
101 129.879 
102 -172.612 
103 75.9501 
104 -56.9399 
105 -179.078 
106 65.9245 
107 -71.5545 
108 175.098 
109 37.6189 
110 -69.9051 
111 -53.6759 
112 168.845 
113 61.3212 
114 85.6906 
115 -153.092 
116 -31.014 
ITEM: TIMESTEP
48700
ITEM: NUMBER OF ENTRIES
116
ITEM: BOX BOUNDS pp pp pp
-2.1659880786948438e+01 2.1659880786948438e+01
-1.1125721167720103e+01 1.1125721167720103e+01
-1.1125721167720103e+01 1.1125721167720103e+01
ITEM: ENTRIES index c_dphi
1 129.393 
2 9.65832 
3 -117.898 
4 130.895 
5 3.33861 
6 -109.37 
7 -109.755 
8 122.689 
9 9.98013 
10 68.5252 
11 -44.0997 
12 -168.702 
13 132.802 
14 -107.754 
15 12.7501 
16 -178.386 
17 177.956 
18 67.4227 
19 -59.8935 
20 -68.066 
21 -178.6 
22 54.0841 
23 59.4639 
24 -51.0699 
25 146.832 
26 33.4364 
27 -83.8821 
28 170.836 
29 47.1826 
30 -80.1952 
31 -160.462 
32 -45.7259 
33 77.1191 
34 122.159 
35 -0.828114 
36 -115.541 
37 -179.257 
38 -51.142 
39 67.6381 
40 -173.278 
41 60.8386 
42 -49.5274 
43 -175.197 
44 74.437 
45 -49.3133 
46 -54.2214 
47 -164.587 
48 71.6622 
49 32.5041 
50 -92.1247 
51 147.822 
52 23.193 
53 -92.2277 
54 143.144 
55 168.625 
56 48.6178 
57 -74.0977 
58 -55.4399 
59 64.5244 
60 -165.468 
61 -43.0057 
62 78.0234 
63 140.719 
64 28.3622 
65 -107.133 
66 150.714 
67 15.2188 
68 -96.9299 
69 -83.7718 
70 140.733 
71 28.5845 
72 170.25 
73 -74.7581 
74 51.7672 
75 179.301 
76 58.7477 
77 -58.6129 
78 175.714 
79 58.3536 
80 -63.7325 
81 -62.0185 
82 -179.379 
83 58.5348 
84 -136.316 
85 103.957 
86 -25.0699 
87 -175.523 
88 65.5308 
89 -56.1288 
90 -136.549 
91 101.505 
92 -14.9549 
93 -142.247 
94 101.293 
95 -20.3009 
96 -23.194 
97 -139.654 
98 98.7519 
99 -90.3154 
100 34.7492 
101 143.697 
102 -167.266 
103 75.9351 
104 -50.7179 
105 162.707 
106 37.8193 
107 -81.0569 
108 152.631 
109 33.7551 
110 -82.4807 
111 -86.1404 
112 154.983 
113 38.7475 
114 -139.652 
115 -14.5619 
116 99.6953 
ITEM: TIMESTEP
48800
ITEM: NUMBER OF ENTRIES
116
ITEM: BOX BOUNDS pp pp pp
-2.1659880786948438e+01 2.1659880786948438e+01
-1.1125721167720103e+01 1.1125721167720103e+01
-1.1125721167720103e+01 1.1125721167720103e+01
ITEM: ENTRIES index c_dphi
1 153.186 
2 32.7591 
3 -85.671 
4 156.69 
5 38.26 
6 -82.8829 
7 -90.8309 
8 150.739 
9 29.5962 
10 -7.88536 
11 -125.467 
12 104.814 
13 174.769 
14 -68.2942 
15 51.4102 
16 154.368 
17 151.969 
18 43.3357 
19 -88.5985 
20 -89.0721 
21 162.295 
22 30.3605 
23 34.9349 
24 -73.6983 
25 -166.937 
26 78.2216 
27 -45.3067 
28 -170.913 
29 68.9003 
30 -45.4229 
31 140.417 
32 -100.156 
33 7.22614 
34 125.571 
35 6.18225 
36 -111.311 
37 155.237 
38 -85.165 
39 35.2396 
40 -131.69 
41 105.589 
42 -16.0283 
43 -138.651 
44 99.7315 
45 -15.93 
46 -18.578 
47 -140.195 
48 104.143 
49 16.7656 
50 -85.5174 
51 140.42 
52 38.137 
53 -101.32 
54 156.397 
55 171.263 
56 57.4831 
57 -63.348 
58 -75.0018 
59 29.2281 
60 -177.142 
61 -59.7347 
62 59.1942 
63 162.87 
64 44.5306 
65 -73.731 
66 160.544 
67 42.2822 
68 -81.1168 
69 -83.1358 
70 158.603 
71 35.2037 
72 -171.054 
73 -56.6089 
74 69.6599 
75 -145.707 
76 92.4324 
77 -19.3235 
78 -139.452 
79 108.792 
80 -17.5914 
81 -25.2631 
82 -137.019 
83 96.598 
84 -153.05 
85 84.9316 
86 -37.9016 
87 177.041 
88 43.5862 
89 -64.4703 
90 -127.162 
91 116.083 
92 -6.02642 
93 -116.287 
94 121.604 
95 0.468153 
96 6.9151 
97 -115.195 
98 123.67 
99 -124.141 
100 -11.9212 
101 115.186 
102 176.655 
103 45.1276 
104 -63.9189 
105 -174.139 
106 57.7041 
107 -67.5684 
108 -169.591 
109 65.136 
110 -41.435 
111 -58.2703 
112 176.457 
113 69.8861 
114 -151.213 
115 -24.67 
116 90.7012 
ITEM: TIMESTEP
48900
ITEM: NUMBER OF ENTRIES
116
ITEM: BOX BOUNDS pp pp pp
-2.1659880786948438e+01 2.1659880786948438e+01
-1.1125721167720103e+01 1.1125721167720103e+01
-1.1125721167720103e+01 1.1125721167720103e+01
ITEM: ENTRIES index c_dphi
1 -170.886 
2 62.8622 
3 -53.3259 
4 -177.208 
5 66.6042 
6 -50.9559 
7 -64.6842 
8 179.128 
9 61.5677 
10 -59.3169 
11 -177.66 
12 67.4053 
13 -160.928 
14 -34.4515 
15 83.0624 
16 165.151 
17 168.449 
18 48.4863 
19 -69.0521 
20 -80.2071 
21 159.83 
22 42.2914 
23 42.653 
24 -77.3101 
25 163.483 
26 37.7603 
27 -72.4261 
28 171.311 
29 53.7194 
30 -63.9924 
31 -164.525 
32 -38.3685 
33 84.4728 
34 154.561 
35 33.7992 
36 -83.1261 
37 147.955 
38 -90.6635 
39 23.2685 
40 172.431 
41 55.467 
42 -63.2487 
43 172.1 
44 53.3844 
45 -70.9359 
46 -65.959 
47 175.325 
48 51.005 
49 44.8709 
50 -75.7729 
51 163.965 
52 43.3212 
53 -76.8661 
54 162.49 
55 174.828 
56 53.3944 
57 -63.1094 
58 -79.4577 
59 43.0558 
60 156.656 
61 -77.2402 
62 42.6862 
63 147.904 
64 24.161 
65 -100.317 
66 143.298 
67 18.8207 
68 -92.9584 
69 -95.0895 
70 140.433 
71 28.6539 
72 -150.629 
73 -21.3893 
74 95.6438 
75 -145.065 
76 86.2988 
77 -27.0988 
78 -145.33 
79 101.273 
80 -16.6937 
81 -31.5536 
82 -144.951 
83 97.0822 
84 178.218 
85 59.7212 
86 -66.9721 
87 -152.808 
88 80.8966 
89 -34.8076 
90 -142.681 
91 100.466 
92 -20.7118 
93 -134.387 
94 104.435 
95 -17.534 
96 -19.206 
97 -140.384 
98 97.6466 
99 -151.839 
100 -30.4871 
101 81.192 
102 164.762 
103 40.4045 
104 -66.6221 
105 172.611 
106 41.9899 
107 -70.6105 
108 163.255 
109 50.6544 
110 -66.1237 
111 -76.8524 
112 170.547 
113 53.769 
114 -49.149 
115 77.2407 
116 -169 
ITEM: TIMESTEP
49000
ITEM: NUMBER OF ENTRIES
116
ITEM: BOX BOUNDS pp pp pp
-2.1659880786948438e+01 2.1659880786948438e+01
-1.1125721167720103e+01 1.1125721167720103e+01
-1.1125721167720103e+01 1.1125721167720103e+01
ITEM: ENTRIES index c_dphi
1 -177.002 
2 65.0924 
3 -55.3234 
4 -176.424 
5 63.1601 
6 -58.5189 
7 -61.6643 
8 177.92 
9 56.241 
10 -33.3895 
11 -154.061 
12 92.8078 
13 -149.564 
14 -25.7275 
15 92.8998 
16 103.122 
17 97.4858 
18 -12.7268 
19 -132.974 
20 -144.322 
21 105.466 
22 -14.7819 
23 -26.4174 
24 -136.63 
25 159.833 
26 37.6307 
27 -78.9936 
28 -172.858 
29 64.7129 
30 -53.7645 
31 174.794 
32 -61.4634 
33 54.0058 
34 171.324 
35 42.8044 
36 -70.1379 
37 -166.467 
38 -46.4885 
39 68.8176 
40 175.234 
41 62.7129 
42 -64.278 
43 -173.332 
44 59.6773 
45 -60.811 
46 -60.1891 
47 172.82 
48 52.3317 
49 66.7183 
50 -54.4204 
51 -164.964 
52 73.8977 
53 -58.2856 
54 -179.424 
55 162.313 
56 42.201 
57 -68.9946 
58 -70.0155 
59 47.7128 
60 158.874 
61 -85.48 
62 35.8894 
63 150.176 
64 32.693 
65 -81.9283 
66 146.246 
67 31.6245 
68 -96.2716 
69 -97.9108 
70 147.468 
71 19.5717 
72 -155.605 
73 -31.0554 
74 91.5078 
75 -168.372 
76 62.7116 
77 -55.6797 
78 178.597 
79 60.2054 
80 -52.4871 
81 -60.5128 
82 -178.904 
83 68.4034 
84 164.765 
85 43.7704 
86 -74.5577 
87 -151.046 
88 94.3901 
89 -25.9373 
90 -167.31 
91 75.0163 
92 -50.9284 
93 -177.369 
94 56.6865 
95 -59.6949 
96 -53.046 
97 -178.991 
98 64.628 
99 -173.33 
100 -51.4251 
101 69.0522 
102 -154.682 
103 93.2462 
104 -12.0938 
105 -163.862 
106 61.347 
107 -43.7498 
108 162.846 
109 57.7494 
110 -62.3631 
111 -74.9951 
112 179.908 
113 59.7956 
114 -79.2421 
115 54.0727 
116 166.548 
ITEM: TIMESTEP
49100
ITEM: NUMBER OF ENTRIES
116
ITEM: BOX BOUNDS pp pp pp
-2.1659880786948438e+01 2.1659880786948438e+01
-1.1125721167720103e+01 1.1125721167720103e+01
-1.1125721167720103e+01 1.1125721167720103e+01
ITEM: ENTRIES index c_dphi
1 175.389 
2 52.7024 
3 -62.2193 
4 169.036 
5 54.1139 
6 -68.2774 
7 -72.0243 
8 173.054 
9 50.6628 
10 -86.9748 
11 158.293 
12 30.6394 
13 142.121 
14 -98.4468 
15 18.3572 
16 141.266 
17 139.332 
18 24.0146 
19 -101.004 
20 -98.6468 
21 146.036 
22 21.0174 
23 21.6022 
24 -93.7153 
25 147.916 
26 30.7945 
27 -90.7803 
28 178.197 
29 50.8246 
30 -68.4332 
31 -164.468 
32 -46.6077 
33 67.3507 
34 174.826 
35 54.4449 
36 -63.704 
37 -168.425 
38 -55.4113 
39 63.1964 
40 150.297 
41 39.1566 
42 -87.9703 
43 164.364 
44 37.2375 
45 -84.4948 
46 -75.1005 
47 157.773 
48 36.0403 
49 64.6861 
50 -53.452 
51 -172.533 
52 69.3293 
53 -55.9421 
54 -174.08 
55 176.288 
56 53.9338 
57 -66.7839 
58 -58.2345 
59 51.8387 
60 -161.541 
61 -36.3697 
62 82.5396 
63 179.212 
64 56.9241 
65 -66.0869 
66 177.243 
67 54.2318 
68 -60.4695 
69 -53.044 
70 -176.055 
71 69.2436 
72 161.899 
73 -82.931 
74 40.9071 
75 169.792 
76 52.6814 
77 -66.2322 
78 160.483 
79 41.5699 
80 -82.4057 
81 -78.0283 
82 163.058 
83 39.0825 
84 -158.96 
85 92.3663 
86 -30.8969 
87 -163.092 
88 76.6169 
89 -34.447 
90 -154.692 
91 85.6583 
92 -38.8967 
93 -155.945 
94 79.4999 
95 -36.2954 
96 -42.302 
97 -166.857 
98 77.3478 
99 -173.533 
100 -52.7796 
101 70.197 
102 169.201 
103 39.3889 
104 -69.1458 
105 174.121 
106 56.6398 
107 -67.8322 
108 177.947 
109 53.475 
110 -64.5718 
111 -60.8292 
112 174.699 
113 56.652 
114 -60.7448 
115 55.7009 
116 178.701 
ITEM: TIMESTEP
49200
ITEM: NUMBER OF ENTRIES
116
ITEM: BOX BOUNDS pp pp pp
-2.1659880786948438e+01 2.1659880786948438e+01
-1.1125721167720103e+01 1.1125721167720103e+01
-1.1125721167720103e+01 1.1125721167720103e+01
ITEM: ENTRIES index c_dphi
1 158.433 
2 30.1689 
3 -90.0086 
4 151.015 
5 30.8372 
6 -80.7208 
7 -95.4108 
8 144.412 
9 32.8536 
10 -64.2634 
11 171.51 
12 58.7655 
13 148.523 
14 -84.8711 
15 30.3176 
16 166.555 
17 175.559 
18 55.5875 
19 -70.2329 
20 -70.6278 
21 169.401 
22 43.5805 
23 52.3469 
24 -67.6244 
25 156.928 
26 30.8945 
27 -80.7758 
28 -177.414 
29 58.784 
30 -61.0385 
31 -166.248 
32 -50.2052 
33 69.7983 
34 172.025 
35 53.7306 
36 -66.5919 
37 160.415 
38 -78.3992 
39 43.7967 
40 151.656 
41 29.6344 
42 -81.6999 
43 146.318 
44 34.9841 
45 -91.6597 
46 -87.5415 
47 161.124 
48 34.4804 
49 48.3276 
50 -60.6487 
51 162.605 
52 53.6291 
53 -73.3887 
54 177.635 
55 -164.627 
56 72.1987 
57 -50.1349 
58 -67.1926 
59 45.9798 
60 -166.853 
61 -50.6805 
62 70.8041 
63 -154.964 
64 85.8888 
65 -34.4161 
66 -150.632 
67 89.0633 
68 -31.4845 
69 -36.0867 
70 -156.392 
71 83.0606 
72 -170.217 
73 -54.9193 
74 66.2489 
75 -159.29 
76 83.0066 
77 -31.9205 
78 -154.872 
79 90.2011 
80 -37.1681 
81 -35.0232 
82 -149.95 
83 82.6806 
84 -168.384 
85 72.4217 
86 -51.7958 
87 155.884 
88 31.2719 
89 -86.6932 
90 163.599 
91 43.1604 
92 -77.286 
93 173.902 
94 53.4555 
95 -65.6597 
96 -75.7866 
97 163.767 
98 44.6519 
99 -163.353 
100 -40.8903 
101 73.4798 
102 -168.317 
103 58.0294 
104 -49.0076 
105 -175.731 
106 62.5992 
107 -43.7858 
108 -169.764 
109 83.8508 
110 -48.0949 
111 -54.0897 
112 -160.475 
113 67.5796 
114 -65.9085 
115 49.3141 
116 161.669 
ITEM: TIMESTEP
49300
ITEM: NUMBER OF ENTRIES
116
ITEM: BOX BOUNDS pp pp pp
-2.1659880786948438e+01 2.1659880786948438e+01
-1.1125721167720103e+01 1.1125721167720103e+01
-1.1125721167720103e+01 1.1125721167720103e+01
ITEM: ENTRIES index c_dphi
1 -168.649 
2 65.4707 
3 -50.558 
4 -179.468 
5 64.5028 
6 -53.5879 
7 -68.1685 
8 175.803 
9 57.712 
10 -73.2703 
11 162.652 
12 52.9389 
13 -149.856 
14 -29.177 
15 88.5056 
16 141.143 
17 145.503 
18 18.5799 
19 -95.9434 
20 -93.9229 
21 139.154 
22 24.6306 
23 22.5894 
24 -104.334 
25 -145.707 
26 87.3975 
27 -29.7403 
28 168.574 
29 55.5287 
30 -66.4396 
31 134.459 
32 -105.629 
33 15.5959 
34 -176.045 
35 58.591 
36 -64.3268 
37 168.757 
38 -61.696 
39 61.851 
40 151.723 
41 20.7605 
42 -91.5068 
43 133.14 
44 20.8726 
45 -95.8974 
46 -103.915 
47 143.818 
48 27.0481 
49 36.4859 
50 -83.5728 
51 160.671 
52 40.6128 
53 -76.8652 
54 163.076 
55 -178.741 
56 60.1583 
57 -57.592 
58 -43.4815 
59 78.7592 
60 152.519 
61 -85.5321 
62 27.4624 
63 172.282 
64 62.6034 
65 -62.0332 
66 -175.024 
67 60.3391 
68 -65.3462 
69 -54.4934 
70 -179.13 
71 55.1848 
72 169.322 
73 -65.2159 
74 49.1456 
75 -155.623 
76 78.6528 
77 -33.3773 
78 -145.462 
79 102.508 
80 -19.7373 
81 -32.2482 
82 -144.278 
83 93.4765 
84 -177.128 
85 44.9504 
86 -66.7829 
87 -167.587 
88 67.7244 
89 -48.9658 
90 -137.366 
91 107.738 
92 -11.9755 
93 -128.785 
94 111.501 
95 -13.8889 
96 -6.66168 
97 -126.375 
98 108.234 
99 -144.803 
100 -31.2791 
101 84.4558 
102 -174.252 
103 65.4426 
104 -44.3877 
105 163.235 
106 53.7148 
107 -59.9793 
108 167.753 
109 54.0588 
110 -82.727 
111 -72.7185 
112 173.587 
113 36.8015 
114 -60.4539 
115 50.3726 
116 165.852 
ITEM: TIMESTEP
49400
ITEM: NUMBER OF ENTRIES
116
ITEM: BOX BOUNDS pp pp pp
-2.1659880786948438e+01 2.1659880786948438e+01
-1.1125721167720103e+01 1.1125721167720103e+01
-1.1125721167720103e+01 1.1125721167720103e+01
ITEM: ENTRIES index c_dphi
1 -162.817 
2 65.0969 
3 -47.5499 
4 178.742 
5 66.0954 
6 -49.1718 
7 -60.4373 
8 -173.084 
9 71.6488 
10 -58.7217 
11 178.771 
12 54.3296 
13 -134.528 
14 -6.72615 
15 111.874 
16 148.938 
17 138.341 
18 20.9322 
19 -94.2874 
20 -96.3836 
21 146.208 
22 30.9884 
23 21.5665 
24 -95.8419 
25 -161.273 
26 82.7487 
27 -39.2067 
28 159.339 
29 48.3399 
30 -73.1662 
31 158.766 
32 -77.1472 
33 37.4392 
34 147.583 
35 28.82 
36 -91.678 
37 174.384 
38 -58.9873 
39 59.2515 
40 166.616 
41 42.8992 
42 -85.6343 
43 161.311 
44 32.7774 
45 -74.9723 
46 -86.3713 
47 145.095 
48 37.3455 
49 46.4425 
50 -66.4697 
51 169.064 
52 56.1519 
53 -76.2218 
54 170.866 
55 154.285 
56 23.8342 
57 -88.3842 
58 -28.3016 
59 89.4487 
60 154.959 
61 -83.6394 
62 28.6256 
63 152.388 
64 32.877 
65 -87.6693 
66 162.896 
67 42.3497 
68 -77.5929 
69 -82.8703 
70 156.583 
71 36.6409 
72 170.234 
73 -67.3956 
74 50.5106 
75 -167.878 
76 70.4808 
77 -45.1072 
78 -157.724 
79 86.6884 
80 -36.082 
81 -45.0034 
82 -160.591 
83 76.6382 
84 -164.632 
85 71.4918 
86 -44.3445 
87 -156.948 
88 81.2927 
89 -33.7667 
90 -144.015 
91 91.9071 
92 -24.1174 
93 -151.373 
94 92.6025 
95 -27.2952 
96 -34.3561 
97 -150.381 
98 89.7216 
99 -132.365 
100 -4.73162 
101 107.762 
102 -154.617 
103 81.4953 
104 -30.7798 
105 -161.858 
106 86.6495 
107 -38.4961 
108 -151.404 
109 83.4501 
110 -39.9117 
111 -28.7416 
112 -153.887 
113 82.7511 
114 -85.0181 
115 23.1662 
116 157.126 
ITEM: TIMESTEP
49500
ITEM: NUMBER OF ENTRIES
116
ITEM: BOX BOUNDS pp pp pp
-2.1659880786948438e+01 2.1659880786948438e+01
-1.1125721167720103e+01 1.1125721167720103e+01
-1.1125721167720103e+01 1.1125721167720103e+01
ITEM: ENTRIES index c_dphi
1 137.918 
2 12.5709 
3 -108.576 
4 131.977 
5 10.83 
6 -102.676 
7 -107.383 
8 131.47 
9 17.964 
10 86.6121 
11 -36.7678 
12 -165.348 
13 168.9 
14 -65.1814 
15 58.2726 
16 149.009 
17 144.453 
18 29.7266 
19 -93.7311 
20 -87.1161 
21 158.157 
22 34.6995 
23 27.1936 
24 -87.5331 
25 175.988 
26 53.669 
27 -68.3792 
28 -140.934 
29 105.226 
30 -14.1379 
31 169.127 
32 -69.2634 
33 53.4071 
34 159.277 
35 48.4599 
36 -69.6679 
37 178.138 
38 -62.1534 
39 54.1871 
40 -156.533 
41 83.9785 
42 -38.8462 
43 -156.42 
44 80.7553 
45 -36.9311 
46 -43.6074 
47 -166.432 
48 75.8815 
49 52.317 
50 -54.4304 
51 159.652 
52 52.9047 
53 -78.3782 
54 174.874 
55 159.217 
56 35.6062 
57 -78.8061 
58 -85.0001 
59 29.6099 
60 173.676 
61 -71.894 
62 43.5503 
63 -167.958 
64 78.3271 
65 -36.3557 
66 -156.066 
67 89.2513 
68 -42.3513 
69 -35.674 
70 -150.357 
71 78.0405 
72 -178.699 
73 -58.1522 
74 60.6088 
75 172.441 
76 52.1112 
77 -65.2537 
78 171.333 
79 53.9685 
80 -68.3365 
81 -67.6319 
82 175.003 
83 52.6982 
84 179.542 
85 61.6247 
86 -66.919 
87 -139.303 
88 97.8326 
89 -15.6715 
90 -141.47 
91 95.7023 
92 -26.7561 
93 -143.249 
94 94.2925 
95 -20.421 
96 -25.5863 
97 -148.045 
98 97.2419 
99 -145.942 
100 -21.4578 
101 97.1381 
102 -166.773 
103 67.2857 
104 -49.6205 
105 168.869 
106 61.01 
107 -62.5294 
108 -166.909 
109 69.5519 
110 -59.0493 
111 -49.8805 
112 -173.42 
113 57.9788 
114 -70.6952 
115 37.1236 
116 163.654 
ITEM: TIMESTEP
49600
ITEM: NUMBER OF ENTRIES
116
ITEM: BOX BOUNDS pp pp pp
-2.1659880786948438e+01 2.1659880786948438e+01
-1.1125721167720103e+01 1.1125721167720103e+01
-1.1125721167720103e+01 1.1125721167720103e+01
ITEM: ENTRIES index c_dphi
1 177.637 
2 66.7825 
3 -55.1388 
4 -176.822 
5 61.2568 
6 -65.9678 
7 -63.6112 
8 174.468 
9 47.2429 
10 -147.12 
11 94.4722 
12 -30.9061 
13 156.303 
14 -88.4764 
15 38.1319 
16 -178.807 
17 -175.804 
18 59.9751 
19 -65.0611 
20 -41.0901 
21 -165.311 
22 69.6528 
23 70.4499 
24 -53.771 
25 -172.01 
26 67.0938 
27 -58.099 
28 -168.401 
29 68.3458 
30 -45.7912 
31 174.226 
32 -76.6424 
33 50.5932 
34 -158.496 
35 79.3923 
36 -41.7139 
37 -162.74 
38 -43.0932 
39 71.4595 
40 -165.345 
41 86.1976 
42 -39.9468 
43 -149.507 
44 84.3482 
45 -41.0502 
46 -37.5653 
47 -163.71 
48 70.892 
49 39.5808 
50 -76.4773 
51 153.894 
52 37.8361 
53 -84.6208 
54 159.321 
55 177.741 
56 51.8903 
57 -66.7803 
58 -107.459 
59 12.0697 
60 175.439 
61 -69.2166 
62 55.0029 
63 -165.464 
64 77.2349 
65 -38.3308 
66 -159.194 
67 85.2401 
68 -41.8933 
69 -36.2221 
70 -151.788 
71 81.0789 
72 174.408 
73 -65.2181 
74 57.1836 
75 174.545 
76 55.6896 
77 -68.6626 
78 173.308 
79 48.9555 
80 -67.8373 
81 -69.2147 
82 166.433 
83 49.6404 
84 176.472 
85 60.723 
86 -60.9558 
87 -165.231 
88 67.3696 
89 -50.2252 
90 -157.384 
91 80.7201 
92 -35.5668 
93 -149.848 
94 93.865 
95 -27.9527 
96 -31.8184 
97 -148.105 
98 90.077 
99 -169.933 
100 -46.8029 
101 64.8418 
102 -152.205 
103 84.9902 
104 -33.8839 
105 -179.195 
106 70.6189 
107 -36.5131 
108 -162.916 
109 89.9515 
110 -52.7304 
111 -43.5405 
112 -150.673 
113 66.6455 
114 40.8554 
115 151.981 
116 -93.2987 
ITEM: TIMESTEP
49700
ITEM: NUMBER OF ENTRIES
116
ITEM: BOX BOUNDS pp pp pp
-2.1659880786948438e+01 2.1659880786948438e+01
-1.1125721167720103e+01 1.1125721167720103e+01
-1.1125721167720103e+01 1.1125721167720103e+01
ITEM: ENTRIES index c_dphi
1 -164.895 
2 73.003 
3 -45.9068 
4 -162.194 
5 78.8962 
6 -40.092 
7 -45.3324 
8 -164.242 
9 76.7697 
10 -129.956 
11 106.278 
12 -14.4774 
13 172.923 
14 -68.7176 
15 60.3667 
16 -159.286 
17 -158.438 
18 93.4909 
19 -43.7817 
20 -29.0864 
21 -137.157 
22 85.5702 
23 86.0578 
24 -22.0129 
25 -169.405 
26 69.2306 
27 -50.1766 
28 168.625 
29 47.3709 
30 -72.5979 
31 174.65 
32 -68.2307 
33 45.7289 
34 167.552 
35 49.9168 
36 -67.9841 
37 -167.57 
38 -50.5451 
39 73.6789 
40 -166.301 
41 78.3443 
42 -50.6329 
43 -158.539 
44 72.484 
45 -43.1844 
46 -41.2109 
47 -170.188 
48 74.1436 
49 39.1614 
50 -79.5284 
51 162.475 
52 43.7847 
53 -78.6202 
54 162.69 
55 163.031 
56 35.8514 
57 -82.9879 
58 -95.9861 
59 24.036 
60 175.943 
61 -59.8974 
62 59.9169 
63 -174.686 
64 56.4692 
65 -56.5055 
66 -173.582 
67 73.4434 
68 -44.7367 
69 -52.2527 
70 -165.227 
71 76.5925 
72 172.362 
73 -65.6516 
74 50.2101 
75 -167.703 
76 66.7002 
77 -43.5579 
78 -172.454 
79 77.2881 
80 -46.8569 
81 -55.4751 
82 -165.733 
83 70.1218 
84 -176.375 
85 64.6239 
86 -54.407 
87 178.426 
88 61.7832 
89 -61.2404 
90 -154.533 
91 86.4725 
92 -31.6792 
93 -148.727 
94 93.1215 
95 -29.7324 
96 -34.1699 
97 -152.322 
98 84.8246 
99 -164.531 
100 -40.5604 
101 72.6543 
102 -157.495 
103 80.8096 
104 -41.5001 
105 176.554 
106 63.967 
107 -47.5679 
108 -170.821 
109 77.6441 
110 -58.2337 
111 -51.8199 
112 -163.355 
113 60.7674 
114 -26.3324 
115 87.1463 
116 -152.061 
ITEM: TIMESTEP
49800
ITEM: NUMBER OF ENTRIES
116
ITEM: BOX BOUNDS pp pp pp
-2.1659880786948438e+01 2.1659880786948438e+01
-1.1125721167720103e+01 1.1125721167720103e+01
-1.1125721167720103e+01 1.1125721167720103e+01
ITEM: ENTRIES index c_dphi
1 153.813 
2 31.2773 
3 -92.2965 
4 153.794 
5 30.2204 
6 -83.6705 
7 -81.5934 
8 154.833 
9 40.9419 
10 55.1286 
11 -62.9596 
12 165.965 
13 141.778 
14 -101.505 
15 22.2259 
16 -164.726 
17 -163.341 
18 83.8816 
19 -43.7743 
20 -44.7914 
21 -157.569 
22 74.7748 
23 75.7082 
24 -37.0697 
25 179.718 
26 59.6571 
27 -58.4336 
28 -141.746 
29 91.7034 
30 -32.5707 
31 -170.36 
32 -55.3565 
33 65.6824 
34 150.908 
35 22.0395 
36 -87.0742 
37 174.494 
38 -60.3969 
39 58.0036 
40 -155.599 
41 72.2543 
42 -46.6546 
43 -160.349 
44 80.7421 
45 -28.2028 
46 -44.4533 
47 -163.362 
48 87.693 
49 22.7111 
50 -88.7725 
51 152.859 
52 41.375 
53 -89.7034 
54 158.813 
55 -176.018 
56 71.1244 
57 -47.9688 
58 -87.4856 
59 26.4007 
60 164.612 
61 -83.8232 
62 39.0751 
63 -170.353 
64 80.503 
65 -45.3356 
66 -173.172 
67 60.9891 
68 -64.0288 
69 -42.8199 
70 -168.659 
71 66.3236 
72 -173.451 
73 -49.8481 
74 61.524 
75 -171.603 
76 60.6999 
77 -46.9826 
78 -177.22 
79 75.0972 
80 -49.5231 
81 -54.305 
82 -161.987 
83 73.3923 
84 170.298 
85 48.8761 
86 -74.7531 
87 -171.362 
88 64.154 
89 -45.6228 
90 -159.776 
91 76.3571 
92 -44.9968 
93 -164.453 
94 74.1926 
95 -40.5867 
96 -47.2973 
97 -168.651 
98 76.5695 
99 -168.085 
100 -42.0407 
101 81.4332 
102 175.144 
103 50.264 
104 -78.7652 
105 -178.042 
106 66.1207 
107 -58.2631 
108 -164.155 
109 71.4611 
110 -48.3173 
111 -48.3534 
112 -172.737 
113 67.4843 
114 69.0918 
115 178.13 
116 -37.5932 
ITEM: TIMESTEP
49900
ITEM: NUMBER OF ENTRIES
116
ITEM: BOX BOUNDS pp pp pp
-2.1659880786948438e+01 2.1659880786948438e+01
-1.1125721167720103e+01 1.1125721167720103e+01
-1.1125721167720103e+01 1.1125721167720103e+01
ITEM: ENTRIES index c_dphi
1 -168.355 
2 80.3929 
3 -35.6049 
4 -154.23 
5 89.7722 
6 -42.9784 
7 -37.223 
8 -153.221 
9 74.0287 
10 89.9341 
11 -29.5794 
12 -157.62 
13 -170.586 
14 -61.3589 
15 52.8639 
16 164.485 
17 163.269 
18 28.0432 
19 -78.7106 
20 -77.3665 
21 147.407 
22 40.6536 
23 46.4652 
24 -88.7608 
25 151.053 
26 37.9384 
27 -83.4048 
28 -140.573 
29 90.6503 
30 -27.9794 
31 -170.272 
32 -48.5741 
33 72.4978 
34 -161.229 
35 69.7008 
36 -50.1814 
37 168.434 
38 -70.5431 
39 44.7978 
40 177.486 
41 57.2185 
42 -58.3275 
43 -177.311 
44 67.1434 
45 -57.0436 
46 -61.6826 
47 -177.228 
48 58.5846 
49 52.9057 
50 -62.5016 
51 173.556 
52 58.1492 
53 -62.1187 
54 -177.526 
55 166.411 
56 36.4031 
57 -79.148 
58 -87.4547 
59 31.2145 
60 -166.47 
61 -36.7386 
62 77.1095 
63 179.393 
64 48.3718 
65 -69.8004 
66 178.047 
67 59.8749 
68 -50.9313 
69 -60.4083 
70 -178.58 
71 70.6133 
72 179.707 
73 -63.4385 
74 57.5967 
75 136.846 
76 16.4663 
77 -98.0836 
78 143.274 
79 28.7244 
80 -96.3463 
81 -97.8521 
82 147.598 
83 22.5272 
84 159.11 
85 38.7112 
86 -83.9563 
87 -165.2 
88 70.9888 
89 -47.538 
90 -165.695 
91 65.1254 
92 -50.2118 
93 -170.434 
94 74.2287 
95 -41.254 
96 -54.7582 
97 -170.095 
98 74.4219 
99 -163.478 
100 -31.5747 
101 83.4921 
102 167.89 
103 48.1369 
104 -81.3272 
105 172.072 
106 56.2257 
107 -65.5625 
108 174.096 
109 52.3081 
110 -70.0578 
111 -60.1384 
112 178.073 
113 55.7074 
114 -155.614 
115 -42.787 
116 91.3432 
ITEM: TIMESTEP
50000
ITEM: NUMBER OF ENTRIES
116
ITEM: BOX BOUNDS pp pp pp
-2.1659880786948438e+01 2.1659880786948438e+01
-1.1125721167720103e+01 1.1125721167720103e+01
-1.1125721167720103e+01 1.1125721167720103e+01
ITEM: ENTRIES index c_dphi
1 169.495 
2 53.8362 
3 -68.9925 
4 -175.07 
5 62.1014 
6 -59.4111 
7 -57.4819 
8 179.689 
9 58.1768 
10 74.692 
11 -53.2075 
12 -168.925 
13 171.927 
14 -66.3442 
15 50.1654 
16 -130.419 
17 -128.997 
18 110.343 
19 -6.08515 
20 -14.9329 
21 -135.593 
22 107.979 
23 106.669 
24 -13.9912 
25 -159.971 
26 75.3863 
27 -39.9612 
28 167.587 
29 40.2155 
30 -69.9821 
31 167.768 
32 -64.1587 
33 53.549 
34 169.143 
35 48.9455 
36 -70.3873 
37 -178.754 
38 -61.5218 
39 54.7672 
40 -150.782 
41 95.0915 
42 -17.9167 
43 -143.64 
44 103.352 
45 -29.5139 
46 -25.6572 
47 -138.665 
48 88.469 
49 29.6046 
50 -96.8909 
51 151.543 
52 25.0476 
53 -79.8597 
54 153.645 
55 -173.631 
56 66.6128 
57 -50.8402 
58 -89.607 
59 39.495 
60 175.147 
61 -71.8599 
62 49.5821 
63 176.964 
64 70.8336 
65 -58.4699 
66 -175.325 
67 55.372 
68 -69.1946 
69 -51.3469 
70 179.35 
71 54.7831 
72 179.603 
73 -63.9237 
74 59.2924 
75 151.925 
76 33.274 
77 -85.8385 
78 151.576 
79 32.464 
80 -89.7728 
81 -96.3453 
82 144.542 
83 22.3055 
84 169.615 
85 52.9834 
86 -68.4385 
87 -168.822 
88 69.7504 
89 -52.8369 
90 -173.083 
91 61.844 
92 -52.7201 
93 -167.586 
94 77.8501 
95 -42.5126 
96 -48.0953 
97 -162.66 
98 76.9778 
99 -173.857 
100 -48.7966 
101 62.9256 
102 -170.267 
103 69.6632 
104 -54.4508 
105 174.851 
106 54.1409 
107 -63.2401 
108 173.572 
109 56.1909 
110 -65.718 
111 -62.4883 
112 -179.869 
113 58.2217 
114 -170.877 
115 -52.6173 
116 73.3478 
ITEM: TIMESTEP
50100
ITEM: NUMBER OF ENTRIES
116
ITEM: BOX BOUNDS pp pp pp
-2.1659880786948438e+01 2.1659880786948438e+01
-1.1125721167720103e+01 1.1125721167720103e+01
-1.1125721167720103e+01 1.1125721167720103e+01
ITEM: ENTRIES index c_dphi
1 -175.609 
2 64.853 
3 -53.834 
4 -163.082 
5 78.2309 
6 -43.5443 
7 -50.0447 
8 -168.732 
9 69.4931 
10 62.4213 
11 -59.2875 
12 176.011 
13 170.226 
14 -64.4975 
15 46.5602 
16 -138.034 
17 -137.534 
18 112.895 
19 -14.5137 
20 -20.8385 
21 -130.41 
22 102.181 
23 98.9464 
24 -10.6252 
25 170.304 
26 50.2046 
27 -74.5509 
28 -176.639 
29 69.0037 
30 -46.9198 
31 -160.522 
32 -37.8736 
33 77.4347 
34 -172.84 
35 69.8906 
36 -48.741 
37 173.178 
38 -82.4292 
39 34.7032 
40 -178.18 
41 76.3874 
42 -41.4571 
43 -174.68 
44 67.4755 
45 -69.2469 
46 -55.5048 
47 -173.349 
48 49.9282 
49 54.1621 
50 -58.251 
51 170.819 
52 58.406 
53 -71.8627 
54 175.724 
55 160.57 
56 30.6402 
57 -79.0658 
58 -74.588 
59 33.6622 
60 161.58 
61 -73.995 
62 44.5873 
63 139.758 
64 15.6429 
65 -102.193 
66 148.454 
67 30.618 
68 -87.431 
69 -104.743 
70 137.421 
71 19.3722 
72 -173.067 
73 -49.5907 
74 67.9677 
75 -160.296 
76 72.9841 
77 -37.7762 
78 -165.3 
79 83.9398 
80 -38.5796 
81 -50.1876 
82 -160.948 
83 76.5326 
84 -172.783 
85 72.0595 
86 -53.6488 
87 177.25 
88 47.6958 
89 -65.7767 
90 -166.934 
91 76.4419 
92 -46.5776 
93 -154.676 
94 82.3042 
95 -38.052 
96 -36.0098 
97 -159.029 
98 80.6146 
99 173.389 
100 -70.2545 
101 53.5099 
102 -175.322 
103 68.721 
104 -51.6895 
105 -176.047 
106 67.5517 
107 -57.1921 
108 -169.969 
109 65.2869 
110 -53.5684 
111 -53.2446 
112 -177.988 
113 63.1562 
114 165.027 
115 -85.1776 
116 49.3774 
ITEM: TIMESTEP
50200
ITEM: NUMBER OF ENTRIES
116
ITEM: BOX BOUNDS pp pp pp
-2.1659880786948438e+01 2.1659880786948438e+01
-1.1125721167720103e+01 1.1125721167720103e+01
-1.1125721167720103e+01 1.1125721167720103e+01
ITEM: ENTRIES index c_dphi
1 172.623 
2 55.4595 
3 -54.4623 
4 -178.163 
5 71.9148 
6 -60.9997 
7 -56.1826 
8 -166.104 
9 60.9812 
10 58.1492 
11 -62.8144 
12 171.766 
13 139.317 
14 -106.336 
15 7.52151 
16 -125.665 
17 -115.767 
18 124.34 
19 -2.32661 
20 0.433079 
21 -119.46 
22 113.873 
23 120.895 
24 1.00208 
25 179.774 
26 57.8938 
27 -62.6181 
28 175.104 
29 52.6741 
30 -65.0518 
31 -173.649 
32 -63.6937 
33 59.7456 
34 -179.193 
35 60.3212 
36 -61.047 
37 -172.026 
38 -44.0386 
39 72.073 
40 -166.745 
41 71.8105 
42 -43.5994 
43 -173.029 
44 71.5613 
45 -51.5838 
46 -51.9516 
47 -167.361 
48 69.4934 
49 36.2313 
50 -72.2331 
51 155.528 
52 47.0634 
53 -84.8279 
54 166.708 
55 169.8 
56 48.1579 
57 -70.6347 
58 -65.916 
59 40.4588 
60 169.292 
61 -66.6426 
62 44.312 
63 152.342 
64 31.405 
65 -84.4592 
66 148.22 
67 32.3558 
68 -90.8428 
69 -85.0267 
70 159.109 
71 35.9104 
72 -172.315 
73 -40.3735 
74 72.8098 
75 -176.013 
76 51.2268 
77 -58.4143 
78 175.735 
79 66.0943 
80 -51.5038 
81 -65.7779 
82 -175.419 
83 66.9828 
84 168.877 
85 49.3038 
86 -78.1947 
87 -162.182 
88 78.5371 
89 -40.5823 
90 -146.562 
91 94.9054 
92 -22.0285 
93 -145.052 
94 98.0139 
95 -26.52 
96 -32.5072 
97 -149.441 
98 86.0249 
99 174.985 
100 -65.7348 
101 52.4346 
102 179.821 
103 56.4064 
104 -56.6944 
105 177.216 
106 58.1647 
107 -51.5816 
108 -177.949 
109 72.3048 
110 -58.898 
111 -63.6459 
112 -173.392 
113 55.4049 
114 155.9 
115 -89.3219 
116 24.6329 
ITEM: TIMESTEP
50300
ITEM: NUMBER OF ENTRIES
116
ITEM: BOX BOUNDS pp pp pp
-2.1659880786948438e+01 2.1659880786948438e+01
-1.1125721167720103e+01 1.1125721167720103e+01
-1.1125721167720103e+01 1.1125721167720103e+01
ITEM: ENTRIES index c_dphi
1 170.087 
2 55.2032 
3 -65.9125 
4 -176.153 
5 62.7312 
6 -61.2691 
7 -57.2583 
8 -178.374 
9 57.6256 
10 96.3131 
11 -21.2955 
12 -151.181 
13 130.51 
14 -117.045 
15 1.62617 
16 -121.811 
17 -116.384 
18 126.384 
19 3.50623 
20 -4.31694 
21 -121.55 
22 115.573 
23 118.299 
24 1.0661 
25 -166.381 
26 69.6863 
27 -46.8021 
28 172.589 
29 42.1959 
30 -71.7283 
31 160.53 
32 -81.5019 
33 45.2955 
34 171.929 
35 42.3697 
36 -71.9933 
37 169.64 
38 -61.2037 
39 54.6512 
40 -156.983 
41 69.3641 
42 -41.639 
43 -165.26 
44 83.7371 
45 -31.607 
46 -45.5776 
47 -156.581 
48 88.0752 
49 38.9836 
50 -78.539 
51 168.585 
52 51.0624 
53 -75.093 
54 167.384 
55 -168.588 
56 63.1859 
57 -43.5603 
58 -72.8833 
59 47.6487 
60 178.452 
61 -59.2979 
62 51.6589 
63 -168.302 
64 67.8921 
65 -38.9964 
66 -166.112 
67 86.9993 
68 -42.3063 
69 -50.4925 
70 -157.381 
71 73.3135 
72 -160.644 
73 -39.8847 
74 78.7251 
75 -174.509 
76 60.8993 
77 -51.4951 
78 -177.488 
79 70.1172 
80 -52.8963 
81 -59.8549 
82 -172.249 
83 64.7373 
84 163.327 
85 44.2021 
86 -74.1338 
87 177.98 
88 66.194 
89 -57.2417 
90 177.521 
91 55.4454 
92 -60.998 
93 160.241 
94 43.7974 
95 -77.684 
96 -70.2511 
97 173.305 
98 51.8241 
99 -164.907 
100 -43.0631 
101 71.5132 
102 176.851 
103 54.1281 
104 -56.5762 
105 171.993 
106 53.442 
107 -64.7518 
108 171.976 
109 53.7823 
110 -69.4734 
111 -74.0168 
112 167.789 
113 44.5338 
114 135.711 
115 -108.558 
116 12.6878 
ITEM: TIMESTEP
50400
ITEM: NUMBER OF ENTRIES
116
ITEM: BOX BOUNDS pp pp pp
-2.1659880786948438e+01 2.1659880786948438e+01
-1.1125721167720103e+01 1.1125721167720103e+01
-1.1125721167720103e+01 1.1125721167720103e+01
ITEM: ENTRIES index c_dphi
1 162.876 
2 45.8947 
3 -75.3115 
4 172.746 
5 51.5399 
6 -70.2722 
7 -67.4884 
8 171.305 
9 49.4934 
10 77.7603 
11 -44.7643 
12 -168.193 
13 136.817 
14 -110.749 
15 20.541 
16 -141.201 
17 -149.827 
18 91.9263 
19 -22.9227 
20 -32.3483 
21 -150.595 
22 94.5558 
23 91.895 
24 -26.352 
25 170.519 
26 59.6075 
27 -69.8532 
28 -175.565 
29 63.3155 
30 -47.9602 
31 -172.843 
32 -41.2587 
33 68.6132 
34 -165.756 
35 72.4373 
36 -48.6839 
37 -178.575 
38 -57.5385 
39 65.5946 
40 179.071 
41 52.1562 
42 -70.2731 
43 170.976 
44 48.5464 
45 -62.1096 
46 -73.0328 
47 164.538 
48 53.882 
49 76.6324 
50 -45.0739 
51 -156.585 
52 81.709 
53 -42.4532 
54 -164.16 
55 156.543 
56 31.557 
57 -80.4543 
58 -97.4039 
59 19.6838 
60 178.567 
61 -62.7915 
62 52.1302 
63 -177.696 
64 63.7465 
65 -54.2233 
66 -174.853 
67 67.1767 
68 -56.2959 
69 -50.9748 
70 -168.945 
71 67.5827 
72 -167.268 
73 -56.2703 
74 70.8258 
75 -172.281 
76 68.4704 
77 -45.8541 
78 -177.074 
79 68.602 
80 -57.8251 
81 -58.3978 
82 -172.722 
83 60.8506 
84 179.639 
85 66.5884 
86 -62.4145 
87 -164.102 
88 73.7899 
89 -41.0071 
90 -156.147 
91 80.2238 
92 -33.9041 
93 -163.819 
94 82.0536 
95 -40.1889 
96 -41.2849 
97 -155.413 
98 82.3448 
99 -179.12 
100 -59.2653 
101 55.9423 
102 157.431 
103 30.3678 
104 -86.2469 
105 -172.002 
106 64.6382 
107 -56.3692 
108 -177.425 
109 61.5673 
110 -54.0655 
111 -51.9161 
112 -172.923 
113 71.4437 
114 158.271 
115 -78.8066 
116 32.4705 
ITEM: TIMESTEP
50500
ITEM: NUMBER OF ENTRIES
116
ITEM: BOX BOUNDS pp pp pp
-2.1659880786948438e+01 2.1659880786948438e+01
-1.1125721167720103e+01 1.1125721167720103e+01
-1.1125721167720103e+01 1.1125721167720103e+01
ITEM: ENTRIES index c_dphi
1 -174.837 
2 71.2271 
3 -43.9127 
4 -158.899 
5 85.9613 
6 -44.9629 
7 -44.23 
8 -159.37 
9 69.706 
10 91.9889 
11 -33.7131 
12 -157.427 
13 173.329 
14 -74.0604 
15 49.9253 
16 170.254 
17 168.916 
18 46.4987 
19 -69.0879 
20 -77.4191 
21 160.164 
22 44.5775 
23 48.2577 
24 -74.1591 
25 151.418 
26 34.9982 
27 -84.0924 
28 -160.484 
29 84.5638 
30 -43.6426 
31 -157.901 
32 -32.9052 
33 86.1105 
34 172.055 
35 55.117 
36 -71.0079 
37 -146.393 
38 -23.3041 
39 100.498 
40 -173.982 
41 63.4683 
42 -50.399 
43 -174.867 
44 71.2659 
45 -52.3169 
46 -55.616 
47 -169.483 
48 66.9339 
49 50.7886 
50 -68.7137 
51 175.787 
52 56.2846 
53 -69.7247 
54 170.773 
55 149.206 
56 26.8911 
57 -83.8807 
58 -54.9741 
59 63.6979 
60 164.082 
61 -78.1425 
62 39.1849 
63 145.455 
64 31.3305 
65 -87.6787 
66 148.325 
67 29.3162 
68 -97.55 
69 -95.1472 
70 145.844 
71 18.9774 
72 -155.697 
73 -44.8919 
74 77.6926 
75 -175.9 
76 68.8527 
77 -49.6111 
78 -173.437 
79 68.0991 
80 -58.1899 
81 -55.1056 
82 -173.569 
83 60.1417 
84 173.464 
85 58.9742 
86 -68.2329 
87 176.056 
88 48.0228 
89 -65.6052 
90 178.071 
91 59.3441 
92 -62.5444 
93 -179.615 
94 58.4969 
95 -60.888 
96 -55.1948 
97 -177.083 
98 63.5317 
99 -149.715 
100 -34.2852 
101 93.1844 
102 -153.944 
103 84.9464 
104 -31.904 
105 172.45 
106 48.929 
107 -66.3932 
108 165.879 
109 50.5571 
110 -70.5994 
111 -71.3873 
112 173.291 
113 52.1341 
114 164.684 
115 -73.3731 
116 37.825 
ITEM: TIMESTEP
50600
ITEM: NUMBER OF ENTRIES
116
ITEM: BOX BOUNDS pp pp pp
-2.1659880786948438e+01 2.1659880786948438e+01
-1.1125721167720103e+01 1.1125721167720103e+01
-1.1125721167720103e+01 1.1125721167720103e+01
ITEM: ENTRIES index c_dphi
1 156.28 
2 33.033 
3 -82.3485 
4 162.507 
5 47.1258 
6 -74.2457 
7 -78.8262 
8 165.792 
9 44.4207 
10 136.335 
11 13.3573 
12 -117.684 
13 157.566 
14 -82.6446 
15 41.5015 
16 -163.258 
17 -147.066 
18 83.529 
19 -39.4099 
20 -35.2805 
21 -164.686 
22 72.3753 
23 89.0859 
24 -40.3195 
25 164.914 
26 45.3742 
27 -70.2146 
28 -167.125 
29 74.3673 
30 -50.522 
31 -160.528 
32 -51.0264 
33 76.6736 
34 -174.514 
35 66.7807 
36 -50.1015 
37 161.442 
38 -89.0223 
39 28.8681 
40 175.071 
41 58.0122 
42 -52.9041 
43 -177.507 
44 71.5771 
45 -60.4479 
46 -55.9448 
47 -166.861 
48 61.1139 
49 68.5141 
50 -51.1049 
51 -175.343 
52 65.0382 
53 -61.0174 
54 179.364 
55 158.992 
56 30.5769 
57 -89.5262 
58 -57.4962 
59 65.3381 
60 161.332 
61 -76.9822 
62 43.7718 
63 165.136 
64 44.4868 
65 -79.1214 
66 171.764 
67 48.1562 
68 -67.5867 
69 -58.7678 
70 177.624 
71 61.8812 
72 154.729 
73 -82.5393 
74 31.5914 
75 179.078 
76 55.583 
77 -55.8122 
78 -174.371 
79 74.2334 
80 -50.8768 
81 -65.6595 
82 -177.055 
83 57.835 
84 176.09 
85 52.0902 
86 -68.4526 
87 171.205 
88 52.7365 
89 -73.654 
90 -139.755 
91 104.251 
92 -13.6659 
93 -130.326 
94 111.758 
95 -14.3313 
96 -11.029 
97 -128.946 
98 104.965 
99 -170.578 
100 -53.5325 
101 62.8872 
102 164.608 
103 43.9977 
104 -64.7912 
105 -171.478 
106 63.2109 
107 -46.9963 
108 -170.105 
109 79.6875 
110 -44.7939 
111 -64.3138 
112 -174.521 
113 60.9976 
114 -178.667 
115 -56.4469 
116 56.4009 
ITEM: TIMESTEP
50700
ITEM: NUMBER OF ENTRIES
116
ITEM: BOX BOUNDS pp pp pp
-2.1659880786948438e+01 2.1659880786948438e+01
-1.1125721167720103e+01 1.1125721167720103e+01
-1.1125721167720103e+01 1.1125721167720103e+01
ITEM: ENTRIES index c_dphi
1 179.742 
2 59.3199 
3 -57.8316 
4 -177.821 
5 65.0272 
6 -57.3991 
7 -53.2593 
8 -170.411 
9 67.1629 
10 66.7664 
11 -54.1832 
12 176.873 
13 162.599 
14 -78.6764 
15 39.6116 
16 -135.701 
17 -126.296 
18 116.766 
19 -13.4199 
20 -6.59292 
21 -123.531 
22 106.283 
23 111.423 
24 -5.51574 
25 -173.774 
26 67.6714 
27 -59.3684 
28 159.479 
29 30.1842 
30 -81.287 
31 -161.237 
32 -48.5039 
33 67.0461 
34 178.163 
35 62.5005 
36 -55.692 
37 137.026 
38 -107.626 
39 12.9862 
40 161.222 
41 45.5331 
42 -69.5896 
43 -179.94 
44 64.937 
45 -64.2511 
46 -64.5993 
47 -179.722 
48 51.0898 
49 60.2836 
50 -53.7118 
51 179.204 
52 65.2089 
53 -64.1758 
54 -178.171 
55 -178.523 
56 62.0016 
57 -58.5297 
58 -52.4998 
59 66.6077 
60 179.165 
61 -63.8301 
62 50.5439 
63 -163.214 
64 79.931 
65 -27.2327 
66 -160.528 
67 92.3086 
68 -43.6722 
69 -42.7504 
70 -149.914 
71 74.1051 
72 148.935 
73 -91.7219 
74 30.5256 
75 163.895 
76 42.1566 
77 -73.963 
78 176.767 
79 60.6473 
80 -61.495 
81 -74.1173 
82 169.763 
83 47.6209 
84 143.574 
85 13.1492 
86 -103.169 
87 147.073 
88 21.1144 
89 -98.2163 
90 -167.564 
91 69.9401 
92 -45.168 
93 -160.443 
94 84.4494 
95 -37.9464 
96 -50.2314 
97 -165.34 
98 72.2647 
99 -160.486 
100 -39.4846 
101 78.9828 
102 -171.64 
103 66.4612 
104 -50.8245 
105 171.905 
106 40.4109 
107 -61.5086 
108 165.139 
109 63.2191 
110 -63.3671 
111 -74.3315 
112 -176.251 
113 57.1629 
114 -123.216 
115 5.40142 
116 111.136 
ITEM: TIMESTEP
50800
ITEM: NUMBER OF ENTRIES
116
ITEM: BOX BOUNDS pp pp pp
-2.1659880786948438e+01 2.1659880786948438e+01
-1.1125721167720103e+01 1.1125721167720103e+01
-1.1125721167720103e+01 1.1125721167720103e+01
ITEM: ENTRIES index c_dphi
1 -175.707 
2 70.4494 
3 -52.1423 
4 -163.781 
5 73.6272 
6 -49.938 
7 -41.8817 
8 -164.473 
9 71.9614 
10 135.05 
11 8.95502 
12 -114.925 
13 176.024 
14 -68.8336 
15 48.9202 
16 -134.585 
17 -135.143 
18 112.188 
19 -11.7683 
20 -19.4942 
21 -132.163 
22 103.881 
23 102.04 
24 -10.6293 
25 -167.75 
26 68.1361 
27 -50.2516 
28 138.769 
29 23.1238 
30 -97.7486 
31 173.495 
32 -64.3 
33 55.6056 
34 168.999 
35 47.7699 
36 -71.2604 
37 -178.26 
38 -57.483 
39 58.1994 
40 -165.215 
41 76.5147 
42 -40.466 
43 -159.578 
44 83.4416 
45 -41.3078 
46 -45.0078 
47 -161.988 
48 73.2621 
49 88.4958 
50 -22.7173 
51 -153.728 
52 95.0585 
53 -34.4884 
54 -145.702 
55 133.12 
56 14.1298 
57 -110.211 
58 -41.1169 
59 75.3382 
60 158.786 
61 -97.3424 
62 34.4807 
63 149.545 
64 38.0706 
65 -77.8647 
66 159.902 
67 43.9663 
68 -88.6235 
69 -75.4571 
70 168.608 
71 36.0177 
72 165.489 
73 -78.1229 
74 39.9602 
75 157.612 
76 39.2816 
77 -73.8346 
78 155.855 
79 42.7392 
80 -85.814 
81 -75.582 
82 171.302 
83 42.7486 
84 161.85 
85 45.7438 
86 -82.6591 
87 -166.373 
88 71.9704 
89 -44.2071 
90 -173.159 
91 69.0257 
92 -54.5443 
93 -168.463 
94 67.9674 
95 -50.6474 
96 -55.0164 
97 -178.586 
98 62.7988 
99 -179.345 
100 -67.8386 
101 61.2685 
102 -167.053 
103 69.2245 
104 -49.9658 
105 -175.387 
106 56.7687 
107 -55.6734 
108 172.062 
109 59.6196 
110 -60.0937 
111 -60.6649 
112 -173.107 
113 67.1797 
114 2.30759 
115 128.856 
116 -120.736 
ITEM: TIMESTEP
50900
ITEM: NUMBER OF ENTRIES
116
ITEM: BOX BOUNDS pp pp pp
-2.1659880786948438e+01 2.1659880786948438e+01
-1.1125721167720103e+01 1.1125721167720103e+01
-1.1125721167720103e+01 1.1125721167720103e+01
ITEM: ENTRIES index c_dphi
1 172.336 
2 49.4903 
3 -66.0669 
4 -179.975 
5 64.4674 
6 -57.1301 
7 -61.5352 
8 -177.092 
9 61.3101 
10 163.603 
11 35.6542 
12 -87.2112 
13 165.873 
14 -70.0635 
15 43.4816 
16 -131.633 
17 -143.701 
18 97.2614 
19 -15.4728 
20 -30.6101 
21 -149.648 
22 97.6177 
23 100.139 
24 -18.8992 
25 -148.934 
26 97.871 
27 -19.1042 
28 137.522 
29 29.1364 
30 -95.7399 
31 160.768 
32 -75.2321 
33 50.1046 
34 165.071 
35 33.5903 
36 -84.3244 
37 -157.286 
38 -35.8138 
39 79.9752 
40 -165.314 
41 78.9045 
42 -50.5783 
43 -166.554 
44 63.9634 
45 -50.7722 
46 -46.1399 
47 -175.623 
48 69.6418 
49 57.8009 
50 -62.2125 
51 -172.916 
52 67.0709 
53 -55.0142 
54 -175.028 
55 153.528 
56 31.5518 
57 -93.8496 
58 -62.9279 
59 55.035 
60 171.96 
61 -70.3245 
62 56.8795 
63 161.932 
64 36.5145 
65 -79.8689 
66 160.731 
67 44.3472 
68 -73.8521 
69 -79.921 
70 163.696 
71 45.4963 
72 -150.033 
73 -34.0433 
74 92.2592 
75 160.298 
76 42.0862 
77 -81.2349 
78 159.572 
79 36.2511 
80 -82.2164 
81 -75.3812 
82 161.298 
83 42.8302 
84 170.813 
85 53.9031 
86 -69.862 
87 -122.862 
88 119.026 
89 0.0485344 
90 174.995 
91 54.9062 
92 -64.571 
93 174.292 
94 54.8145 
95 -65.6194 
96 -73.3588 
97 167.164 
98 46.7301 
99 143.81 
100 -92.7823 
101 22.1177 
102 136.65 
103 16.2675 
104 -103.466 
105 163.719 
106 41.1413 
107 -80.5157 
108 158.899 
109 37.2417 
110 -78.5232 
111 -85.0047 
112 153.338 
113 37.5733 
114 -68.2468 
115 49.3778 
116 -179.589 
ITEM: TIMESTEP
51000
ITEM: NUMBER OF ENTRIES
116
ITEM: BOX BOUNDS pp pp pp
-2.1659880786948438e+01 2.1659880786948438e+01
-1.1125721167720103e+01 1.1125721167720103e+01
-1.1125721167720103e+01 1.1125721167720103e+01
ITEM: ENTRIES index c_dphi
1 -176.822 
2 62.1518 
3 -54.2131 
4 -162.604 
5 81.0307 
6 -41.5777 
7 -46.1846 
8 -162.549 
9 74.8421 
10 128.091 
11 -3.04878 
12 -127.61 
13 173.346 
14 -61.2309 
15 48.408 
16 -160.446 
17 -171.784 
18 83.1159 
19 -38.0811 
20 -53.7853 
21 -158.886 
22 79.9173 
23 65.8518 
24 -39.2486 
25 -168.727 
26 67.7218 
27 -47.0363 
28 169.579 
29 49.5137 
30 -68.4442 
31 176.233 
32 -52.2801 
33 59.4213 
34 -172.334 
35 67.1852 
36 -48.8595 
37 169.098 
38 -63.1016 
39 59.62 
40 157.613 
41 30.2386 
42 -88.125 
43 149.939 
44 31.5758 
45 -82.6859 
46 -84.9827 
47 156.654 
48 42.392 
49 54.4277 
50 -58.3428 
51 176.08 
52 63.3098 
53 -62.3057 
54 -175.076 
55 175.595 
56 60.0546 
57 -57.7826 
58 -43.7916 
59 69.8764 
60 175.91 
61 -61.1464 
62 60.555 
63 137.484 
64 20.2295 
65 -103.663 
66 138.478 
67 14.5851 
68 -104.267 
69 -110.136 
70 125.971 
71 7.11865 
72 174.413 
73 -57.2751 
74 64.4119 
75 168.4 
76 37.7394 
77 -79.0793 
78 164.784 
79 47.9649 
80 -64.5559 
81 -82.4854 
82 160.696 
83 48.1751 
84 -167.83 
85 64.2522 
86 -46.9804 
87 -152.908 
88 91.59 
89 -27.7804 
90 174.94 
91 55.3969 
92 -64.9263 
93 168.223 
94 47.8998 
95 -72.2336 
96 -64.9284 
97 174.748 
98 54.6151 
99 120.45 
100 -116.928 
101 2.21069 
102 169.361 
103 48.7035 
104 -72.7102 
105 -163.689 
106 82.1413 
107 -43.5152 
108 -160.238 
109 74.1053 
110 -46.0683 
111 -39.2465 
112 -164.903 
113 74.9233 
114 -78.5347 
115 33.9151 
116 167.188 
ITEM: TIMESTEP
51100
ITEM: NUMBER OF ENTRIES
116
ITEM: BOX BOUNDS pp pp pp
-2.1659880786948438e+01 2.1659880786948438e+01
-1.1125721167720103e+01 1.1125721167720103e+01
-1.1125721167720103e+01 1.1125721167720103e+01
ITEM: ENTRIES index c_dphi
1 -176.12 
2 61.5467 
3 -51.3043 
4 -167.626 
5 79.5232 
6 -45.2923 
7 -50.7309 
8 -163.582 
9 71.6027 
10 162.73 
11 37.3108 
12 -91.1912 
13 160.545 
14 -76.7951 
15 36.6302 
16 -138.814 
17 -139.334 
18 103.583 
19 -17.5836 
20 -20.3388 
21 -137.422 
22 101.411 
23 99.4364 
24 -17.6466 
25 -163.873 
26 76.0373 
27 -39.2625 
28 179.516 
29 51.0387 
30 -63.4796 
31 -178.041 
32 -57.6425 
33 53.0888 
34 -170.021 
35 70.669 
36 -45.9386 
37 164.031 
38 -75.9195 
39 39.3259 
40 163.935 
41 40.0075 
42 -71.3528 
43 161.55 
44 50.1897 
45 -74.5224 
46 -71.2631 
47 177.377 
48 52.6645 
49 41.3222 
50 -70.9136 
51 157.498 
52 45.262 
53 -84.4333 
54 163.331 
55 179.27 
56 60.0063 
57 -64.5098 
58 -16.9664 
59 95.731 
60 -176.545 
61 -46.435 
62 61.9576 
63 147.751 
64 15.2373 
65 -102.829 
66 140.423 
67 22.3564 
68 -87.0634 
69 -107.19 
70 134.743 
71 25.3236 
72 159.435 
73 -71.5503 
74 40.9965 
75 174.358 
76 42.7438 
77 -66.9604 
78 169.152 
79 59.4481 
80 -59.2338 
81 -77.5451 
82 172.751 
83 54.0689 
84 168.492 
85 47.4999 
86 -69.0878 
87 166.418 
88 35.1321 
89 -76.5717 
90 -164.618 
91 73.3447 
92 -45.8896 
93 -161.743 
94 79.0222 
95 -39.7063 
96 -41.3096 
97 -160.544 
98 80.7276 
99 155.558 
100 -82.7727 
101 36.5627 
102 179.264 
103 60.167 
104 -61.5133 
105 159.495 
106 44.9386 
107 -70.3026 
108 165.602 
109 50.3608 
110 -79.8421 
111 -71.1221 
112 173.637 
113 43.4339 
114 15.9695 
115 130.89 
116 -118.258 
ITEM: TIMESTEP
51200
ITEM: NUMBER OF ENTRIES
116
ITEM: BOX BOUNDS pp pp pp
-2.1659880786948438e+01 2.1659880786948438e+01
-1.1125721167720103e+01 1.1125721167720103e+01
-1.1125721167720103e+01 1.1125721167720103e+01
ITEM: ENTRIES index c_dphi
1 179.527 
2 58.1175 
3 -64.161 
4 176.001 
5 53.7227 
6 -62.5891 
7 -57.2636 
8 -179.542 
9 64.1461 
10 154.431 
11 38.8673 
12 -92.826 
13 171.362 
14 -70.5148 
15 52.6959 
16 -121.086 
17 -112.951 
18 115.697 
19 -2.83826 
20 13.4765 
21 -117.876 
22 123.589 
23 128.802 
24 -2.55082 
25 -172.525 
26 61.336 
27 -54.2566 
28 163.449 
29 35.4402 
30 -76.5165 
31 178.764 
32 -59.9769 
33 56.6011 
34 -172.814 
35 69.5006 
36 -52.3036 
37 -162.289 
38 -38.8595 
39 71.1668 
40 -158.849 
41 78.555 
42 -34.2451 
43 -154.341 
44 92.8592 
45 -31.7451 
46 -40.0679 
47 -152.868 
48 82.5278 
49 19.2859 
50 -104.54 
51 137.797 
52 13.9708 
53 -108.272 
54 127.902 
55 -173.783 
56 74.0015 
57 -41.6383 
58 -96.1363 
59 28.7188 
60 -175.626 
61 -55.1445 
62 58.0643 
63 -170.913 
64 76.3492 
65 -48.5043 
66 -166.371 
67 68.7758 
68 -53.6331 
69 -59.2324 
70 175.914 
71 53.5051 
72 104.992 
73 -136.904 
74 -25.2732 
75 178.644 
76 60.4245 
77 -54.5274 
78 169.374 
79 54.4222 
80 -72.4067 
81 -68.7738 
82 176.274 
83 49.4455 
84 -175.697 
85 72.634 
86 -49.6844 
87 160.724 
88 34.6753 
89 -82.2174 
90 -139.109 
91 98.6187 
92 -15.7087 
93 -135.103 
94 110.569 
95 -12.8309 
96 -14.3741 
97 -128.702 
98 107.898 
99 173.941 
100 -66.3444 
101 50.7778 
102 169.555 
103 44.6272 
104 -69.3529 
105 176.474 
106 57.3897 
107 -49.1677 
108 -177.689 
109 75.7537 
110 -58.6049 
111 -51.4614 
112 -158.019 
113 67.6227 
114 40.1771 
115 153.183 
116 -91.182 
ITEM: TIMESTEP
51300
ITEM: NUMBER OF ENTRIES
116
ITEM: BOX BOUNDS pp pp pp
-2.1659880786948438e+01 2.1659880786948438e+01
-1.1125721167720103e+01 1.1125721167720103e+01
-1.1125721167720103e+01 1.1125721167720103e+01
ITEM: ENTRIES index c_dphi
1 -173.188 
2 68.1193 
3 -53.6 
4 -167.11 
5 71.1712 
6 -48.4172 
7 -55.3576 
8 -177.077 
9 63.3347 
10 121.353 
11 -3.58688 
12 -115.383 
13 -156.366 
14 -38.9765 
15 84.2691 
16 -143.026 
17 -144.233 
18 101.552 
19 -25.4303 
20 -13.8077 
21 -128.023 
22 104.995 
23 98.171 
24 -16.044 
25 -165.519 
26 63.0318 
27 -50.8171 
28 -179.438 
29 69.2105 
30 -49.851 
31 178.495 
32 -55.1759 
33 51.7173 
34 166.109 
35 49.8899 
36 -71.9183 
37 172.222 
38 -68.023 
39 55.4898 
40 -162.687 
41 78.8034 
42 -43.9851 
43 -173.107 
44 64.104 
45 -54.5979 
46 -47.0542 
47 -169.843 
48 71.4554 
49 36.715 
50 -80.3689 
51 158.947 
52 41.8634 
53 -78.6632 
54 164.253 
55 -173.91 
56 66.5531 
57 -44.891 
58 -82.0496 
59 40.6744 
60 -173.913 
61 -48.5528 
62 67.512 
63 -157.932 
64 73.4497 
65 -41.2894 
66 -171.936 
67 73.3248 
68 -43.3179 
69 -56.2137 
70 -170.953 
71 72.4045 
72 166.536 
73 -77.5914 
74 46.9286 
75 179.848 
76 60.1285 
77 -61.5241 
78 171.123 
79 49.4705 
80 -69.1577 
81 -60.3177 
82 178.03 
83 59.4015 
84 170.483 
85 52.5646 
86 -68.7013 
87 177.727 
88 60.9973 
89 -60.1746 
90 154.433 
91 34.0057 
92 -79.0488 
93 151.368 
94 38.314 
95 -88.204 
96 -87.4612 
97 159.484 
98 32.9663 
99 136.054 
100 -100.686 
101 7.30083 
102 166.146 
103 40.9239 
104 -71.2148 
105 178.992 
106 61.3529 
107 -47.4016 
108 -172.335 
109 78.9109 
110 -54.6959 
111 -58.5083 
112 -167.263 
113 59.1303 
114 56.9388 
115 170.754 
116 -72.9419 
ITEM: TIMESTEP
51400
ITEM: NUMBER OF ENTRIES
116
ITEM: BOX BOUNDS pp pp pp
-2.1659880786948438e+01 2.1659880786948438e+01
-1.1125721167720103e+01 1.1125721167720103e+01
-1.1125721167720103e+01 1.1125721167720103e+01
ITEM: ENTRIES index c_dphi
1 -173.731 
2 61.5812 
3 -49.7242 
4 -172.675 
5 76.0195 
6 -47.9878 
7 -61.0011 
8 -172.306 
9 63.6862 
10 168.186 
11 48.4723 
12 -71.8404 
13 152.18 
14 -83.9318 
15 36.9134 
16 -121.815 
17 -130.224 
18 112.848 
19 -5.40316 
20 -5.6841 
21 -122.612 
22 119.137 
23 113.363 
24 -3.5645 
25 -163.484 
26 76.5407 
27 -38.3963 
28 174.532 
29 62.7234 
30 -62.9736 
31 -162.53 
32 -39.2279 
33 71.4797 
34 -177.36 
35 65.3704 
36 -52.1992 
37 148.26 
38 -93.7228 
39 22.1347 
40 139.737 
41 24.8271 
42 -92.6435 
43 139.143 
44 21.6722 
45 -105.947 
46 -99.9791 
47 142.55 
48 14.9309 
49 44.3545 
50 -71.3154 
51 156.255 
52 40.5854 
53 -81.7236 
54 162.606 
55 -147.136 
56 88.1842 
57 -24.7463 
58 -63.7499 
59 50.3911 
60 -168.365 
61 -34.0754 
62 79.0384 
63 -170.499 
64 55.216 
65 -57.4421 
66 177.305 
67 64.6465 
68 -48.4103 
69 -65.7348 
70 -178.393 
71 68.5502 
72 -154.724 
73 -34.6728 
74 88.7561 
75 179.914 
76 50.0864 
77 -61.1587 
78 170.811 
79 59.5663 
80 -59.3608 
81 -60.3567 
82 -171.602 
83 69.4711 
84 172.251 
85 55.3371 
86 -65.2601 
87 176.921 
88 56.7763 
89 -55.8451 
90 149.637 
91 31.5967 
92 -85.1771 
93 146.858 
94 30.0843 
95 -95.1021 
96 -99.8619 
97 143.364 
98 18.178 
99 156.602 
100 -85.575 
101 30.4636 
102 150.416 
103 18.2969 
104 -92.7821 
105 171.131 
106 54.0027 
107 -66.5541 
108 -179.703 
109 59.7406 
110 -62.5745 
111 -63.8346 
112 175.609 
113 53.2935 
114 1.40278 
115 123.293 
116 -122.667 
ITEM: TIMESTEP
51500
ITEM: NUMBER OF ENTRIES
116
ITEM: BOX BOUNDS pp pp pp
-2.1659880786948438e+01 2.1659880786948438e+01
-1.1125721167720103e+01 1.1125721167720103e+01
-1.1125721167720103e+01 1.1125721167720103e+01
ITEM: ENTRIES index c_dphi
1 -159.515 
2 77.1048 
3 -38.2423 
4 -156.748 
5 87.9048 
6 -33.3683 
7 -49.6942 
8 -165.041 
9 73.6856 
10 149.806 
11 24.0583 
12 -83.315 
13 150.595 
14 -86.7193 
15 37.7986 
16 -137.761 
17 -147.192 
18 87.9381 
19 -20.0516 
20 -20.7834 
21 -145.654 
22 106.357 
23 95.0994 
24 -29.7708 
25 178.459 
26 52.445 
27 -59.5763 
28 174.664 
29 55.8751 
30 -69.7743 
31 -175.972 
32 -49.0171 
33 67.9948 
34 178.307 
35 60.0965 
36 -53.9792 
37 -140.204 
38 -21.8844 
39 97.8004 
40 -173.65 
41 65.5822 
42 -51.4546 
43 -167.798 
44 75.1649 
45 -47.0304 
46 -55.8099 
47 -172.847 
48 64.958 
49 3.53965 
50 -107.213 
51 118.271 
52 7.51833 
53 -119.703 
54 129.544 
55 163.805 
56 52.828 
57 -65.0397 
58 -82.4096 
59 31.1058 
60 -124.467 
61 1.87707 
62 110.91 
63 -169.44 
64 66.6905 
65 -48.7516 
66 176.846 
67 61.4038 
68 -59.2849 
69 -68.1268 
70 176.431 
71 55.7423 
72 154.547 
73 -76.0758 
74 36.1023 
75 137.613 
76 3.86731 
77 -107.826 
78 122.56 
79 10.8665 
80 -103.695 
81 -119.55 
82 128.757 
83 14.1953 
84 -173.413 
85 62.9383 
86 -54.35 
87 176.453 
88 55.5786 
89 -53.0132 
90 -169.448 
91 70.4491 
92 -49.2418 
93 -169.318 
94 70.9906 
95 -49.2158 
96 -58.1506 
97 -177.842 
98 61.9521 
99 -164.35 
100 -46.8237 
101 71.1492 
102 -165.008 
103 65.2935 
104 -47.2794 
105 -179.187 
106 67.3737 
107 -54.8017 
108 -169.576 
109 68.2482 
110 -56.1369 
111 -52.5429 
112 -174.718 
113 60.8965 
114 -56.6393 
115 60.7136 
116 -179.854 
ITEM: TIMESTEP
51600
ITEM: NUMBER OF ENTRIES
116
ITEM: BOX BOUNDS pp pp pp
-2.1659880786948438e+01 2.1659880786948438e+01
-1.1125721167720103e+01 1.1125721167720103e+01
-1.1125721167720103e+01 1.1125721167720103e+01
ITEM: ENTRIES index c_dphi
1 173.369 
2 60.6212 
3 -62.6519 
4 -179.227 
5 57.4997 
6 -66.4796 
7 -71.0718 
8 165.655 
9 41.6758 
10 170.47 
11 43.5812 
12 -54.9427 
13 158.062 
14 -88.3719 
15 39.9131 
16 162.406 
17 164.394 
18 41.4738 
19 -75.5811 
20 -71.9578 
21 165.122 
22 48.0668 
23 42.3817 
24 -80.5389 
25 168.631 
26 40.9217 
27 -76.007 
28 -153.646 
29 78.2113 
30 -35.5285 
31 -173.998 
32 -53.0877 
33 66.7035 
34 -178.291 
35 59.8129 
36 -59.8795 
37 -113.513 
38 7.017 
39 133.366 
40 -160.23 
41 78.4474 
42 -41.0307 
43 -149.625 
44 90.8967 
45 -28.3022 
46 -40.0288 
47 -159.507 
48 81.2942 
49 -10.0417 
50 -115.097 
51 103.112 
52 -1.94338 
53 -123.927 
54 131.018 
55 176.422 
56 59.1216 
57 -61.7503 
58 -82.3746 
59 34.5139 
60 -168.031 
61 -44.9149 
62 78.4589 
63 172.036 
64 44.2113 
65 -82.267 
66 165.816 
67 39.3375 
68 -66.3596 
69 -73.7171 
70 159.805 
71 54.1075 
72 157.858 
73 -90.3173 
74 35.2675 
75 155.976 
76 37.4573 
77 -83.6184 
78 151.767 
79 30.6911 
80 -89.7147 
81 -92.3037 
82 146.621 
83 26.2148 
84 -179.647 
85 62.7347 
86 -54.6619 
87 178.5 
88 55.0978 
89 -66.546 
90 -162.645 
91 73.8236 
92 -42.1648 
93 -164.23 
94 79.782 
95 -40.6985 
96 -40.1618 
97 -156.15 
98 83.3693 
99 -151.291 
100 -28.0299 
101 84.7376 
102 -136.247 
103 107.369 
104 -11.3088 
105 -162.29 
106 84.38 
107 -35.6554 
108 -162.756 
109 77.2088 
110 -49.4259 
111 -36.9801 
112 -157.016 
113 76.3497 
114 -68.4624 
115 45.2351 
116 173.976 
ITEM: TIMESTEP
51700
ITEM: NUMBER OF ENTRIES
116
ITEM: BOX BOUNDS pp pp pp
-2.1659880786948438e+01 2.1659880786948438e+01
-1.1125721167720103e+01 1.1125721167720103e+01
-1.1125721167720103e+01 1.1125721167720103e+01
ITEM: ENTRIES index c_dphi
1 -165.083 
2 75.2203 
3 -46.0412 
4 -161.596 
5 77.1421 
6 -41.8993 
7 -52.5281 
8 -173.79 
9 67.169 
10 175.422 
11 49.1363 
12 -54.5022 
13 -170.472 
14 -53.0196 
15 71.0272 
16 151.09 
17 155.126 
18 38.2165 
19 -84.3851 
20 -80.0645 
21 163.027 
22 40.4249 
23 30.6008 
24 -86.3082 
25 148.096 
26 20.8449 
27 -102.404 
28 166.51 
29 56.2498 
30 -68.1618 
31 174.522 
32 -63.6288 
33 54.0422 
34 -173.687 
35 68.8017 
36 -51.4069 
37 -135.859 
38 -12.9135 
39 106.344 
40 -152.26 
41 80.1985 
42 -34.6113 
43 -158.501 
44 86.6895 
45 -30.9593 
46 -45.8259 
47 -160.636 
48 81.7155 
49 30.0541 
50 -96.9597 
51 145.929 
52 18.9148 
53 -94.2577 
54 138.729 
55 -149.804 
56 92.7843 
57 -34.15 
58 -74.4567 
59 54.2849 
60 153.043 
61 -86.8046 
62 38.4817 
63 171.414 
64 52.4222 
65 -74.0511 
66 169.074 
67 42.6009 
68 -71.9342 
69 -73.8479 
70 159.679 
71 45.1437 
72 -157.918 
73 -50.5272 
74 77.9653 
75 164.753 
76 46.8674 
77 -66.0915 
78 158.422 
79 45.4629 
80 -83.6927 
81 -75.1487 
82 171.892 
83 42.7368 
84 158.366 
85 49.9285 
86 -79.828 
87 -152.84 
88 83.3045 
89 -34.7144 
90 -158.717 
91 81.3639 
92 -36.557 
93 -150.287 
94 91.792 
95 -30.368 
96 -34.8656 
97 -152.786 
98 85.0535 
99 -167.811 
100 -44.4619 
101 69.6289 
102 -178.607 
103 61.3843 
104 -56.9588 
105 155.13 
106 42.5893 
107 -84.3618 
108 169.673 
109 42.7216 
110 -77.7862 
111 -78.6396 
112 154.409 
113 33.9016 
114 10.1455 
115 132.409 
116 -114.999 
ITEM: TIMESTEP
51800
ITEM: NUMBER OF ENTRIES
116
ITEM: BOX BOUNDS pp pp pp
-2.1659880786948438e+01 2.1659880786948438e+01
-1.1125721167720103e+01 1.1125721167720103e+01
-1.1125721167720103e+01 1.1125721167720103e+01
ITEM: ENTRIES index c_dphi
1 179.013 
2 48.5195 
3 -66.7871 
4 170.925 
5 55.6182 
6 -58.5821 
7 -77.8047 
8 166.889 
9 52.6884 
10 -171.539 
11 60.3914 
12 -38.4121 
13 164.191 
14 -66.1289 
15 49.1403 
16 174.034 
17 177.476 
18 59.9622 
19 -63.8478 
20 -59.0427 
21 -176.557 
22 59.6334 
23 55.3575 
24 -62.1564 
25 150.335 
26 23.281 
27 -93.792 
28 167.483 
29 49.7759 
30 -70.1844 
31 171.414 
32 -73.0536 
33 51.7525 
34 -148.572 
35 97.6791 
36 -28.6594 
37 -165.536 
38 -51.7826 
39 74.5014 
40 -154.232 
41 85.3339 
42 -32.2579 
43 -149.986 
44 92.4222 
45 -29.552 
46 -36.8011 
47 -154.393 
48 83.6329 
49 43.335 
50 -81.1253 
51 160.857 
52 36.3966 
53 -80.9402 
54 154.6 
55 -172.699 
56 75.1513 
57 -54.7099 
58 -82.3958 
59 38.2638 
60 176.773 
61 -66.9458 
62 50.035 
63 158.416 
64 50.6869 
65 -76.7054 
66 163.953 
67 36.5604 
68 -88.3187 
69 -68.5066 
70 164.101 
71 39.2221 
72 -179.529 
73 -54.8996 
74 56.995 
75 176.332 
76 47.6487 
77 -61.0078 
78 172.03 
79 63.3732 
80 -59.2869 
81 -66.7752 
82 -175.432 
83 61.9081 
84 -156.26 
85 79.1933 
86 -45.3589 
87 -157.543 
88 74.3291 
89 -38.2877 
90 -165.114 
91 80.1243 
92 -47.9907 
93 -151.79 
94 80.0945 
95 -37.0288 
96 -39.4732 
97 -167.588 
98 75.2885 
99 138.012 
100 -101.727 
101 18.7727 
102 171.252 
103 47.517 
104 -74.1576 
105 -155.606 
106 82.674 
107 -36.8171 
108 -148.835 
109 91.674 
110 -27.1154 
111 -34.1933 
112 -153.684 
113 87.5263 
114 76.491 
115 -158.685 
116 -40.1983 
ITEM: TIMESTEP
51900
ITEM: NUMBER OF ENTRIES
116
ITEM: BOX BOUNDS pp pp pp
-2.1659880786948438e+01 2.1659880786948438e+01
-1.1125721167720103e+01 1.1125721167720103e+01
-1.1125721167720103e+01 1.1125721167720103e+01
ITEM: ENTRIES index c_dphi
1 178.909 
2 62.4419 
3 -60.2363 
4 -177.623 
5 59.6986 
6 -61.1564 
7 -59.3372 
8 177.985 
9 57.1296 
10 -165.626 
11 69.5374 
12 -47.7118 
13 178.725 
14 -58.3438 
15 53.9363 
16 -173.506 
17 -174.956 
18 61.7246 
19 -53.396 
20 -59.6179 
21 177.063 
22 61.9421 
23 64.9342 
24 -58.3852 
25 152.045 
26 35.9915 
27 -85.2025 
28 -171.826 
29 60.1384 
30 -60.4234 
31 178.397 
32 -65.0168 
33 53.5576 
34 -173.105 
35 64.3416 
36 -54.9521 
37 -174.771 
38 -61.6169 
39 68.5955 
40 -143.133 
41 103.521 
42 -19.2837 
43 -124.35 
44 112.845 
45 -11.0047 
46 -9.22851 
47 -132.034 
48 104.117 
49 58.6963 
50 -46.4856 
51 -173.11 
52 81.7077 
53 -64.9282 
54 -170.11 
55 161.125 
56 39.0236 
57 -77.5551 
58 -48.2611 
59 59.897 
60 -178.222 
61 -61.0029 
62 56.3629 
63 143.024 
64 27.0074 
65 -89.4148 
66 155.001 
67 38.579 
68 -88.9819 
69 -85.1006 
70 158.477 
71 30.9162 
72 133.159 
73 -100.372 
74 17.396 
75 -175.322 
76 55.8164 
77 -58.434 
78 -173.029 
79 72.7203 
80 -44.1678 
81 -63.2996 
82 -177.55 
83 65.562 
84 -143.236 
85 89.7079 
86 -21.715 
87 154.823 
88 39.0423 
89 -82.3584 
90 -139.731 
91 94.2342 
92 -19.381 
93 -143.68 
94 102.705 
95 -17.645 
96 -22.7568 
97 -136.372 
98 103.278 
99 175.58 
100 -57.0268 
101 54.8585 
102 171.386 
103 57.2728 
104 -72.4605 
105 165.004 
106 40.4098 
107 -68.053 
108 153.224 
109 44.7609 
110 -82.182 
111 -79.4561 
112 172.081 
113 45.1383 
114 2.78027 
115 127.829 
116 -116.848 
ITEM: TIMESTEP
52000
ITEM: NUMBER OF ENTRIES
116
ITEM: BOX BOUNDS pp pp pp
-2.1659880786948438e+01 2.1659880786948438e+01
-1.1125721167720103e+01 1.1125721167720103e+01
-1.1125721167720103e+01 1.1125721167720103e+01
ITEM: ENTRIES index c_dphi
1 144.659 
2 27.6599 
3 -93.5331 
4 160.516 
5 39.3227 
6 -82.4856 
7 -96.1711 
8 142.636 
9 20.8277 
10 -23.3445 
11 -157.903 
12 101.308 
13 -171.272 
14 -50.9989 
15 65.935 
16 -173.867 
17 -176.992 
18 66.7413 
19 -52.2481 
20 -58.421 
21 -174.687 
22 66.3234 
23 61.3888 
24 -54.8774 
25 -169.978 
26 69.8137 
27 -52.7163 
28 177.938 
29 59.2055 
30 -63.5314 
31 -168.763 
32 -40.4493 
33 73.1132 
34 170.096 
35 50.82 
36 -61.2561 
37 -162.948 
38 -44.1839 
39 73.2028 
40 -171.785 
41 66.8319 
42 -48.4898 
43 -166.713 
44 77.9652 
45 -45.3295 
46 -53.185 
47 -168.507 
48 68.1986 
49 29.2 
50 -82.2035 
51 147.098 
52 35.695 
53 -100.219 
54 148.377 
55 -170.353 
56 58.3552 
57 -53.8999 
58 -74.4487 
59 39.1438 
60 -143.386 
61 -27.8239 
62 89.0912 
63 -156.65 
64 87.1654 
65 -27.8993 
66 -149.042 
67 95.8933 
68 -32.857 
69 -23.6385 
70 -138.703 
71 92.5466 
72 169.891 
73 -70.8106 
74 46.5167 
75 139.014 
76 17.6579 
77 -96.1382 
78 134.998 
79 21.2017 
80 -103.646 
81 -101.412 
82 144.792 
83 19.9439 
84 176.821 
85 62.3525 
86 -63.7239 
87 -168.017 
88 76.3671 
89 -44.3258 
90 178.099 
91 52.3046 
92 -65.3609 
93 164.454 
94 46.788 
95 -69.752 
96 -75.6146 
97 166.72 
98 50.1798 
99 137.333 
100 -93.1305 
101 19.2074 
102 -178.969 
103 62.8962 
104 -62.2606 
105 -171.013 
106 65.3187 
107 -51.7712 
108 -176.578 
109 66.3324 
110 -52.9097 
111 -53.5895 
112 -170.679 
113 70.0785 
114 3.65695 
115 128.959 
116 -116.931 
ITEM: TIMESTEP
52100
ITEM: NUMBER OF ENTRIES
116
ITEM: BOX BOUNDS pp pp pp
-2.1659880786948438e+01 2.1659880786948438e+01
-1.1125721167720103e+01 1.1125721167720103e+01
-1.1125721167720103e+01 1.1125721167720103e+01
ITEM: ENTRIES index c_dphi
1 177.674 
2 55.0524 
3 -71.1133 
4 -164.168 
5 69.6667 
6 -41.5458 
7 -56.6855 
8 177.149 
9 65.9361 
10 -149.903 
11 69.7892 
12 -35.3981 
13 -165.374 
14 -45.2273 
15 78.3018 
16 -171.6 
17 -167.806 
18 74.3692 
19 -44.9018 
20 -60.6496 
21 -178.475 
22 62.2543 
23 65.4959 
24 -52.3291 
25 -175.191 
26 60.2022 
27 -48.985 
28 164.16 
29 50.6172 
30 -70.9869 
31 174.525 
32 -61.6297 
33 56.6573 
34 -168.498 
35 73.603 
36 -49.93 
37 161.71 
38 -73.3303 
39 36.2504 
40 160.164 
41 36.8526 
42 -77.7505 
43 157.354 
44 42.7507 
45 -79.3349 
46 -86.5323 
47 158.865 
48 36.779 
49 58.6443 
50 -61.8989 
51 177.134 
52 56.5906 
53 -53.7743 
54 -174.317 
55 -169.748 
56 64.6768 
57 -49.7441 
58 -62.9195 
59 57.342 
60 -143.672 
61 -16.7938 
62 94.634 
63 -144.119 
64 88.6747 
65 -21.765 
66 -142.355 
67 107.205 
68 -15.1494 
69 -27.4029 
70 -137.843 
71 99.803 
72 170.457 
73 -73.4355 
74 54.0516 
75 144.16 
76 24.3993 
77 -91.0253 
78 131.876 
79 16.4512 
80 -108.363 
81 -99.8495 
82 144.726 
83 19.9117 
84 176.78 
85 60.0958 
86 -65.1557 
87 174.57 
88 49.6121 
89 -68.7425 
90 143.43 
91 25.329 
92 -92.6566 
93 150.595 
94 32.6099 
95 -91.3035 
96 -93.9786 
97 148.036 
98 24.1226 
99 -175.495 
100 -60.8257 
101 60.7425 
102 178.084 
103 59.5545 
104 -60.7662 
105 162.442 
106 42.6256 
107 -83.9126 
108 167.888 
109 41.3499 
110 -72.2953 
111 -81.337 
112 152.125 
113 38.4796 
114 26.4371 
115 144.843 
116 -90.4787 
ITEM: TIMESTEP
52200
ITEM: NUMBER OF ENTRIES
116
ITEM: BOX BOUNDS pp pp pp
-2.1659880786948438e+01 2.1659880786948438e+01
-1.1125721167720103e+01 1.1125721167720103e+01
-1.1125721167720103e+01 1.1125721167720103e+01
ITEM: ENTRIES index c_dphi
1 -160.158 
2 77.4136 
3 -35.8835 
4 -156.822 
5 89.8807 
6 -34.3935 
7 -40.6092 
8 -153.906 
9 81.8195 
10 129.444 
11 3.41499 
12 -114.668 
13 176.905 
14 -61.8948 
15 48.2301 
16 -145.39 
17 -138.655 
18 103.038 
19 -17.4092 
20 -33.6555 
21 -151.963 
22 87.5898 
23 93.3642 
24 -24.9435 
25 170.894 
26 45.0867 
27 -64.7294 
28 158.507 
29 39.5864 
30 -75.1939 
31 153.9 
32 -83.4382 
33 29.3661 
34 157.201 
35 31.9054 
36 -86.014 
37 166.019 
38 -69.4712 
39 48.7443 
40 -152.981 
41 82.9441 
42 -41.7236 
43 -156.234 
44 79.0983 
45 -32.1589 
46 -41.1927 
47 -165.86 
48 82.8824 
49 56.456 
50 -58.5487 
51 -179.388 
52 65.6068 
53 -54.4273 
54 -169.432 
55 -179.717 
56 61.7134 
57 -53.6832 
58 -60.5183 
59 57.5961 
60 179.713 
61 -61.8938 
62 56.4505 
63 -132.904 
64 105.915 
65 -18.253 
66 -139.009 
67 96.8229 
68 -17.8277 
69 -24.9732 
70 -149.141 
71 96.2085 
72 -176.581 
73 -52.5443 
74 63.1341 
75 175.584 
76 50.4531 
77 -60.2948 
78 177.609 
79 66.8609 
80 -57.2603 
81 -65.6538 
82 -176.402 
83 59.4771 
84 157.303 
85 39.2501 
86 -83.3346 
87 170.22 
88 47.1814 
89 -71.5225 
90 158.064 
91 40.958 
92 -80.9031 
93 163.226 
94 41.3647 
95 -79.668 
96 -79.5267 
97 158.612 
98 37.5795 
99 -178.316 
100 -61.5455 
101 62.9203 
102 165.037 
103 48.9411 
104 -74.1621 
105 -162.649 
106 76.2532 
107 -37.1148 
108 -164.739 
109 81.8933 
110 -43.6404 
111 -42.6632 
112 -156.031 
113 78.4351 
114 56.375 
115 170.876 
116 -60.7714 
ITEM: TIMESTEP
52300
ITEM: NUMBER OF ENTRIES
116
ITEM: BOX BOUNDS pp pp pp
-2.1659880786948438e+01 2.1659880786948438e+01
-1.1125721167720103e+01 1.1125721167720103e+01
-1.1125721167720103e+01 1.1125721167720103e+01
ITEM: ENTRIES index c_dphi
1 172.513 
2 52.7626 
3 -61.0634 
4 -177.605 
5 68.569 
6 -57.8547 
7 -57.6989 
8 -171.525 
9 62.0513 
10 159.855 
11 28.6904 
12 -88.6038 
13 173.087 
14 -64.5033 
15 46.3754 
16 -170.376 
17 -163.037 
18 75.5079 
19 -42.2644 
20 -55.4271 
21 -176.882 
22 65.3453 
23 68.8516 
24 -52.6037 
25 150.031 
26 24.5701 
27 -89.2967 
28 173.925 
29 54.5946 
30 -65.991 
31 164.394 
32 -73.0839 
33 38.8328 
34 149.979 
35 26.0528 
36 -85.5221 
37 173.927 
38 -60.6379 
39 54.2532 
40 -157.89 
41 76.459 
42 -34.6865 
43 -163.127 
44 85.7272 
45 -37.4759 
46 -35.125 
47 -146.27 
48 90.5263 
49 55.3998 
50 -58.2053 
51 178.323 
52 64.7175 
53 -68.3901 
54 178.005 
55 146.294 
56 19.1722 
57 -96.0548 
58 -61.9513 
59 67.1392 
60 175.312 
61 -55.2805 
62 64.5778 
63 -170.504 
64 64.8902 
65 -56.9813 
66 -166.233 
67 71.8959 
68 -41.6265 
69 -54.9659 
70 -176.837 
71 69.6401 
72 159.731 
73 -71.3283 
74 45.1814 
75 -147.124 
76 84.1445 
77 -24.5922 
78 -148.109 
79 103.154 
80 -19.3775 
81 -33.6449 
82 -142.382 
83 95.0865 
84 -160.943 
85 74.355 
86 -47.2524 
87 166.831 
88 50.6646 
89 -73.5516 
90 169.608 
91 47.202 
92 -70.184 
93 165.625 
94 48.2386 
95 -71.9691 
96 -73.9313 
97 168.683 
98 48.475 
99 175.007 
100 -59.4619 
101 53.0043 
102 175.425 
103 57.5402 
104 -63.3926 
105 168.276 
106 55.2898 
107 -77.6997 
108 171.524 
109 38.535 
110 -75.4895 
111 -62.2762 
112 164.734 
113 50.7098 
114 52.2246 
115 169.998 
116 -71.9222 
ITEM: TIMESTEP
52400
ITEM: NUMBER OF ENTRIES
116
ITEM: BOX BOUNDS pp pp pp
-2.1659880786948438e+01 2.1659880786948438e+01
-1.1125721167720103e+01 1.1125721167720103e+01
-1.1125721167720103e+01 1.1125721167720103e+01
ITEM: ENTRIES index c_dphi
1 174.462 
2 63.1901 
3 -70.2238 
4 -165.511 
5 61.075 
6 -54.2397 
7 -49.6721 
8 176.914 
9 61.5993 
10 -119.639 
11 109.075 
12 -5.33012 
13 175.961 
14 -67.0132 
15 60.7951 
16 -168.514 
17 -168.13 
18 75.5183 
19 -44.876 
20 -52.4186 
21 -168.771 
22 70.8349 
23 68.2329 
24 -48.1193 
25 169.62 
26 47.228 
27 -73.9787 
28 165.135 
29 38.479 
30 -77.6491 
31 168.691 
32 -67.4545 
33 53.6536 
34 172.621 
35 62.1006 
36 -65.8332 
37 157.725 
38 -85.3835 
39 29.2637 
40 143.17 
41 24.5147 
42 -90.7732 
43 148.861 
44 33.573 
45 -92.4839 
46 -88.0619 
47 156.65 
48 30.5934 
49 41.4965 
50 -79.4379 
51 154.619 
52 33.6845 
53 -82.8759 
54 156.19 
55 175.344 
56 53.1064 
57 -62.8048 
58 -59.953 
59 66.9706 
60 169.146 
61 -71.133 
62 50.5644 
63 -160.6 
64 81.2748 
65 -44.0413 
66 -156.635 
67 78.0488 
68 -38.51 
69 -44.2243 
70 -169.54 
71 73.9007 
72 174.265 
73 -63.7473 
74 63.7236 
75 -165.56 
76 69.5117 
77 -41.0938 
78 -172.581 
79 76.8134 
80 -47.6532 
81 -49.5059 
82 -160.111 
83 75.422 
84 158.955 
85 38.116 
86 -87.4967 
87 -171.486 
88 72.5261 
89 -50.2686 
90 170.08 
91 49.2515 
92 -69.5878 
93 163.136 
94 44.2966 
95 -76.036 
96 -73.4131 
97 167.748 
98 47.415 
99 158.404 
100 -82.0189 
101 38.9937 
102 -154.092 
103 83.1481 
104 -29.2266 
105 176.552 
106 54.6248 
107 -64.1345 
108 171.305 
109 52.5456 
110 -66.7682 
111 -68.8598 
112 172.381 
113 53.0672 
114 67.3157 
115 -175.701 
116 -55.4198 
ITEM: TIMESTEP
52500
ITEM: NUMBER OF ENTRIES
116
ITEM: BOX BOUNDS pp pp pp
-2.1659880786948438e+01 2.1659880786948438e+01
-1.1125721167720103e+01 1.1125721167720103e+01
-1.1125721167720103e+01 1.1125721167720103e+01
ITEM: ENTRIES index c_dphi
1 -165.094 
2 74.7077 
3 -31.9166 
4 -166.211 
5 87.1642 
6 -46.0133 
7 -32.3946 
8 -139.019 
9 87.8036 
10 164.999 
11 39.4979 
12 -84.8667 
13 176.016 
14 -69.6414 
15 49.8629 
16 -151.01 
17 -152.527 
18 99.1535 
19 -28.234 
20 -39.6393 
21 -147.959 
22 84.6534 
23 84.6968 
24 -23.6229 
25 -155.479 
26 85.0014 
27 -36.5582 
28 139.794 
29 11.9367 
30 -103.894 
31 137.916 
32 -105.852 
33 14.0783 
34 -171.806 
35 69.6748 
36 -60.2907 
37 -173.187 
38 -49.4911 
39 69.2268 
40 161.205 
41 44.6372 
42 -85.2047 
43 168.388 
44 38.5465 
45 -75.0437 
46 -71.201 
47 158.957 
48 45.367 
49 25.2734 
50 -93.0419 
51 152.402 
52 34.0867 
53 -96.2841 
54 145.401 
55 -174.446 
56 70.8309 
57 -51.8986 
58 -74.1711 
59 40.6802 
60 160.897 
61 -87.7629 
62 32.4238 
63 -168.288 
64 78.6973 
65 -38.4352 
66 -159.187 
67 83.6809 
68 -46.1721 
69 -41.8057 
70 -158.938 
71 71.2087 
72 -165.349 
73 -54.7748 
74 72.3209 
75 -166.746 
76 82.3589 
77 -34.9456 
78 -161.449 
79 81.2468 
80 -50.5532 
81 -44.623 
82 -161.928 
83 66.2725 
84 137.186 
85 28.0848 
86 -93.6819 
87 -176.702 
88 58.1203 
89 -53.6148 
90 -171.582 
91 65.587 
92 -52.0117 
93 -172.512 
94 69.889 
95 -49.6811 
96 -56.5321 
97 -174.131 
98 66.2992 
99 170.938 
100 -65.2854 
101 52.0605 
102 -174.054 
103 64.3905 
104 -50.3102 
105 175.286 
106 44.3009 
107 -64.1058 
108 167.75 
109 59.3433 
110 -61.2651 
111 -87.8422 
112 163.751 
113 43.1428 
114 79.45 
115 -154.797 
116 -39.5602 
ITEM: TIMESTEP
52600
ITEM: NUMBER OF ENTRIES
116
ITEM: BOX BOUNDS pp pp pp
-2.1659880786948438e+01 2.1659880786948438e+01
-1.1125721167720103e+01 1.1125721167720103e+01
-1.1125721167720103e+01 1.1125721167720103e+01
ITEM: ENTRIES index c_dphi
1 174.129 
2 46.6444 
3 -62.8123 
4 -179.7 
5 70.8428 
6 -52.2163 
7 -61.3014 
8 -170.758 
9 66.1828 
10 -141.963 
11 83.2644 
12 -31.834 
13 -170.416 
14 -46.9992 
15 64.8074 
16 155.679 
17 159.082 
18 46.2426 
19 -81.6275 
20 -84.3932 
21 162.768 
22 34.8978 
23 36.3884 
24 -76.4506 
25 166.515 
26 48.3119 
27 -78.3487 
28 174.583 
29 56.9492 
30 -61.3309 
31 163.599 
32 -84.8874 
33 43.2837 
34 -175.898 
35 56.2541 
36 -56.8443 
37 149.837 
38 -89.2873 
39 26.1782 
40 -175.854 
41 62.9243 
42 -54.2032 
43 179.51 
44 62.3829 
45 -59.2679 
46 -63.243 
47 179.63 
48 57.9787 
49 85.3251 
50 -23.5747 
51 -141.261 
52 109.839 
53 -32.4217 
54 -141.322 
55 160.336 
56 34.9898 
57 -85.3908 
58 -60.0664 
59 54.4195 
60 171.286 
61 -67.9225 
62 51.1531 
63 164.338 
64 37.0617 
65 -73.3348 
66 161.634 
67 51.2377 
68 -71.0897 
69 -80.2549 
70 169.349 
71 47.0211 
72 179.218 
73 -59.4545 
74 54.3084 
75 164.574 
76 48.973 
77 -67.3613 
78 169.839 
79 53.5048 
80 -74.5603 
81 -73.2009 
82 170.465 
83 42.3998 
84 147.195 
85 22.4701 
86 -98.3635 
87 170.736 
88 49.9437 
89 -71.654 
90 -161.803 
91 75.346 
92 -38.5337 
93 -156.948 
94 89.1723 
95 -34.0967 
96 -42.9104 
97 -156.79 
98 79.9409 
99 -178.303 
100 -53.9578 
101 59.1549 
102 173.369 
103 45.8677 
104 -66.2827 
105 -171.445 
106 57.9666 
107 -51.241 
108 177.698 
109 68.4899 
110 -51.714 
111 -57.6393 
112 -166.847 
113 72.9491 
114 80.2101 
115 -152.964 
116 -39.2191 
ITEM: TIMESTEP
52700
ITEM: NUMBER OF ENTRIES
116
ITEM: BOX BOUNDS pp pp pp
-2.1659880786948438e+01 2.1659880786948438e+01
-1.1125721167720103e+01 1.1125721167720103e+01
-1.1125721167720103e+01 1.1125721167720103e+01
ITEM: ENTRIES index c_dphi
1 -171.354 
2 72.3149 
3 -59.1634 
4 -166.054 
5 62.4675 
6 -49.7226 
7 -35.4739 
8 -166.952 
9 80.8575 
10 126.064 
11 3.64857 
12 -127.161 
13 153.112 
14 -87.8366 
15 37.5329 
16 177.128 
17 175.306 
18 51.9497 
19 -61.9489 
20 -60.3114 
21 176.332 
22 62.4337 
23 54.383 
24 -68.9732 
25 154.794 
26 33.7714 
27 -92.8342 
28 177.764 
29 60.4616 
30 -57.5031 
31 -173.889 
32 -51.6693 
33 73.386 
34 -175.963 
35 62.0787 
36 -57.11 
37 167.399 
38 -73.3319 
39 47.2005 
40 175.67 
41 52.6238 
42 -55.8957 
43 168.281 
44 59.7616 
45 -68.6726 
46 -68.8568 
47 -177.376 
48 54.1895 
49 74.9336 
50 -40.4057 
51 -162.033 
52 82.6274 
53 -43.6193 
54 -158.959 
55 166.867 
56 47.3835 
57 -71.808 
58 -79.298 
59 40.0168 
60 174.534 
61 -63.0691 
62 55.9809 
63 161.235 
64 40.6716 
65 -73.3294 
66 159.802 
67 45.8006 
68 -79.635 
69 -77.1488 
70 168.85 
71 43.4146 
72 173.612 
73 -52.9594 
74 50.093 
75 168.654 
76 39.5397 
77 -64.7361 
78 165.799 
79 61.5228 
80 -65.0872 
81 -73.8227 
82 -178.099 
83 55.2914 
84 179.395 
85 57.1885 
86 -64.08 
87 173.714 
88 52.6332 
89 -68.4099 
90 179.879 
91 50.8574 
92 -58.0931 
93 170.013 
94 61.0627 
95 -60.9655 
96 -69.9175 
97 -178.868 
98 59.1038 
99 -169.312 
100 -39.0291 
101 70.7056 
102 -173.203 
103 69.8599 
104 -43.2898 
105 175.071 
106 57.1716 
107 -67.9063 
108 171.035 
109 45.957 
110 -71.0658 
111 -66.2073 
112 168.715 
113 51.692 
114 46.5041 
115 169.89 
116 -74.9933 
ITEM: TIMESTEP
52800
ITEM: NUMBER OF ENTRIES
116
ITEM: BOX BOUNDS pp pp pp
-2.1659880786948438e+01 2.1659880786948438e+01
-1.1125721167720103e+01 1.1125721167720103e+01
-1.1125721167720103e+01 1.1125721167720103e+01
ITEM: ENTRIES index c_dphi
1 164.161 
2 51.2988 
3 -77.1905 
4 165.754 
5 37.2649 
6 -81.384 
7 -77.2557 
8 154.255 
9 35.6061 
10 150.518 
11 33.9537 
12 -85.0378 
13 172.348 
14 -72.0056 
15 48.6544 
16 170.652 
17 164.332 
18 40.974 
19 -68.8862 
20 -69.4261 
21 167.216 
22 57.3557 
23 43.8703 
24 -79.4876 
25 -178.826 
26 60.1736 
27 -67.3506 
28 -165.565 
29 68.055 
30 -48.3869 
31 -166.803 
32 -45.9477 
33 77.9465 
34 -173.844 
35 69.671 
36 -57.4436 
37 -161.735 
38 -48.9426 
39 77.946 
40 176.303 
41 59.1082 
42 -56.5975 
43 -173.094 
44 71.2002 
45 -55.8991 
46 -56.9925 
47 -172.698 
48 60.2025 
49 32.8521 
50 -91.7372 
51 153.024 
52 28.4344 
53 -84.0898 
54 151.321 
55 -166.664 
56 68.3038 
57 -49.4233 
58 -77.3719 
59 42.5462 
60 149.462 
61 -90.9592 
62 25.9611 
63 166.783 
64 43.6125 
65 -68.4287 
66 168.2 
67 56.1585 
68 -68.6299 
69 -79.0747 
70 168.884 
71 44.0957 
72 -178.325 
73 -51.324 
74 71.445 
75 178.534 
76 51.4402 
77 -63.5203 
78 -177.991 
79 67.0484 
80 -50.8974 
81 -63.6006 
82 -178.561 
83 63.4931 
84 -178.578 
85 59.2186 
86 -59.4563 
87 -173.789 
88 59.3844 
89 -45.4433 
90 171.803 
91 48.6039 
92 -68.4737 
93 171.916 
94 54.838 
95 -64.8856 
96 -73.1593 
97 169.763 
98 50.0396 
99 172.74 
100 -63.5066 
101 51.2783 
102 166.918 
103 48.0998 
104 -64.5567 
105 170.792 
106 51.4203 
107 -61.6838 
108 171.617 
109 58.5127 
110 -69.0116 
111 -67.8584 
112 179.037 
113 51.5132 
114 63.7157 
115 177.051 
116 -50.8594 
ITEM: TIMESTEP
52900
ITEM: NUMBER OF ENTRIES
116
ITEM: BOX BOUNDS pp pp pp
-2.1659880786948438e+01 2.1659880786948438e+01
-1.1125721167720103e+01 1.1125721167720103e+01
-1.1125721167720103e+01 1.1125721167720103e+01
ITEM: ENTRIES index c_dphi
1 -154.035 
2 73.19 
3 -29.8373 
4 -161.035 
5 95.9375 
6 -28.2601 
7 -56.3651 
8 -159.392 
9 76.41 
10 -22.669 
11 -147.925 
12 109.66 
13 -164.491 
14 -37.2112 
15 80.5146 
16 166.626 
17 168.326 
18 45.669 
19 -70.3778 
20 -63.9367 
21 173.407 
22 57.3597 
23 45.3294 
24 -77.3274 
25 169.436 
26 45.0331 
27 -83.7064 
28 -168.076 
29 65.0651 
30 -53.0504 
31 -174.598 
32 -59.4201 
33 65.4183 
34 172.712 
35 54.3357 
36 -65.1241 
37 159.358 
38 -85.1138 
39 40.2578 
40 176.372 
41 49.9787 
42 -64.5174 
43 176.138 
44 61.6418 
45 -57.4692 
46 -67.3463 
47 178.158 
48 59.0466 
49 96.0664 
50 -27.9275 
51 -143.886 
52 92.1197 
53 -28.5526 
54 -152.547 
55 158.85 
56 40.5488 
57 -80.2675 
58 -58.224 
59 62.5899 
60 155.588 
61 -89.2393 
62 34.3571 
63 -169.163 
64 81.3123 
65 -49.8341 
66 -157.507 
67 71.3466 
68 -47.9824 
69 -30.3475 
70 -161.494 
71 79.177 
72 155.269 
73 -83.1582 
74 43.0603 
75 163.829 
76 47.228 
77 -79.2622 
78 169.548 
79 43.0583 
80 -73.8501 
81 -70.4239 
82 163.086 
83 46.1775 
84 155.976 
85 31.3571 
86 -89.5035 
87 170.667 
88 44.0249 
89 -68.2683 
90 -153.055 
91 84.5321 
92 -27.4288 
93 -152.563 
94 95.4757 
95 -30.1501 
96 -31.0882 
97 -143.049 
98 91.3252 
99 -151.154 
100 -28.3827 
101 79.9511 
102 138.075 
103 14.2643 
104 -105.569 
105 156.666 
106 34.985 
107 -89.9939 
108 164.931 
109 39.9517 
110 -73.3887 
111 -81.7345 
112 153.287 
113 39.9461 
114 75.0271 
115 -159.191 
116 -41.0058 
ITEM: TIMESTEP
53000
ITEM: NUMBER OF ENTRIES
116
ITEM: BOX BOUNDS pp pp pp
-2.1659880786948438e+01 2.1659880786948438e+01
-1.1125721167720103e+01 1.1125721167720103e+01
-1.1125721167720103e+01 1.1125721167720103e+01
ITEM: ENTRIES index c_dphi
1 162.026 
2 41.9171 
3 -83.7944 
4 165.202 
5 39.4905 
6 -74.6889 
7 -83.6357 
8 150.653 
9 36.4734 
10 14.6189 
11 -107.863 
12 140.306 
13 -178.74 
14 -53.7067 
15 63.6852 
16 -160.025 
17 -155.248 
18 82.9564 
19 -36.6076 
20 -31.5079 
21 -153.304 
22 87.1321 
23 81.3352 
24 -40.4608 
25 -164.748 
26 67.3299 
27 -59.4233 
28 154.073 
29 34.5182 
30 -86.4219 
31 170.064 
32 -75.6791 
33 53.0695 
34 161.102 
35 33.4984 
36 -82.4486 
37 -164.085 
38 -33.5545 
39 83.3406 
40 -172.004 
41 55.8478 
42 -52.4978 
43 179.343 
44 70.997 
45 -48.5095 
46 -61.2379 
47 -169.583 
48 70.91 
49 46.434 
50 -62.008 
51 179.472 
52 71.0302 
53 -67.8556 
54 -176.298 
55 177.279 
56 52.7485 
57 -64.3964 
58 -76.2873 
59 37.1152 
60 174.162 
61 -70.2615 
62 52.9578 
63 -159.042 
64 77.2617 
65 -35.5496 
66 -161.962 
67 85.2267 
68 -38.2657 
69 -41.819 
70 -154.63 
71 81.8774 
72 155.112 
73 -90.6537 
74 25.7947 
75 170.146 
76 54.7803 
77 -57.7417 
78 173.905 
79 61.3829 
80 -70.7299 
81 -69.0638 
82 178.414 
83 46.3015 
84 170.893 
85 53.4779 
86 -64.7133 
87 177.495 
88 49.236 
89 -65.9443 
90 174.105 
91 54.9871 
92 -57.7583 
93 178.494 
94 65.7483 
95 -62.388 
96 -59.8461 
97 -172.592 
98 59.2722 
99 157.504 
100 -81.6421 
101 25.4269 
102 165.019 
103 43.6219 
104 -80.4162 
105 173.142 
106 49.6363 
107 -61.7431 
108 171.275 
109 59.8961 
110 -65.2192 
111 -71.1671 
112 177.453 
113 52.3382 
114 94.0994 
115 -134.574 
116 -34.8919 
ITEM: TIMESTEP
53100
ITEM: NUMBER OF ENTRIES
116
ITEM: BOX BOUNDS pp pp pp
-2.1659880786948438e+01 2.1659880786948438e+01
-1.1125721167720103e+01 1.1125721167720103e+01
-1.1125721167720103e+01 1.1125721167720103e+01
ITEM: ENTRIES index c_dphi
1 -163.337 
2 87.5165 
3 -44.1901 
4 -160.413 
5 67.8803 
6 -51.2662 
7 -31.7911 
8 -163.498 
9 77.3558 
10 35.5067 
11 -87.4144 
12 158.258 
13 -157.998 
14 -45.3411 
15 78.1396 
16 169.601 
17 171.126 
18 55.3792 
19 -63.3616 
20 -69.5116 
21 174.741 
22 56.0007 
23 44.0885 
24 -71.6584 
25 -172.983 
26 58.3982 
27 -62.1436 
28 158.852 
29 39.6804 
30 -71.7425 
31 141.864 
32 -98.0001 
33 26.3872 
34 -166.594 
35 68.6056 
36 -51.1347 
37 -152.218 
38 -36.9095 
39 85.7358 
40 -175.065 
41 63.6244 
42 -55.3933 
43 179.738 
44 60.72 
45 -58.952 
46 -64.0675 
47 176.915 
48 57.2428 
49 21.3729 
50 -92.4361 
51 152.117 
52 38.3083 
53 -97.1372 
54 149.054 
55 170.704 
56 52.5824 
57 -72.1363 
58 -67.0252 
59 43.0693 
60 -151.771 
61 -29.4966 
62 91.2347 
63 178.106 
64 58.839 
65 -61.0127 
66 177.635 
67 57.7833 
68 -63.0976 
69 -52.3717 
70 -172.223 
71 66.8957 
72 152.034 
73 -85.1698 
74 24.5819 
75 170.337 
76 45.281 
77 -66.0353 
78 172.809 
79 61.4924 
80 -62.1357 
81 -77.4026 
82 171.281 
83 47.6531 
84 173.191 
85 49.8154 
86 -64.6104 
87 153.942 
88 32.2215 
89 -81.5739 
90 -179.211 
91 60.5805 
92 -54.5736 
93 -179.437 
94 65.4091 
95 -59.2288 
96 -61.4843 
97 -176.638 
98 58.7239 
99 -169.712 
100 -50.3077 
101 65.3637 
102 -166.953 
103 78.6965 
104 -55.9218 
105 157.368 
106 37.4278 
107 -72.3054 
108 154.141 
109 44.408 
110 -85.9187 
111 -83.2112 
112 167.056 
113 36.729 
114 95.6311 
115 -145.108 
116 -30.7242 
ITEM: TIMESTEP
53200
ITEM: NUMBER OF ENTRIES
116
ITEM: BOX BOUNDS pp pp pp
-2.1659880786948438e+01 2.1659880786948438e+01
-1.1125721167720103e+01 1.1125721167720103e+01
-1.1125721167720103e+01 1.1125721167720103e+01
ITEM: ENTRIES index c_dphi
1 171.769 
2 41.9563 
3 -69.6129 
4 163.114 
5 51.5445 
6 -67.0741 
7 -77.3855 
8 171.045 
9 52.4267 
10 -20.9175 
11 -143.659 
12 98.1833 
13 162.272 
14 -70.9837 
15 40.2144 
16 -138.778 
17 -141.134 
18 104.722 
19 -17.149 
20 -20.5827 
21 -134.727 
22 103.402 
23 97.2368 
24 -16.9076 
25 -162.059 
26 75.8267 
27 -41.0997 
28 157.579 
29 31.3105 
30 -82.475 
31 164.536 
32 -75.1253 
33 37.4368 
34 -137.656 
35 109.702 
36 -16.5791 
37 177.919 
38 -63.9818 
39 53.5647 
40 135.859 
41 26.0162 
42 -104.092 
43 151.297 
44 21.1894 
45 -98.8595 
46 -91.7063 
47 138.186 
48 18.1368 
49 61.4919 
50 -55.9983 
51 178.776 
52 61.2862 
53 -61.1209 
54 -178.611 
55 160.058 
56 33.4298 
57 -79.8432 
58 -80.351 
59 40.769 
60 -135.298 
61 -16.7357 
62 101.887 
63 149.583 
64 21.4885 
65 -86.7189 
66 150.974 
67 42.7663 
68 -80.9321 
69 -94.0994 
70 157.693 
71 33.9948 
72 174.017 
73 -59.5874 
74 49.2103 
75 138.228 
76 8.87823 
77 -104.227 
78 127.592 
79 14.4869 
80 -103.058 
81 -107.681 
82 139.214 
83 21.6686 
84 -174.938 
85 62.7825 
86 -59.7158 
87 -167.579 
88 72.9217 
89 -39.9812 
90 -161.216 
91 77.9607 
92 -41.5834 
93 -166.717 
94 73.7394 
95 -45.8937 
96 -49.1764 
97 -168.72 
98 71.6465 
99 179.537 
100 -64.2285 
101 61.9051 
102 175.835 
103 49.916 
104 -69.2969 
105 -175.736 
106 67.8322 
107 -54.1548 
108 -164.35 
109 73.6628 
110 -47.918 
111 -46.4533 
112 -168.44 
113 69.979 
114 33.5647 
115 149.996 
116 -89.2497 
ITEM: TIMESTEP
53300
ITEM: NUMBER OF ENTRIES
116
ITEM: BOX BOUNDS pp pp pp
-2.1659880786948438e+01 2.1659880786948438e+01
-1.1125721167720103e+01 1.1125721167720103e+01
-1.1125721167720103e+01 1.1125721167720103e+01
ITEM: ENTRIES index c_dphi
1 -163.523 
2 72.0377 
3 -45.626 
4 -161.921 
5 80.4156 
6 -37.4819 
7 -46.8752 
8 -164.539 
9 77.5636 
10 -41.7389 
11 -164.57 
12 75.0999 
13 179.239 
14 -51.8572 
15 55.1103 
16 -175.281 
17 179.306 
18 59.7837 
19 -63.9398 
20 -54.1629 
21 -173.686 
22 62.591 
23 67.9654 
24 -51.5573 
25 175.333 
26 60.9489 
27 -55.0457 
28 178.826 
29 52.7362 
30 -71.9862 
31 168.401 
32 -68.4843 
33 48.4554 
34 -128.212 
35 114.692 
36 0.334254 
37 160.475 
38 -69.2297 
39 43.3677 
40 147.323 
41 23.0515 
42 -99.7414 
43 152.797 
44 30.0037 
45 -82.9323 
46 -85.2386 
47 151.969 
48 39.0325 
49 65.9817 
50 -59.7334 
51 175.449 
52 49.7336 
53 -60.9245 
54 173.36 
55 -169.168 
56 72.7637 
57 -50.5556 
58 -91.2253 
59 39.4143 
60 168.383 
61 -72.3959 
62 50.0712 
63 159.994 
64 46.0877 
65 -76.3748 
66 161.886 
67 39.4231 
68 -84.2078 
69 -69.6061 
70 167.931 
71 44.3005 
72 -144.229 
73 -22.5661 
74 106.888 
75 168.701 
76 42.2221 
77 -85.7057 
78 167.133 
79 39.2048 
80 -66.3881 
81 -69.8382 
82 162.234 
83 56.6411 
84 172.941 
85 54.5334 
86 -69.6435 
87 -147.921 
88 96.2841 
89 -34.2137 
90 -167.7 
91 70.0754 
92 -40.9452 
93 -169.954 
94 79.0252 
95 -47.7297 
96 -51.6194 
97 -162.64 
98 70.6051 
99 166.728 
100 -70.9168 
101 38.0337 
102 166.189 
103 48.8988 
104 -67.7842 
105 171.844 
106 61.8775 
107 -64.7901 
108 -177.367 
109 55.9651 
110 -67.4011 
111 -59.3982 
112 173.934 
113 50.568 
114 87.6026 
115 -166.612 
116 -40.3649 
ITEM: TIMESTEP
53400
ITEM: NUMBER OF ENTRIES
116
ITEM: BOX BOUNDS pp pp pp
-2.1659880786948438e+01 2.1659880786948438e+01
-1.1125721167720103e+01 1.1125721167720103e+01
-1.1125721167720103e+01 1.1125721167720103e+01
ITEM: ENTRIES index c_dphi
1 -169.166 
2 76.3757 
3 -46.3884 
4 -165.109 
5 72.1269 
6 -50.6509 
7 -39.2914 
8 -162.055 
9 75.1668 
10 -54.7813 
11 179.124 
12 68.2101 
13 177.171 
14 -62.631 
15 51.7085 
16 -162.639 
17 -161.264 
18 74.9522 
19 -48.7652 
20 -38.0288 
21 -161.813 
22 74.4697 
23 84.8623 
24 -38.9217 
25 -171.336 
26 67.8535 
27 -40.8991 
28 178.785 
29 64.094 
30 -52.0355 
31 -177.338 
32 -51.3258 
33 59.4138 
34 -141.91 
35 92.1626 
36 -19.2935 
37 161.867 
38 -73.2157 
39 41.4255 
40 145.887 
41 16.3768 
42 -98.7645 
43 133.209 
44 18.068 
45 -97.2807 
46 -110.902 
47 133.957 
48 18.6084 
49 65.7161 
50 -58.3416 
51 176.195 
52 52.1375 
53 -54.7755 
54 -178.833 
55 -146.916 
56 94.5292 
57 -25.1951 
58 -108.787 
59 10.9 
60 126.501 
61 -113.766 
62 4.6969 
63 -174.837 
64 62.9018 
65 -49.6879 
66 -174.146 
67 73.2643 
68 -51.8844 
69 -63.5345 
70 -176.124 
71 58.7271 
72 -150.014 
73 -36.6973 
74 84.1106 
75 -158.192 
76 78.2126 
77 -34.142 
78 -162.785 
79 84.8606 
80 -39.1897 
81 -45.6797 
82 -158.034 
83 77.9153 
84 -171.467 
85 67.6747 
86 -47.4501 
87 -150.037 
88 85.9463 
89 -32.318 
90 -169.713 
91 70.5162 
92 -49.363 
93 -161.774 
94 78.3468 
95 -42.0029 
96 -50.1747 
97 -170.054 
98 69.5964 
99 177.617 
100 -60.0931 
101 57.0199 
102 168.971 
103 57.0269 
104 -61.2189 
105 179.563 
106 65.9284 
107 -50.2938 
108 176.664 
109 60.4415 
110 -69.702 
111 -60.4735 
112 -176.696 
113 53.1608 
114 145.521 
115 -103.195 
116 17.528 
ITEM: TIMESTEP
53500
ITEM: NUMBER OF ENTRIES
116
ITEM: BOX BOUNDS pp pp pp
-2.1659880786948438e+01 2.1659880786948438e+01
-1.1125721167720103e+01 1.1125721167720103e+01
-1.1125721167720103e+01 1.1125721167720103e+01
ITEM: ENTRIES index c_dphi
1 -178.757 
2 70.7138 
3 -53.6635 
4 -162.587 
5 73.0355 
6 -52.0579 
7 -54.4136 
8 -178.791 
9 56.1157 
10 -89.1759 
11 143.885 
12 32.5277 
13 160.605 
14 -81.798 
15 30.8229 
16 -159.218 
17 -156.283 
18 92.2589 
19 -38.578 
20 -42.2546 
21 -153.713 
22 75.45 
23 83.077 
24 -28.3814 
25 -153.404 
26 83.0893 
27 -25.7616 
28 -167.495 
29 75.4213 
30 -36.4364 
31 165.976 
32 -72.3005 
33 33.6792 
34 146.005 
35 26.9991 
36 -86.493 
37 -176.556 
38 -62.5332 
39 63.9194 
40 -168.885 
41 76.9742 
42 -42.137 
43 -164.939 
44 75.9503 
45 -50.7972 
46 -57.4023 
47 -176.513 
48 56.7391 
49 37.9531 
50 -84.2316 
51 155.559 
52 33.3739 
53 -77.0312 
54 160.784 
55 -173.335 
56 72.4998 
57 -49.9215 
58 -78.1632 
59 39.4682 
60 169.808 
61 -71.6593 
62 48.0732 
63 -164.107 
64 77.7863 
65 -44.2707 
66 -160.52 
67 77.4228 
68 -42.4133 
69 -41.1398 
70 -163.197 
71 76.9671 
72 -166.341 
73 -47.8597 
74 54.9681 
75 -146.059 
76 92.4742 
77 -11.2439 
78 -148.793 
79 107.489 
80 -27.3261 
81 -31.1813 
82 -134.899 
83 90.2856 
84 -169.377 
85 69.5904 
86 -48.1043 
87 179.56 
88 55.9642 
89 -58.7817 
90 177.717 
91 56.5789 
92 -62.6281 
93 -176.987 
94 63.8058 
95 -55.8491 
96 -61.7556 
97 179.037 
98 59.3824 
99 165.624 
100 -74.8696 
101 48.8238 
102 168.383 
103 27.9501 
104 -81.2974 
105 178.083 
106 68.3703 
107 -51.029 
108 -152.615 
109 87.9862 
110 -42.9015 
111 -38.4966 
112 -157.896 
113 71.2165 
114 29.1553 
115 140.927 
116 -105.043 
ITEM: TIMESTEP
53600
ITEM: NUMBER OF ENTRIES
116
ITEM: BOX BOUNDS pp pp pp
-2.1659880786948438e+01 2.1659880786948438e+01
-1.1125721167720103e+01 1.1125721167720103e+01
-1.1125721167720103e+01 1.1125721167720103e+01
ITEM: ENTRIES index c_dphi
1 167.951 
2 42.8418 
3 -67.6796 
4 168.924 
5 58.4021 
6 -65.967 
7 -73.2307 
8 176.248 
9 51.8788 
10 -55.4542 
11 179.911 
12 61.9653 
13 177.114 
14 -59.0383 
15 52.3377 
16 -146.317 
17 -149.359 
18 100.14 
19 -23.5346 
20 -41.757 
21 -152.259 
22 84.0669 
23 87.8588 
24 -22.6431 
25 -179.617 
26 61.1037 
27 -46.8214 
28 -179.87 
29 62.9437 
30 -55.7115 
31 -164.706 
32 -48.2135 
33 67.8905 
34 151.561 
35 30.913 
36 -85.5177 
37 153.101 
38 -95.4795 
39 20.0652 
40 168.013 
41 57.9019 
42 -57.2306 
43 171.449 
44 56.3169 
45 -78.4394 
46 -69.9281 
47 174.939 
48 40.1832 
49 16.1174 
50 -98.5655 
51 138.774 
52 24.0908 
53 -107.215 
54 138.102 
55 -161.632 
56 74.9843 
57 -46.7031 
58 -55.9318 
59 56.5036 
60 -156.213 
61 -33.1805 
62 84.3462 
63 -153.335 
64 82.7271 
65 -30.2403 
66 -159.088 
67 87.9448 
68 -35.1498 
69 -44.0037 
70 -156.971 
71 79.9342 
72 154.829 
73 -79.5602 
74 39.845 
75 -165.832 
76 69.6764 
77 -54.6831 
78 -156.218 
79 79.4222 
80 -31.7263 
81 -44.4289 
82 -168.788 
83 80.063 
84 -178.716 
85 54.8276 
86 -63.0605 
87 168.42 
88 51.3506 
89 -71.3669 
90 -168.47 
91 69.5781 
92 -49.5535 
93 -170.683 
94 70.185 
95 -48.7311 
96 -48.7348 
97 -167.866 
98 73.2175 
99 -179.971 
100 -56.7354 
101 58.0322 
102 -174.355 
103 60.6396 
104 -58.6253 
105 179.172 
106 69.0385 
107 -42.8253 
108 -171.271 
109 76.8654 
110 -61.1369 
111 -45.3081 
112 -157.172 
113 64.8258 
114 89.3087 
115 -157.231 
116 -50.0871 
ITEM: TIMESTEP
53700
ITEM: NUMBER OF ENTRIES
116
ITEM: BOX BOUNDS pp pp pp
-2.1659880786948438e+01 2.1659880786948438e+01
-1.1125721167720103e+01 1.1125721167720103e+01
-1.1125721167720103e+01 1.1125721167720103e+01
ITEM: ENTRIES index c_dphi
1 172.725 
2 47.4031 
3 -68.8749 
4 168.532 
5 52.2541 
6 -66.1463 
7 -69.7165 
8 174.006 
9 55.6052 
10 -58.734 
11 -174.666 
12 57.1091 
13 -167.504 
14 -42.838 
15 71.7876 
16 -172.272 
17 -164.659 
18 77.7631 
19 -46.4136 
20 -56.3393 
21 -173.917 
22 61.9061 
23 69.4824 
24 -48.0956 
25 177.792 
26 55.4761 
27 -55.9621 
28 -173.637 
29 63.8106 
30 -56.4251 
31 174.538 
32 -56.3312 
33 59.8267 
34 168.584 
35 51.5861 
36 -75.6533 
37 149.772 
38 -95.3639 
39 22.6102 
40 176.557 
41 66.3933 
42 -49.9545 
43 -170.931 
44 72.7215 
45 -60.7673 
46 -53.0484 
47 -169.396 
48 57.1151 
49 27.6895 
50 -98.5615 
51 151.665 
52 25.4139 
53 -97.3817 
54 136.367 
55 -167.898 
56 73.6074 
57 -42.5847 
58 -75.8144 
59 42.8017 
60 -165.602 
61 -42.2459 
62 78.2869 
63 -159.754 
64 75.9973 
65 -40.9566 
66 -162.633 
67 80.4132 
68 -38.3845 
69 -45.9237 
70 -162.878 
71 78.3247 
72 163.54 
73 -79.5654 
74 44.6171 
75 -162.47 
76 78.6564 
77 -46.5831 
78 -152.829 
79 81.9318 
80 -33.9553 
81 -31.5676 
82 -156.807 
83 87.3058 
84 -176.56 
85 57.2355 
86 -67.295 
87 172.029 
88 53.6638 
89 -66.9431 
90 -161.55 
91 73.7755 
92 -43.0224 
93 -167.661 
94 75.5416 
95 -42.9856 
96 -49.5391 
97 -166.337 
98 75.1359 
99 -152.761 
100 -26.382 
101 90.0687 
102 -167.231 
103 72.8863 
104 -40.6924 
105 174.486 
106 67.4309 
107 -47.9321 
108 -176.961 
109 67.6765 
110 -69.905 
111 -57.706 
112 -173.069 
113 49.3495 
114 33.2584 
115 147.359 
116 -105.737 
ITEM: TIMESTEP
53800
ITEM: NUMBER OF ENTRIES
116
ITEM: BOX BOUNDS pp pp pp
-2.1659880786948438e+01 2.1659880786948438e+01
-1.1125721167720103e+01 1.1125721167720103e+01
-1.1125721167720103e+01 1.1125721167720103e+01
ITEM: ENTRIES index c_dphi
1 -164.359 
2 84.6548 
3 -44.6738 
4 -158.033 
5 72.6382 
6 -47.0475 
7 -34.3334 
8 -163.662 
9 76.6523 
10 -63.7158 
11 -177.034 
12 54.3843 
13 -176.314 
14 -66.2367 
15 69.9519 
16 164.683 
17 171.513 
18 54.9252 
19 -67.8904 
20 -78.942 
21 164.47 
22 41.6547 
23 44.0864 
24 -72.5014 
25 177.283 
26 54.0991 
27 -62.4049 
28 169.425 
29 47.2908 
30 -74.406 
31 135.693 
32 -103.174 
33 7.66286 
34 169 
35 47.083 
36 -76.67 
37 -169.357 
38 -51.2297 
39 74.9964 
40 -167.509 
41 72.9111 
42 -58.9918 
43 -163.218 
44 64.879 
45 -43.638 
46 -50.2771 
47 177.82 
48 69.3031 
49 26.8798 
50 -97.1579 
51 159.031 
52 34.9933 
53 -92.663 
54 143.299 
55 162.52 
56 41.8546 
57 -71.2243 
58 -96.2842 
59 27.2387 
60 -163.429 
61 -52.2269 
62 67.894 
63 -137.114 
64 104.819 
65 -12.3646 
66 -138.263 
67 104.554 
68 -20.1958 
69 -15.8234 
70 -133.007 
71 102.244 
72 -158.333 
73 -41.8208 
74 68.0885 
75 -161.222 
76 77.5006 
77 -30.4877 
78 -168.049 
79 83.9626 
80 -46.7714 
81 -44.682 
82 -152.67 
83 76.5957 
84 -169.727 
85 75.8002 
86 -49.3173 
87 -152.206 
88 85.6186 
89 -24.9492 
90 172.708 
91 53.7062 
92 -66.2224 
93 176.975 
94 57.0463 
95 -64.023 
96 -73.7717 
97 166.3 
98 45.2304 
99 177.74 
100 -61.9703 
101 60.2553 
102 -173.765 
103 61.1382 
104 -48.8571 
105 -175.809 
106 77.3038 
107 -46.5886 
108 -156.235 
109 79.8722 
110 -49.3479 
111 -46.1283 
112 -170.021 
113 60.7593 
114 4.78145 
115 120.028 
116 -127.929 
ITEM: TIMESTEP
53900
ITEM: NUMBER OF ENTRIES
116
ITEM: BOX BOUNDS pp pp pp
-2.1659880786948438e+01 2.1659880786948438e+01
-1.1125721167720103e+01 1.1125721167720103e+01
-1.1125721167720103e+01 1.1125721167720103e+01
ITEM: ENTRIES index c_dphi
1 -177.728 
2 59.5607 
3 -62.2148 
4 -176.857 
5 61.3678 
6 -54.1453 
7 -61.9352 
8 176.289 
9 60.7763 
10 -60.5815 
11 -178.428 
12 63.4416 
13 -160.94 
14 -38.7684 
15 86.4797 
16 147.906 
17 158.573 
18 34.0809 
19 -87.6903 
20 -89.8655 
21 145.643 
22 23.8715 
23 34.1691 
24 -90.3228 
25 -169.969 
26 67.8287 
27 -49.4047 
28 -178.244 
29 57.4064 
30 -59.7258 
31 163.511 
32 -80.2094 
33 37.0828 
34 166.851 
35 41.0467 
36 -68.9129 
37 -168.174 
38 -42.8129 
39 79.2462 
40 -178.76 
41 52.9297 
42 -68.3316 
43 -177.022 
44 61.7171 
45 -48.7115 
46 -71.3206 
47 167.418 
48 56.9896 
49 21.4538 
50 -86.0983 
51 150.724 
52 43.1719 
53 -102.769 
54 149.679 
55 -175.4 
56 57.611 
57 -63.6267 
58 -95.8737 
59 12.0254 
60 -175.193 
61 -50.8399 
62 68.5183 
63 -123.72 
64 116.182 
65 1.14165 
66 -119.657 
67 125.303 
68 0.441739 
69 2.03041 
70 -113.01 
71 122.129 
72 -144.455 
73 -22.51 
74 93.7689 
75 -158.154 
76 72.0679 
77 -33.553 
78 -170.916 
79 83.4635 
80 -41.1379 
81 -61.4126 
82 -167.034 
83 68.3651 
84 -171.252 
85 75.1719 
86 -41.0542 
87 -159.753 
88 82.5969 
89 -43.2275 
90 168.211 
91 48.5092 
92 -68.3778 
93 166.512 
94 49.625 
95 -73.7858 
96 -69.0895 
97 174.023 
98 50.6126 
99 -179.757 
100 -60.2806 
101 55.993 
102 179.095 
103 56.1529 
104 -73.3727 
105 -174.595 
106 69.5548 
107 -53.7441 
108 -165.009 
109 71.6926 
110 -49.1587 
111 -38.1183 
112 -161.417 
113 77.7316 
114 -46.1893 
115 66.7687 
116 -170.651 
ITEM: TIMESTEP
54000
ITEM: NUMBER OF ENTRIES
116
ITEM: BOX BOUNDS pp pp pp
-2.1659880786948438e+01 2.1659880786948438e+01
-1.1125721167720103e+01 1.1125721167720103e+01
-1.1125721167720103e+01 1.1125721167720103e+01
ITEM: ENTRIES index c_dphi
1 -173.846 
2 61.428 
3 -47.4924 
4 -176.995 
5 74.0846 
6 -52.2691 
7 -64.2693 
8 -173.19 
9 60.4565 
10 -85.7237 
11 157.883 
12 36.1751 
13 175.638 
14 -63.9824 
15 53.1898 
16 -170.737 
17 -171.826 
18 61.9503 
19 -49.3052 
20 -57.3666 
21 176.409 
22 65.1539 
23 66.7428 
24 -59.4811 
25 -178.506 
26 61.5853 
27 -60.6952 
28 -177.937 
29 64.4225 
30 -55.954 
31 -144.944 
32 -21.3682 
33 101.035 
34 173.526 
35 58.0831 
36 -59.5707 
37 -164.821 
38 -48.3307 
39 76.9313 
40 149.5 
41 24.5604 
42 -87.6218 
43 147.453 
44 35.2712 
45 -87.6065 
46 -97.1616 
47 150.656 
48 27.7785 
49 33.8972 
50 -82.138 
51 148.695 
52 32.66 
53 -90.8532 
54 153.112 
55 -179.103 
56 51.9221 
57 -64.6647 
58 -81.555 
59 30.4191 
60 -179.116 
61 -61.5268 
62 59.2911 
63 -150.609 
64 90.7919 
65 -38.1242 
66 -136.341 
67 94.7434 
68 -17.7413 
69 -27.8853 
70 -156.801 
71 90.714 
72 179.535 
73 -50.9287 
74 64.8046 
75 -161.463 
76 67.4132 
77 -46.0556 
78 -172.255 
79 74.2762 
80 -41.1307 
81 -62.4878 
82 -175.957 
83 68.6364 
84 -161.692 
85 79.5195 
86 -38.5738 
87 -173.046 
88 70.4723 
89 -55.3657 
90 -169.972 
91 67.5573 
92 -50.5534 
93 -177.578 
94 64.3118 
95 -55.1066 
96 -50.2397 
97 -168.35 
98 72.2313 
99 -163.48 
100 -42.4809 
101 73.5601 
102 -177.859 
103 72.0663 
104 -63.4826 
105 169.294 
106 51.8635 
107 -70.7066 
108 164.616 
109 42.0457 
110 -77.954 
111 -72.0346 
112 165.395 
113 45.3956 
114 -75.6085 
115 42.2804 
116 161.623 
ITEM: TIMESTEP
54100
ITEM: NUMBER OF ENTRIES
116
ITEM: BOX BOUNDS pp pp pp
-2.1659880786948438e+01 2.1659880786948438e+01
-1.1125721167720103e+01 1.1125721167720103e+01
-1.1125721167720103e+01 1.1125721167720103e+01
ITEM: ENTRIES index c_dphi
1 -179.767 
2 60.3885 
3 -57.3129 
4 -176.263 
5 66.0352 
6 -56.4189 
7 -65.4096 
8 176.889 
9 54.435 
10 -60.7358 
11 179.7 
12 56.8461 
13 110.768 
14 -128.356 
15 -10.9181 
16 -135.619 
17 -145.577 
18 97.6365 
19 -11.1021 
20 -35.0124 
21 -151.798 
22 99.4629 
23 89.9053 
24 -26.8808 
25 -178.365 
26 62.1884 
27 -57.4126 
28 173.266 
29 57.9687 
30 -63.3363 
31 -129.467 
32 -3.29555 
33 120.767 
34 170.018 
35 53.6102 
36 -69.778 
37 172.094 
38 -81.1728 
39 51.6543 
40 129.312 
41 14.11 
42 -97.9053 
43 133.737 
44 21.7216 
45 -111.061 
46 -108.446 
47 139.539 
48 6.75679 
49 42.8852 
50 -80.3862 
51 154.153 
52 30.8813 
53 -76.8156 
54 159.913 
55 -163.183 
56 81.1263 
57 -39.0695 
58 -52.7923 
59 66.7144 
60 174.831 
61 -70.7324 
62 47.0741 
63 175.109 
64 65.7933 
65 -52.8034 
66 -174.873 
67 66.5306 
68 -65.5571 
69 -58.7711 
70 -177.368 
71 50.5445 
72 -160.734 
73 -46.7193 
74 79.0992 
75 165.473 
76 48.2453 
77 -73.1565 
78 170.939 
79 49.5368 
80 -71.8339 
81 -60.405 
82 178.193 
83 56.8224 
84 -159.709 
85 84.9815 
86 -48.5232 
87 -141.515 
88 99.9681 
89 -12.6268 
90 -166.476 
91 73.2661 
92 -44.4028 
93 -166.971 
94 75.3601 
95 -46.7129 
96 -55.6911 
97 -173.36 
98 64.567 
99 160.709 
100 -82.6414 
101 39.1696 
102 -176.211 
103 64.6979 
104 -53.7098 
105 -164.664 
106 64.347 
107 -47.9785 
108 -177.509 
109 70.1659 
110 -46.52 
111 -65.3684 
112 -177.694 
113 65.6202 
114 -5.67153 
115 125.09 
116 -124.171 
ITEM: TIMESTEP
54200
ITEM: NUMBER OF ENTRIES
116
ITEM: BOX BOUNDS pp pp pp
-2.1659880786948438e+01 2.1659880786948438e+01
-1.1125721167720103e+01 1.1125721167720103e+01
-1.1125721167720103e+01 1.1125721167720103e+01
ITEM: ENTRIES index c_dphi
1 -160.356 
2 82.0045 
3 -48.7354 
4 -161.491 
5 67.7688 
6 -43.8517 
7 -38.1064 
8 -168.846 
9 79.5332 
10 -60.1878 
11 -173.946 
12 61.1409 
13 111.891 
14 -130.161 
15 -4.13413 
16 -145.687 
17 -137.396 
18 111.582 
19 -18.8818 
20 -19.4811 
21 -130.503 
22 99.0334 
23 95.7984 
24 -15.2232 
25 170.542 
26 48.3132 
27 -79.7245 
28 -173.23 
29 76.8701 
30 -51.4308 
31 179.536 
32 -60.5807 
33 56.2321 
34 130.468 
35 4.68156 
36 -109.161 
37 168.484 
38 -70.3836 
39 50.7462 
40 -148.003 
41 89.4867 
42 -23.8808 
43 -149.992 
44 96.6407 
45 -27.482 
46 -33.4982 
47 -146.866 
48 89.0117 
49 25.9962 
50 -92.7921 
51 152.259 
52 33.4707 
53 -89.5727 
54 151.639 
55 -142.412 
56 94.229 
57 -28.8644 
58 -51.4178 
59 62.5686 
60 168.448 
61 -75.7756 
62 53.2317 
63 -178.285 
64 57.5354 
65 -57.7732 
66 173.104 
67 57.7952 
68 -62.7162 
69 -61.1085 
70 -176.417 
71 63.0715 
72 -156.002 
73 -38.7646 
74 85.8121 
75 167.624 
76 47.7308 
77 -68.8371 
78 178.87 
79 62.3025 
80 -61.2369 
81 -60.1204 
82 -176.688 
83 59.7722 
84 -167.623 
85 61.5867 
86 -57.1911 
87 -164.382 
88 72.6257 
89 -45.1675 
90 -170.201 
91 67.6583 
92 -45.0218 
93 -169.668 
94 77.6524 
95 -47.5264 
96 -57.0955 
97 -169.776 
98 65.0457 
99 -157.586 
100 -31.5627 
101 77.8629 
102 -163.603 
103 73.6545 
104 -47.9118 
105 -175.855 
106 49.943 
107 -62.2622 
108 172.484 
109 60.2793 
110 -53.3135 
111 -65.3509 
112 -177.556 
113 68.8511 
114 45.817 
115 173.677 
116 -66.1662 
ITEM: TIMESTEP
54300
ITEM: NUMBER OF ENTRIES
116
ITEM: BOX BOUNDS pp pp pp
-2.1659880786948438e+01 2.1659880786948438e+01
-1.1125721167720103e+01 1.1125721167720103e+01
-1.1125721167720103e+01 1.1125721167720103e+01
ITEM: ENTRIES index c_dphi
1 -179.13 
2 61.3454 
3 -53.9739 
4 176.806 
5 61.4869 
6 -63.6688 
7 -58.919 
8 -174.238 
9 60.6059 
10 -105.058 
11 140.14 
12 14.0827 
13 -169.012 
14 -47.5809 
15 74.8156 
16 162.314 
17 174.778 
18 52.4722 
19 -71.5971 
20 -64.8366 
21 172.858 
22 48.7884 
23 48.6891 
24 -73.6165 
25 -165.757 
26 66.6504 
27 -54.5405 
28 -165.633 
29 70.9061 
30 -47.3487 
31 157.507 
32 -91.8359 
33 28.0699 
34 140.178 
35 12.6814 
36 -98.7238 
37 -179.019 
38 -56.6369 
39 61.8728 
40 -142.868 
41 96.5423 
42 -29.0682 
43 -136.973 
44 97.417 
45 -16.3833 
46 -28.1897 
47 -153.8 
48 92.3995 
49 43.8968 
50 -66.0263 
51 172.907 
52 62.9835 
53 -72.074 
54 178.003 
55 177.964 
56 58.2249 
57 -60.9729 
58 -58.3238 
59 48.5736 
60 -157.946 
61 -38.8408 
62 83.4878 
63 179.598 
64 55.5867 
65 -56.5498 
66 -179.535 
67 68.3284 
68 -55.5235 
69 -60.8063 
70 -172.943 
71 63.2053 
72 -146.28 
73 -26.5751 
74 89.9856 
75 165.073 
76 42.4578 
77 -67.8041 
78 167.467 
79 57.2055 
80 -69.917 
81 -74.5957 
82 175.142 
83 48.02 
84 172.149 
85 46.7656 
86 -68.3031 
87 -165.586 
88 77.9613 
89 -47.9502 
90 -154.423 
91 84.1033 
92 -28.2327 
93 -154.345 
94 93.3188 
95 -32.8717 
96 -30.6271 
97 -142.963 
98 90.8465 
99 -147.128 
100 -25.0777 
101 84.4868 
102 -172.174 
103 70.4592 
104 -48.7752 
105 176.898 
106 57.5724 
107 -67.464 
108 173.152 
109 48.1161 
110 -67.5215 
111 -59.0861 
112 175.878 
113 60.2399 
114 30.4451 
115 151.463 
116 -84.1381 
ITEM: TIMESTEP
54400
ITEM: NUMBER OF ENTRIES
116
ITEM: BOX BOUNDS pp pp pp
-2.1659880786948438e+01 2.1659880786948438e+01
-1.1125721167720103e+01 1.1125721167720103e+01
-1.1125721167720103e+01 1.1125721167720103e+01
ITEM: ENTRIES index c_dphi
1 -169.476 
2 68.5424 
3 -41.2792 
4 -171.493 
5 78.6855 
6 -49.5116 
7 -54.1695 
8 -163.991 
9 67.8117 
10 176.386 
11 60.5638 
12 -63.369 
13 -112.714 
14 10.9966 
15 120.887 
16 151.707 
17 156.818 
18 30.5008 
19 -77.0189 
20 -96.0857 
21 137.597 
22 30.077 
23 25.5443 
24 -100.773 
25 -173.063 
26 50.6697 
27 -60.6832 
28 168.706 
29 44.2719 
30 -71.7075 
31 -150.443 
32 -30.6943 
33 97.0908 
34 -172.216 
35 67.8539 
36 -52.5619 
37 -174.907 
38 -46.5839 
39 66.1822 
40 159.223 
41 42.4101 
42 -90.3616 
43 170.51 
44 37.7385 
45 -72.6773 
46 -78.5528 
47 148.676 
48 38.2597 
49 60.5939 
50 -61.3972 
51 179.595 
52 57.6037 
53 -59.6835 
54 178.325 
55 161.042 
56 39.8718 
57 -73.2237 
58 -89.335 
59 32.0261 
60 -172.896 
61 -56.6389 
62 55.3341 
63 151.444 
64 37.7322 
65 -80.2407 
66 155.489 
67 37.5158 
68 -90.7996 
69 -84.8528 
70 157.174 
71 28.8589 
72 179.051 
73 -47.3737 
74 57.3612 
75 177.049 
76 48.3666 
77 -61.9944 
78 167.762 
79 57.4011 
80 -63.5555 
81 -79.5573 
82 170.082 
83 49.125 
84 -172.058 
85 71.7747 
86 -45.7618 
87 -169.642 
88 60.9076 
89 -45.4133 
90 -121.525 
91 119.851 
92 -5.55171 
93 -117.144 
94 117.453 
95 1.47935 
96 -0.780733 
97 -126.184 
98 117.843 
99 -147.063 
100 -33.7828 
101 93.9392 
102 -163.938 
103 79.2151 
104 -34.9082 
105 -170.554 
106 75.8162 
107 -51.7028 
108 -163.448 
109 69.0327 
110 -49.8184 
111 -46.9561 
112 -174.475 
113 66.6738 
114 49.2006 
115 172.084 
116 -72.8045 
ITEM: TIMESTEP
54500
ITEM: NUMBER OF ENTRIES
116
ITEM: BOX BOUNDS pp pp pp
-2.1659880786948438e+01 2.1659880786948438e+01
-1.1125721167720103e+01 1.1125721167720103e+01
-1.1125721167720103e+01 1.1125721167720103e+01
ITEM: ENTRIES index c_dphi
1 172.005 
2 47.3587 
3 -69.7364 
4 164.149 
5 47.0536 
6 -71.2049 
7 -71.1004 
8 171.804 
9 53.546 
10 -78.9807 
11 164.165 
12 38.6978 
13 -179.839 
14 -52.0433 
15 55.9376 
16 -175.067 
17 178.875 
18 70.7648 
19 -50.605 
20 -67.9111 
21 -176.021 
22 62.6091 
23 54.4129 
24 -53.6971 
25 -168.942 
26 62.786 
27 -52.9769 
28 -160.16 
29 81.7463 
30 -39.7414 
31 -149.256 
32 -18.3605 
33 84.3686 
34 101.925 
35 -21.8152 
36 -135.229 
37 -176.714 
38 -58.648 
39 52.0531 
40 -154.027 
41 88.099 
42 -33.2197 
43 -152.234 
44 86.4476 
45 -34.36 
46 -31.6059 
47 -152.925 
48 86.2677 
49 4.04309 
50 -117.53 
51 125.661 
52 4.08766 
53 -114.434 
54 123.993 
55 -138.182 
56 89.7775 
57 -22.6531 
58 -59.8958 
59 65.5178 
60 178 
61 -55.4867 
62 58.3313 
63 162.094 
64 39.9697 
65 -80.3163 
66 173.656 
67 53.3694 
68 -64.22 
69 -76.1425 
70 163.571 
71 45.9821 
72 -163.372 
73 -41.1152 
74 78.3989 
75 170.989 
76 48.9716 
77 -70.673 
78 164.213 
79 44.568 
80 -73.7703 
81 -79.3641 
82 160.991 
83 42.653 
84 170.198 
85 59.3042 
86 -67.0583 
87 178.63 
88 57.4911 
89 -55.2473 
90 -149.646 
91 90.2531 
92 -24.5025 
93 -151.663 
94 93.5811 
95 -31.5624 
96 -37.3332 
97 -152.089 
98 82.7677 
99 -163.83 
100 -45.8666 
101 67.6678 
102 -153.827 
103 73.0652 
104 -32.7467 
105 -165.315 
106 68.8898 
107 -37.4848 
108 -163.907 
109 89.7183 
110 -38.1116 
111 -50.0118 
112 -156.386 
113 75.7837 
114 -37.0862 
115 86.5123 
116 -157.171 
ITEM: TIMESTEP
54600
ITEM: NUMBER OF ENTRIES
116
ITEM: BOX BOUNDS pp pp pp
-2.1659880786948438e+01 2.1659880786948438e+01
-1.1125721167720103e+01 1.1125721167720103e+01
-1.1125721167720103e+01 1.1125721167720103e+01
ITEM: ENTRIES index c_dphi
1 172.365 
2 58.908 
3 -72.9562 
4 -178.257 
5 49.879 
6 -64.7999 
7 -63.7727 
8 164.363 
9 49.6843 
10 -53.3036 
11 -170.956 
12 60.9058 
13 139.934 
14 -108.187 
15 17.1056 
16 -158.6 
17 -155.295 
18 81.593 
19 -37.2424 
20 -40.8658 
21 -163.978 
22 77.1864 
23 83.348 
24 -39.7643 
25 176.83 
26 56.8276 
27 -57.7983 
28 -157.676 
29 76.8794 
30 -45.3429 
31 -150.331 
32 -33.7372 
33 81.5543 
34 122.959 
35 -2.25531 
36 -111.347 
37 -174.33 
38 -52.5782 
39 67.7216 
40 -151.965 
41 87.2423 
42 -35.0643 
43 -148.988 
44 88.7054 
45 -28.1957 
46 -20.373 
47 -142.68 
48 100.419 
49 -8.35902 
50 -118.223 
51 119.452 
52 9.588 
53 -121.184 
54 128.951 
55 -149.269 
56 94.9301 
57 -27.9879 
58 -71.9569 
59 35.3504 
60 -137.615 
61 -22.0963 
62 101.792 
63 -173.574 
64 68.7067 
65 -55.3932 
66 -178.728 
67 57.1719 
68 -61.009 
69 -52.1411 
70 -176.241 
71 65.5782 
72 166.234 
73 -82.8292 
74 54.1201 
75 143.304 
76 28.3074 
77 -97.0334 
78 148.793 
79 23.4521 
80 -96.2109 
81 -85.9411 
82 148.718 
83 29.0552 
84 -178.232 
85 59.2995 
86 -63.3964 
87 -173.722 
88 77.1189 
89 -46.0099 
90 -137.75 
91 105.225 
92 -12.5455 
93 -145.81 
94 96.4195 
95 -28.7848 
96 -25.312 
97 -143.083 
98 91.7132 
99 -132.225 
100 -11.8924 
101 101.463 
102 -142.644 
103 89.9231 
104 -20.0317 
105 -174.016 
106 49.2712 
107 -52.3733 
108 168.369 
109 66.7241 
110 -54.9182 
111 -68.8231 
112 -170.468 
113 67.8901 
114 -130.331 
115 2.90534 
116 113.661 
ITEM: TIMESTEP
54700
ITEM: NUMBER OF ENTRIES
116
ITEM: BOX BOUNDS pp pp pp
-2.1659880786948438e+01 2.1659880786948438e+01
-1.1125721167720103e+01 1.1125721167720103e+01
-1.1125721167720103e+01 1.1125721167720103e+01
ITEM: ENTRIES index c_dphi
1 -165.041 
2 73.8472 
3 -39.6512 
4 -155.694 
5 90.8077 
6 -34.5825 
7 -50.7965 
8 -164.295 
9 70.3149 
10 -70.1941 
11 166.066 
12 47.3374 
13 172.36 
14 -74.3292 
15 46.4087 
16 -160.164 
17 -146.07 
18 85.6558 
19 -30.0122 
20 -31.7785 
21 -160.053 
22 84.2789 
23 83.7785 
24 -44.4961 
25 -172.254 
26 57.7808 
27 -54.2684 
28 173.758 
29 47.4541 
30 -68.5319 
31 -174.783 
32 -55.244 
33 69.048 
34 163.842 
35 36.3649 
36 -80.3717 
37 176.817 
38 -61.3393 
39 56.6779 
40 -170.869 
41 65.7921 
42 -55.8818 
43 -164.235 
44 74.0915 
45 -40.8952 
46 -50.4329 
47 -172.107 
48 72.9065 
49 46.2644 
50 -66.3821 
51 170.043 
52 57.3963 
53 -79.7564 
54 167.597 
55 168.285 
56 56.7909 
57 -64.3063 
58 -72.4999 
59 35.6979 
60 -155.892 
61 -44.1068 
62 82.4437 
63 165.219 
64 47.7729 
65 -73.6772 
66 165.282 
67 43.8318 
68 -77.272 
69 -78.3277 
70 160.222 
71 39.1183 
72 -152.29 
73 -33.1392 
74 95.5564 
75 171.431 
76 50.6034 
77 -67.0947 
78 176.876 
79 59.1776 
80 -62.2963 
81 -63.4991 
82 178.803 
83 57.3288 
84 -175.934 
85 60.5279 
86 -59.0464 
87 -166.422 
88 67.639 
89 -48.7593 
90 -166.185 
91 75.9394 
92 -48.1944 
93 -159.282 
94 76.5837 
95 -41.407 
96 -42.5225 
97 -166.656 
98 75.353 
99 -137.449 
100 -21.0375 
101 104.886 
102 175.482 
103 55.7877 
104 -53.6377 
105 -179.151 
106 58.8511 
107 -51.4666 
108 176.783 
109 66.465 
110 -61.2192 
111 -63.8934 
112 -174.211 
113 58.1048 
114 -162.745 
115 -32.0428 
116 72.2888 
ITEM: TIMESTEP
54800
ITEM: NUMBER OF ENTRIES
116
ITEM: BOX BOUNDS pp pp pp
-2.1659880786948438e+01 2.1659880786948438e+01
-1.1125721167720103e+01 1.1125721167720103e+01
-1.1125721167720103e+01 1.1125721167720103e+01
ITEM: ENTRIES index c_dphi
1 160.37 
2 27.81 
3 -83.8796 
4 160.997 
5 49.3077 
6 -66.4426 
7 -84.5241 
8 163.786 
9 48.0359 
10 -39.7159 
11 -168.623 
12 73.6336 
13 -165.614 
14 -37.786 
15 85.6278 
16 179.721 
17 177.409 
18 62.7403 
19 -58.3527 
20 -58.411 
21 -173.08 
22 65.8269 
23 55.4829 
24 -59.1862 
25 -158.163 
26 78.2019 
27 -42.2465 
28 178.297 
29 52.9569 
30 -53.2131 
31 171.588 
32 -62.4307 
33 47.2243 
34 -173.811 
35 62.0736 
36 -56.9806 
37 161.985 
38 -69.1593 
39 42.4024 
40 -176.95 
41 51.1377 
42 -56.7759 
43 173.626 
44 65.7129 
45 -54.4616 
46 -71.6925 
47 -179.606 
48 60.2195 
49 63.6246 
50 -60.3454 
51 -166.179 
52 69.8509 
53 -51.7548 
54 -175.725 
55 173.105 
56 43.0348 
57 -76.5842 
58 -69.7864 
59 53.1364 
60 150.413 
61 -79.593 
62 36.8821 
63 154.528 
64 27.6316 
65 -96.6282 
66 158.751 
67 34.491 
68 -74.353 
69 -88.5598 
70 147.18 
71 38.3363 
72 -115.61 
73 18.5003 
74 120.716 
75 -158.322 
76 69.6842 
77 -32.5642 
78 -160.471 
79 97.2802 
80 -28.4778 
81 -42.7068 
82 -144.955 
83 89.2867 
84 172.438 
85 42.425 
86 -73.9542 
87 -158.475 
88 72.3499 
89 -43.9003 
90 156.917 
91 37.296 
92 -85.6441 
93 166.322 
94 43.3818 
95 -74.057 
96 -79.6654 
97 157.395 
98 39.9558 
99 -157.622 
100 -43.5946 
101 83.3541 
102 -170.16 
103 67.9421 
104 -43.34 
105 -166.496 
106 73.3768 
107 -42.2357 
108 -159.333 
109 85.0548 
110 -39.206 
111 -43.071 
112 -158.684 
113 77.0557 
114 151.579 
115 -86.6947 
116 35.0012 
ITEM: TIMESTEP
54900
ITEM: NUMBER OF ENTRIES
116
ITEM: BOX BOUNDS pp pp pp
-2.1659880786948438e+01 2.1659880786948438e+01
-1.1125721167720103e+01 1.1125721167720103e+01
-1.1125721167720103e+01 1.1125721167720103e+01
ITEM: ENTRIES index c_dphi
1 -164.1 
2 90.8431 
3 -37.9659 
4 -143.756 
5 87.4349 
6 -38.6995 
7 -27.6045 
8 -156.413 
9 77.4521 
10 -82.888 
11 154.138 
12 27.2101 
13 167.517 
14 -80.5994 
15 47.1612 
16 -171.829 
17 173.002 
18 55.0865 
19 -57.9293 
20 -58.2636 
21 -176.179 
22 70.8049 
23 59.103 
24 -58.8127 
25 161.364 
26 39.9357 
27 -87.0095 
28 170.108 
29 51.3975 
30 -60.2951 
31 -162.218 
32 -43.5829 
33 81.0524 
34 173.879 
35 57.9876 
36 -57.926 
37 175.653 
38 -64.5335 
39 58.2878 
40 173.149 
41 53.4335 
42 -67.0547 
43 169.03 
44 48.5418 
45 -71.2545 
46 -69.3727 
47 170.139 
48 50.3429 
49 36.561 
50 -61.2624 
51 153.244 
52 55.4204 
53 -90.8813 
54 171.295 
55 178.961 
56 68.7144 
57 -55.9741 
58 -85.4023 
59 14.2245 
60 -171.901 
61 -51.1559 
62 64.3792 
63 -156.713 
64 86.4226 
65 -32.7993 
66 -159.776 
67 81.0022 
68 -42.9114 
69 -46.4972 
70 -165.719 
71 70.3673 
72 -175.493 
73 -56.3738 
74 63.1029 
75 169.225 
76 50.0188 
77 -63.8573 
78 170.925 
79 57.0493 
80 -69.8682 
81 -69.068 
82 177.056 
83 50.1385 
84 -173.596 
85 64.2388 
86 -51.893 
87 -158.666 
88 80.364 
89 -46.685 
90 -144.124 
91 96.3397 
92 -19.0879 
93 -136.79 
94 107.782 
95 -17.2536 
96 -14.8115 
97 -130.239 
98 104.725 
99 -178.227 
100 -61.1206 
101 55.8293 
102 160.404 
103 37.0823 
104 -89.4704 
105 -167.265 
106 68.3772 
107 -49.3671 
108 -165.541 
109 76.7148 
110 -41.1829 
111 -44.3772 
112 -162.122 
113 79.9809 
114 -112.49 
115 13.5114 
116 128.176 
ITEM: TIMESTEP
55000
ITEM: NUMBER OF ENTRIES
116
ITEM: BOX BOUNDS pp pp pp
-2.1659880786948438e+01 2.1659880786948438e+01
-1.1125721167720103e+01 1.1125721167720103e+01
-1.1125721167720103e+01 1.1125721167720103e+01
ITEM: ENTRIES index c_dphi
1 147.365 
2 24.8271 
3 -87.8305 
4 140.363 
5 27.7058 
6 -97.0987 
7 -90.725 
8 156.617 
9 31.8128 
10 -86.888 
11 158.343 
12 28.4197 
13 152.85 
14 -88.746 
15 36.0691 
16 -173.052 
17 -175.954 
18 58.1883 
19 -52.4961 
20 -50.2992 
21 -176.157 
22 73.1589 
23 63.4894 
24 -62.368 
25 -151.495 
26 81.3048 
27 -39.5323 
28 166.211 
29 54.3474 
30 -79.8711 
31 165.402 
32 -76.7092 
33 55.1869 
34 157.876 
35 35.9288 
36 -80.0812 
37 179.669 
38 -66.4405 
39 51.3627 
40 -176.777 
41 67.6576 
42 -50.1762 
43 -176.336 
44 65.8305 
45 -60.7703 
46 -48.7866 
47 -166.62 
48 66.7788 
49 62.1089 
50 -62.9573 
51 179.878 
52 54.8118 
53 -67.0482 
54 167.886 
55 153.864 
56 36.0528 
57 -84.8217 
58 -76.7185 
59 47.9363 
60 -145.585 
61 -24.3675 
62 95.1148 
63 -119.942 
64 114.777 
65 -8.27727 
66 -122.842 
67 114.104 
68 2.43892 
69 -4.08751 
70 -127.141 
71 121.194 
72 170.484 
73 -73.0722 
74 60.762 
75 -166.961 
76 78.709 
77 -49.0163 
78 -171.419 
79 60.8557 
80 -57.0887 
81 -46.9103 
82 -174.636 
83 67.42 
84 -177.609 
85 68.0024 
86 -53.1403 
87 153.226 
88 32.7143 
89 -85.8066 
90 -154.106 
91 85.3967 
92 -30.8602 
93 -157.316 
94 86.427 
95 -36.8189 
96 -36.9828 
97 -153.24 
98 83.5143 
99 -170.789 
100 -49.3858 
101 70.1967 
102 174.495 
103 60.1402 
104 -72.3202 
105 162.286 
106 51.2085 
107 -78.0024 
108 161.55 
109 32.3388 
110 -87.373 
111 -71.7783 
112 159.011 
113 39.2991 
114 38.4522 
115 160.838 
116 -89.1491 
