ITEM: TIMESTEP
0
ITEM: NUMBER OF ATOMS
692
ITEM: BOX BOUNDS ff ff ff
-6.0000000000000000e+01 6.0000000000000000e+01
-4.0000000000000000e+01 4.0000000000000000e+01
-4.0000000000000000e+01 4.0000000000000000e+01
ITEM: ATOMS id type x y z
275 1 -20.634 -5.178 -0.233
276 1 -20.366 -4.93 -1.602
271 1 -24.386 -5.178 -0.233
272 1 -23.046 -5.136 -0.696
8 1 -22.778 -4.766 -2.037
11 1 -21.438 -4.564 -2.456
12 1 -21.17 -3.746 -3.582
267 1 -26.798 -5.136 -0.696
269 1 -25.458 -5.053 -1.153
6 1 -23.85 -4.326 -2.855
7 1 -23.582 -3.41 -3.903
9 1 -22.242 -3.047 -4.193
10 1 -21.974 -1.821 -4.853
108 1 -20.634 -1.379 -4.996
265 1 -27.87 -4.93 -1.602
1 1 -27.602 -4.326 -2.855
3 1 -26.262 -4.052 -3.232
4 1 -25.994 -3.047 -4.193
5 1 -24.654 -2.658 -4.45
103 1 -24.386 -1.379 -4.996
105 1 -23.046 -0.925 -5.1
2 1 -27.066 -2.249 -4.67
100 1 -26.798 -0.925 -5.1
101 1 -25.458 -0.465 -5.162
279 1 -17.954 -5.053 -1.153
15 1 -19.026 -4.766 -2.037
16 1 -18.758 -4.052 -3.232
18 1 -17.418 -3.746 -3.582
19 1 -17.151 -2.658 -4.45
13 1 -19.83 -3.41 -3.903
14 1 -19.562 -2.249 -4.67
17 1 -18.222 -1.821 -4.853
111 1 -17.954 -0.465 -5.162
287 1 -13.131 -5.178 -0.233
283 1 -15.543 -5.136 -0.696
285 1 -14.203 -5.053 -1.153
24 1 -13.935 -4.564 -2.456
26 1 -12.595 -4.326 -2.855
27 1 -12.327 -3.41 -3.903
281 1 -16.615 -4.93 -1.602
20 1 -16.347 -4.326 -2.855
22 1 -15.007 -4.052 -3.232
23 1 -14.739 -3.047 -4.193
25 1 -13.399 -2.658 -4.45
117 1 -13.131 -1.379 -4.996
21 1 -15.811 -2.249 -4.67
114 1 -15.543 -0.925 -5.1
115 1 -14.203 -0.465 -5.162
295 1 -6.699 -5.053 -1.153
291 1 -9.379 -5.178 -0.233
292 1 -9.111 -4.93 -1.602
35 1 -7.771 -4.766 -2.037
36 1 -7.503 -4.052 -3.232
38 1 -6.163 -3.746 -3.582
39 1 -5.895 -2.658 -4.45
288 1 -11.791 -5.136 -0.696
28 1 -11.523 -4.766 -2.037
31 1 -10.183 -4.564 -2.456
32 1 -9.915 -3.746 -3.582
33 1 -8.575 -3.41 -3.903
34 1 -8.307 -2.249 -4.67
37 1 -6.967 -1.821 -4.853
125 1 -6.699 -0.465 -5.162
29 1 -10.987 -3.047 -4.193
30 1 -10.719 -1.821 -4.853
122 1 -9.379 -1.379 -4.996
119 1 -11.791 -0.925 -5.1
299 1 -4.288 -5.136 -0.696
297 1 -5.36 -4.93 -1.602
40 1 -5.092 -4.326 -2.855
41 1 -4.556 -2.249 -4.67
128 1 -4.288 -0.925 -5.1
307 1 1.876 -5.178 -0.233
308 1 2.144 -4.93 -1.602
55 1 3.484 -4.766 -2.037
56 1 3.752 -4.052 -3.232
303 1 -1.876 -5.178 -0.233
304 1 -0.536 -5.136 -0.696
48 1 -0.268 -4.766 -2.037
51 1 1.072 -4.564 -2.456
52 1 1.34 -3.746 -3.582
53 1 2.68 -3.41 -3.903
54 1 2.948 -2.249 -4.67
301 1 -2.948 -5.053 -1.153
44 1 -2.68 -4.564 -2.456
46 1 -1.34 -4.326 -2.855
47 1 -1.072 -3.41 -3.903
49 1 0.268 -3.047 -4.193
50 1 0.536 -1.821 -4.853
136 1 1.876 -1.379 -4.996
42 1 -3.752 -4.052 -3.232
43 1 -3.484 -3.047 -4.193
45 1 -2.144 -2.658 -4.45
131 1 -1.876 -1.379 -4.996
133 1 -0.536 -0.925 -5.1
129 1 -2.948 -0.465 -5.162
311 1 4.556 -5.053 -1.153
58 1 5.092 -3.746 -3.582
59 1 5.36 -2.658 -4.45
57 1 4.288 -1.821 -4.853
139 1 4.556 -0.465 -5.162
319 1 9.379 -5.178 -0.233
320 1 10.719 -5.136 -0.696
68 1 10.987 -4.766 -2.037
315 1 6.967 -5.136 -0.696
317 1 8.307 -5.053 -1.153
64 1 8.575 -4.564 -2.456
66 1 9.915 -4.326 -2.855
67 1 10.183 -3.41 -3.903
69 1 11.523 -3.047 -4.193
70 1 11.791 -1.821 -4.853
313 1 5.895 -4.93 -1.602
60 1 6.163 -4.326 -2.855
62 1 7.503 -4.052 -3.232
63 1 7.771 -3.047 -4.193
65 1 9.111 -2.658 -4.45
145 1 9.379 -1.379 -4.996
147 1 10.719 -0.925 -5.1
61 1 6.699 -2.249 -4.67
142 1 6.967 -0.925 -5.1
143 1 8.307 -0.465 -5.162
157 1 19.562 -0.465 -5.162
156 1 18.222 -0.925 -5.1
80 1 17.954 -2.249 -4.67
327 1 15.811 -5.053 -1.153
323 1 13.131 -5.178 -0.233
324 1 13.399 -4.93 -1.602
74 1 14.739 -4.766 -2.037
75 1 15.007 -4.052 -3.232
77 1 16.347 -3.746 -3.582
78 1 16.615 -2.658 -4.45
71 1 12.327 -4.564 -2.456
72 1 13.935 -3.41 -3.903
73 1 14.203 -2.249 -4.67
76 1 15.543 -1.821 -4.853
153 1 15.811 -0.465 -5.162
150 1 13.131 -1.379 -4.996
331 1 18.222 -5.136 -0.696
333 1 19.562 -5.053 -1.153
83 1 19.83 -4.564 -2.456
329 1 17.151 -4.93 -1.602
79 1 17.418 -4.326 -2.855
81 1 18.758 -4.052 -3.232
82 1 19.026 -3.047 -4.193
160 1 21.974 -0.925 -5.1
343 1 27.066 -5.053 -1.153
339 1 24.386 -5.178 -0.233
340 1 24.654 -4.93 -1.602
93 1 25.994 -4.766 -2.037
94 1 26.262 -4.052 -3.232
96 1 27.602 -3.746 -3.582
97 1 27.87 -2.658 -4.45
335 1 20.634 -5.178 -0.233
336 1 21.974 -5.136 -0.696
87 1 22.242 -4.766 -2.037
89 1 23.582 -4.564 -2.456
90 1 23.85 -3.746 -3.582
91 1 25.19 -3.41 -3.903
92 1 25.458 -2.249 -4.67
95 1 26.798 -1.821 -4.853
166 1 27.066 -0.465 -5.162
85 1 21.17 -4.326 -2.855
86 1 21.438 -3.41 -3.903
88 1 22.778 -3.047 -4.193
84 1 20.366 -2.658 -4.45
163 1 24.386 -1.379 -4.996
107 1 -21.438 0.925 -5.1
178 1 -21.17 2.249 -4.67
104 1 -23.85 1.379 -4.996
174 1 -23.582 2.658 -4.45
176 1 -22.242 3.047 -4.193
177 1 -21.974 4.052 -3.232
179 1 -20.634 4.326 -2.855
356 1 -20.366 4.93 -1.602
98 1 -27.87 0 -5.183
99 1 -27.602 1.379 -4.996
169 1 -26.262 1.821 -4.853
170 1 -25.994 3.047 -4.193
172 1 -24.654 3.41 -3.903
173 1 -24.386 4.326 -2.855
175 1 -23.046 4.564 -2.456
352 1 -22.778 5.053 -1.153
354 1 -21.438 5.136 -0.696
167 1 -27.066 3.746 -3.582
168 1 -26.798 4.564 -2.456
171 1 -25.458 4.766 -2.037
349 1 -25.19 5.136 -0.696
350 1 -23.85 5.178 -0.233
345 1 -27.87 4.93 -1.602
346 1 -27.602 5.178 -0.233
109 1 -20.366 0 -5.183
106 1 -22.778 0.465 -5.162
102 1 -25.19 0.925 -5.1
110 1 -19.026 0.465 -5.162
182 1 -18.758 1.821 -4.853
185 1 -17.418 2.249 -4.67
186 1 -17.151 3.41 -3.903
180 1 -19.83 2.658 -4.45
181 1 -19.562 3.746 -3.582
183 1 -18.222 4.052 -3.232
184 1 -17.954 4.766 -2.037
358 1 -19.026 5.053 -1.153
118 1 -12.595 1.379 -4.996
194 1 -12.327 2.658 -4.45
112 1 -16.615 0 -5.183
113 1 -16.347 1.379 -4.996
189 1 -15.007 1.821 -4.853
190 1 -14.739 3.047 -4.193
192 1 -13.399 3.41 -3.903
193 1 -13.131 4.326 -2.855
187 1 -15.811 3.746 -3.582
188 1 -15.543 4.564 -2.456
191 1 -14.203 4.766 -2.037
365 1 -13.935 5.136 -0.696
366 1 -12.595 5.178 -0.233
361 1 -16.615 4.93 -1.602
362 1 -16.347 5.178 -0.233
116 1 -13.935 0.925 -5.1
124 1 -7.771 0.465 -5.162
202 1 -7.503 1.821 -4.853
205 1 -6.163 2.249 -4.67
206 1 -5.895 3.41 -3.903
121 1 -10.183 0.925 -5.1
198 1 -9.915 2.249 -4.67
200 1 -8.575 2.658 -4.45
201 1 -8.307 3.746 -3.582
203 1 -6.967 4.052 -3.232
204 1 -6.699 4.766 -2.037
196 1 -10.987 3.047 -4.193
197 1 -10.719 4.052 -3.232
199 1 -9.379 4.326 -2.855
372 1 -9.111 4.93 -1.602
374 1 -7.771 5.053 -1.153
195 1 -11.791 4.564 -2.456
368 1 -11.523 5.053 -1.153
370 1 -10.183 5.136 -0.696
123 1 -9.111 0 -5.183
120 1 -11.523 0.465 -5.162
126 1 -5.36 0 -5.183
127 1 -5.092 1.379 -4.996
207 1 -4.556 3.746 -3.582
208 1 -4.288 4.564 -2.456
377 1 -5.36 4.93 -1.602
378 1 -5.092 5.178 -0.233
138 1 3.484 0.465 -5.162
220 1 3.752 1.821 -4.853
135 1 1.072 0.925 -5.1
217 1 1.34 2.249 -4.67
219 1 2.948 3.746 -3.582
132 1 -1.34 1.379 -4.996
213 1 -1.072 2.658 -4.45
215 1 0.268 3.047 -4.193
216 1 0.536 4.052 -3.232
218 1 1.876 4.326 -2.855
388 1 2.144 4.93 -1.602
390 1 3.484 5.053 -1.153
209 1 -3.752 1.821 -4.853
211 1 -2.144 3.41 -3.903
212 1 -1.876 4.326 -2.855
214 1 -0.536 4.564 -2.456
384 1 -0.268 5.053 -1.153
386 1 1.072 5.136 -0.696
210 1 -2.948 4.766 -2.037
381 1 -2.68 5.136 -0.696
382 1 -1.34 5.178 -0.233
137 1 2.144 0 -5.183
134 1 -0.268 0.465 -5.162
130 1 -2.68 0.925 -5.1
223 1 5.092 2.249 -4.67
224 1 5.36 3.41 -3.903
221 1 4.288 4.052 -3.232
222 1 4.556 4.766 -2.037
146 1 9.915 1.379 -4.996
232 1 10.183 2.658 -4.45
234 1 11.523 3.047 -4.193
235 1 11.791 4.052 -3.232
140 1 5.895 0 -5.183
141 1 6.163 1.379 -4.996
227 1 7.503 1.821 -4.853
228 1 7.771 3.047 -4.193
230 1 9.111 3.41 -3.903
231 1 9.379 4.326 -2.855
233 1 10.719 4.564 -2.456
400 1 10.987 5.053 -1.153
225 1 6.699 3.746 -3.582
226 1 6.967 4.564 -2.456
229 1 8.307 4.766 -2.037
397 1 8.575 5.136 -0.696
398 1 9.915 5.178 -0.233
393 1 5.895 4.93 -1.602
394 1 6.163 5.178 -0.233
148 1 10.987 0.465 -5.162
144 1 8.575 0.925 -5.1
158 1 19.83 0.925 -5.1
152 1 14.739 0.465 -5.162
240 1 15.007 1.821 -4.853
243 1 16.347 2.249 -4.67
244 1 16.615 3.41 -3.903
149 1 12.327 0.925 -5.1
236 1 12.595 2.249 -4.67
238 1 13.935 2.658 -4.45
239 1 14.203 3.746 -3.582
241 1 15.543 4.052 -3.232
242 1 15.811 4.766 -2.037
237 1 13.131 4.326 -2.855
404 1 13.399 4.93 -1.602
406 1 14.739 5.053 -1.153
402 1 12.327 5.136 -0.696
151 1 13.399 0 -5.183
154 1 17.151 0 -5.183
155 1 17.418 1.379 -4.996
247 1 18.758 1.821 -4.853
248 1 19.026 3.047 -4.193
245 1 17.954 3.746 -3.582
246 1 18.222 4.564 -2.456
249 1 19.562 4.766 -2.037
413 1 19.83 5.136 -0.696
409 1 17.151 4.93 -1.602
410 1 17.418 5.178 -0.233
161 1 22.242 0.465 -5.162
165 1 25.994 0.465 -5.162
260 1 26.262 1.821 -4.853
263 1 27.602 2.249 -4.67
264 1 27.87 3.41 -3.903
162 1 23.582 0.925 -5.1
256 1 23.85 2.249 -4.67
258 1 25.19 2.658 -4.45
259 1 25.458 3.746 -3.582
261 1 26.798 4.052 -3.232
262 1 27.066 4.766 -2.037
159 1 21.17 1.379 -4.996
252 1 21.438 2.658 -4.45
254 1 22.778 3.047 -4.193
255 1 23.046 4.052 -3.232
257 1 24.386 4.326 -2.855
420 1 24.654 4.93 -1.602
422 1 25.994 5.053 -1.153
250 1 20.366 3.41 -3.903
251 1 20.634 4.326 -2.855
253 1 21.974 4.564 -2.456
416 1 22.242 5.053 -1.153
418 1 23.582 5.136 -0.696
414 1 21.17 5.178 -0.233
164 1 24.654 0 -5.183
529 1 -21.974 -1.379 4.996
438 1 -20.634 -1.821 4.853
439 1 -20.366 -3.047 4.193
526 1 -24.654 -0.465 5.162
431 1 -24.386 -1.821 4.853
434 1 -23.046 -2.249 4.67
435 1 -22.778 -3.41 3.903
436 1 -21.438 -3.746 3.582
437 1 -21.17 -4.564 2.456
523 1 -27.066 -0.925 5.1
427 1 -26.798 -2.249 4.67
429 1 -25.458 -2.658 4.45
430 1 -25.19 -3.746 3.582
432 1 -23.85 -4.052 3.232
433 1 -23.582 -4.766 2.037
273 1 -22.242 -4.93 1.602
274 1 -21.974 -5.178 0.233
425 1 -27.87 -3.047 4.193
426 1 -27.602 -4.052 3.232
428 1 -26.262 -4.326 2.855
268 1 -25.994 -4.93 1.602
270 1 -24.654 -5.053 1.153
266 1 -27.066 -5.136 0.696
536 1 -17.151 -0.465 5.162
532 1 -19.562 -0.925 5.1
534 1 -18.222 -1.379 4.996
443 1 -17.954 -2.658 4.45
441 1 -19.026 -3.41 3.903
442 1 -18.758 -4.326 2.855
444 1 -17.418 -4.564 2.456
280 1 -17.151 -5.053 1.153
440 1 -19.83 -4.766 2.037
277 1 -19.562 -5.136 0.696
278 1 -18.222 -5.178 0.233
540 1 -13.399 -0.465 5.162
450 1 -13.131 -1.821 4.853
537 1 -15.811 -0.925 5.1
447 1 -15.543 -2.249 4.67
449 1 -13.935 -3.746 3.582
451 1 -12.595 -4.052 3.232
452 1 -12.327 -4.766 2.037
445 1 -16.615 -3.047 4.193
446 1 -16.347 -4.052 3.232
448 1 -15.007 -4.326 2.855
284 1 -14.739 -4.93 1.602
286 1 -13.399 -5.053 1.153
282 1 -15.811 -5.136 0.696
550 1 -5.895 -0.465 5.162
546 1 -8.307 -0.925 5.1
548 1 -6.967 -1.379 4.996
462 1 -6.699 -2.658 4.45
543 1 -10.719 -1.379 4.996
457 1 -9.379 -1.821 4.853
458 1 -9.111 -3.047 4.193
460 1 -7.771 -3.41 3.903
461 1 -7.503 -4.326 2.855
463 1 -6.163 -4.564 2.456
296 1 -5.895 -5.053 1.153
453 1 -11.791 -2.249 4.67
454 1 -11.523 -3.41 3.903
455 1 -10.183 -3.746 3.582
456 1 -9.915 -4.564 2.456
459 1 -8.575 -4.766 2.037
293 1 -8.307 -5.136 0.696
294 1 -6.967 -5.178 0.233
289 1 -10.987 -4.93 1.602
290 1 -10.719 -5.178 0.233
551 1 -4.556 -0.925 5.1
466 1 -4.288 -2.249 4.67
464 1 -5.36 -3.047 4.193
465 1 -5.092 -4.052 3.232
298 1 -4.556 -5.136 0.696
560 1 2.948 -0.925 5.1
557 1 0.536 -1.379 4.996
477 1 1.876 -1.821 4.853
478 1 2.144 -3.047 4.193
480 1 3.484 -3.41 3.903
481 1 3.752 -4.326 2.855
554 1 -2.144 -0.465 5.162
470 1 -1.876 -1.821 4.853
473 1 -0.536 -2.249 4.67
474 1 -0.268 -3.41 3.903
475 1 1.072 -3.746 3.582
476 1 1.34 -4.564 2.456
479 1 2.68 -4.766 2.037
309 1 2.948 -5.136 0.696
468 1 -2.948 -2.658 4.45
469 1 -2.68 -3.746 3.582
471 1 -1.34 -4.052 3.232
472 1 -1.072 -4.766 2.037
305 1 0.268 -4.93 1.602
306 1 0.536 -5.178 0.233
467 1 -3.752 -4.326 2.855
300 1 -3.484 -4.93 1.602
302 1 -2.144 -5.053 1.153
564 1 5.36 -0.465 5.162
562 1 4.288 -1.379 4.996
482 1 4.556 -2.658 4.45
483 1 5.092 -4.564 2.456
312 1 5.36 -5.053 1.153
310 1 4.288 -5.178 0.233
571 1 11.791 -1.379 4.996
568 1 9.111 -0.465 5.162
490 1 9.379 -1.821 4.853
493 1 10.719 -2.249 4.67
494 1 10.987 -3.41 3.903
565 1 6.699 -0.925 5.1
486 1 6.967 -2.249 4.67
488 1 8.307 -2.658 4.45
489 1 8.575 -3.746 3.582
491 1 9.915 -4.052 3.232
492 1 10.183 -4.766 2.037
321 1 11.523 -4.93 1.602
322 1 11.791 -5.178 0.233
484 1 5.895 -3.047 4.193
485 1 6.163 -4.052 3.232
487 1 7.503 -4.326 2.855
316 1 7.771 -4.93 1.602
318 1 9.111 -5.053 1.153
314 1 6.699 -5.136 0.696
578 1 16.615 -0.465 5.162
574 1 14.203 -0.925 5.1
576 1 15.543 -1.379 4.996
502 1 15.811 -2.658 4.45
497 1 13.131 -1.821 4.853
498 1 13.399 -3.047 4.193
500 1 14.739 -3.41 3.903
501 1 15.007 -4.326 2.855
503 1 16.347 -4.564 2.456
328 1 16.615 -5.053 1.153
495 1 12.327 -3.746 3.582
496 1 12.595 -4.564 2.456
499 1 13.935 -4.766 2.037
325 1 14.203 -5.136 0.696
326 1 15.543 -5.178 0.233
579 1 17.954 -0.925 5.1
506 1 18.222 -2.249 4.67
508 1 19.562 -2.658 4.45
509 1 19.83 -3.746 3.582
504 1 17.151 -3.047 4.193
505 1 17.418 -4.052 3.232
507 1 18.758 -4.326 2.855
332 1 19.026 -4.93 1.602
330 1 17.954 -5.136 0.696
592 1 27.87 -0.465 5.162
588 1 25.458 -0.925 5.1
590 1 26.798 -1.379 4.996
521 1 27.066 -2.658 4.45
585 1 23.046 -1.379 4.996
516 1 24.386 -1.821 4.853
517 1 24.654 -3.047 4.193
519 1 25.994 -3.41 3.903
520 1 26.262 -4.326 2.855
522 1 27.602 -4.564 2.456
344 1 27.87 -5.053 1.153
582 1 20.366 -0.465 5.162
512 1 21.974 -2.249 4.67
513 1 22.242 -3.41 3.903
514 1 23.582 -3.746 3.582
515 1 23.85 -4.564 2.456
518 1 25.19 -4.766 2.037
341 1 25.458 -5.136 0.696
342 1 26.798 -5.178 0.233
510 1 21.17 -4.052 3.232
511 1 21.438 -4.766 2.037
337 1 22.778 -4.93 1.602
338 1 23.046 -5.178 0.233
334 1 20.366 -5.053 1.153
355 1 -21.17 5.136 0.696
351 1 -23.582 5.053 1.153
353 1 -22.242 4.93 1.602
604 1 -21.974 4.326 2.855
606 1 -20.634 4.052 3.232
607 1 -20.366 3.047 4.193
347 1 -26.262 5.178 0.233
348 1 -25.994 4.93 1.602
599 1 -24.654 4.766 2.037
600 1 -24.386 4.052 3.232
602 1 -23.046 3.746 3.582
603 1 -22.778 2.658 4.45
605 1 -21.438 2.249 4.67
530 1 -21.17 0.925 5.1
595 1 -27.066 4.564 2.456
596 1 -26.798 3.746 3.582
597 1 -25.458 3.41 3.903
598 1 -25.19 2.249 4.67
601 1 -23.85 1.821 4.853
527 1 -23.582 0.465 5.162
528 1 -22.242 0 5.183
593 1 -27.87 3.047 4.193
594 1 -27.602 1.821 4.853
524 1 -26.262 1.379 4.996
525 1 -25.994 0 5.183
359 1 -18.758 5.178 0.233
360 1 -17.418 5.136 0.696
612 1 -17.151 4.766 2.037
357 1 -19.83 5.053 1.153
608 1 -19.562 4.564 2.456
610 1 -18.222 4.326 2.855
611 1 -17.954 3.41 3.903
609 1 -19.026 2.658 4.45
533 1 -18.758 1.379 4.996
535 1 -17.418 0.925 5.1
531 1 -19.83 0.465 5.162
367 1 -12.327 5.053 1.153
363 1 -15.007 5.178 0.233
364 1 -14.739 4.93 1.602
619 1 -13.399 4.766 2.037
620 1 -13.131 4.052 3.232
615 1 -15.811 4.564 2.456
616 1 -15.543 3.746 3.582
617 1 -14.203 3.41 3.903
618 1 -13.935 2.249 4.67
621 1 -12.595 1.821 4.853
541 1 -12.327 0.465 5.162
613 1 -16.615 3.047 4.193
614 1 -16.347 1.821 4.853
538 1 -15.007 1.379 4.996
539 1 -14.739 0 5.183
375 1 -7.503 5.178 0.233
376 1 -6.163 5.136 0.696
632 1 -5.895 4.766 2.037
371 1 -9.915 5.136 0.696
373 1 -8.575 5.053 1.153
628 1 -8.307 4.564 2.456
630 1 -6.967 4.326 2.855
631 1 -6.699 3.41 3.903
369 1 -10.987 4.93 1.602
624 1 -10.719 4.326 2.855
626 1 -9.379 4.052 3.232
627 1 -9.111 3.047 4.193
629 1 -7.771 2.658 4.45
547 1 -7.503 1.379 4.996
549 1 -6.163 0.925 5.1
622 1 -11.791 3.746 3.582
623 1 -11.523 2.658 4.45
625 1 -10.183 2.249 4.67
544 1 -9.915 0.925 5.1
545 1 -8.575 0.465 5.162
542 1 -10.987 0 5.183
635 1 -4.556 4.564 2.456
636 1 -4.288 3.746 3.582
633 1 -5.36 3.047 4.193
634 1 -5.092 1.821 4.853
391 1 3.752 5.178 0.233
387 1 1.34 5.136 0.696
389 1 2.68 5.053 1.153
648 1 2.948 4.564 2.456
383 1 -1.072 5.053 1.153
385 1 0.268 4.93 1.602
644 1 0.536 4.326 2.855
646 1 1.876 4.052 3.232
647 1 2.144 3.047 4.193
649 1 3.484 2.658 4.45
561 1 3.752 1.379 4.996
379 1 -3.752 5.178 0.233
380 1 -3.484 4.93 1.602
639 1 -2.144 4.766 2.037
640 1 -1.876 4.052 3.232
642 1 -0.536 3.746 3.582
643 1 -0.268 2.658 4.45
645 1 1.072 2.249 4.67
558 1 1.34 0.925 5.1
559 1 2.68 0.465 5.162
637 1 -2.948 3.41 3.903
638 1 -2.68 2.249 4.67
641 1 -1.34 1.821 4.853
555 1 -1.072 0.465 5.162
556 1 0.268 0 5.183
552 1 -3.752 1.379 4.996
553 1 -3.484 0 5.183
392 1 5.092 5.136 0.696
652 1 5.36 4.766 2.037
650 1 4.288 4.326 2.855
651 1 4.556 3.41 3.903
563 1 5.092 0.925 5.1
399 1 10.183 5.053 1.153
401 1 11.523 4.93 1.602
664 1 11.791 4.326 2.855
395 1 7.503 5.178 0.233
396 1 7.771 4.93 1.602
659 1 9.111 4.766 2.037
660 1 9.379 4.052 3.232
662 1 10.719 3.746 3.582
663 1 10.987 2.658 4.45
655 1 6.699 4.564 2.456
656 1 6.967 3.746 3.582
657 1 8.307 3.41 3.903
658 1 8.575 2.249 4.67
661 1 9.915 1.821 4.853
569 1 10.183 0.465 5.162
570 1 11.523 0 5.183
653 1 5.895 3.047 4.193
654 1 6.163 1.821 4.853
566 1 7.503 1.379 4.996
567 1 7.771 0 5.183
407 1 15.007 5.178 0.233
408 1 16.347 5.136 0.696
672 1 16.615 4.766 2.037
403 1 12.595 5.136 0.696
405 1 13.935 5.053 1.153
668 1 14.203 4.564 2.456
670 1 15.543 4.326 2.855
671 1 15.811 3.41 3.903
666 1 13.131 4.052 3.232
667 1 13.399 3.047 4.193
669 1 14.739 2.658 4.45
575 1 15.007 1.379 4.996
577 1 16.347 0.925 5.1
665 1 12.327 2.249 4.67
572 1 12.595 0.925 5.1
573 1 13.935 0.465 5.162
411 1 18.758 5.178 0.233
412 1 19.026 4.93 1.602
675 1 17.954 4.564 2.456
676 1 18.222 3.746 3.582
677 1 19.562 3.41 3.903
678 1 19.83 2.249 4.67
673 1 17.151 3.047 4.193
674 1 17.418 1.821 4.853
580 1 18.758 1.379 4.996
581 1 19.026 0 5.183
423 1 26.262 5.178 0.233
424 1 27.602 5.136 0.696
692 1 27.87 4.766 2.037
419 1 23.85 5.136 0.696
421 1 25.19 5.053 1.153
688 1 25.458 4.564 2.456
690 1 26.798 4.326 2.855
691 1 27.066 3.41 3.903
415 1 21.438 5.053 1.153
417 1 22.778 4.93 1.602
684 1 23.046 4.326 2.855
686 1 24.386 4.052 3.232
687 1 24.654 3.047 4.193
689 1 25.994 2.658 4.45
589 1 26.262 1.379 4.996
591 1 27.602 0.925 5.1
679 1 20.366 4.766 2.037
680 1 20.634 4.052 3.232
682 1 21.974 3.746 3.582
683 1 22.242 2.658 4.45
685 1 23.582 2.249 4.67
586 1 23.85 0.925 5.1
587 1 25.19 0.465 5.162
681 1 21.17 1.821 4.853
583 1 21.438 0.465 5.162
584 1 22.778 0 5.183
ITEM: TIMESTEP
100
ITEM: NUMBER OF ATOMS
692
ITEM: BOX BOUNDS ff ff ff
-6.0000000000000000e+01 6.0000000000000000e+01
-4.0000000000000000e+01 4.0000000000000000e+01
-4.0000000000000000e+01 4.0000000000000000e+01
ITEM: ATOMS id type x y z
275 1 -20.585 -4.99049 -0.287699
276 1 -20.2586 -4.88099 -1.64876
271 1 -24.3483 -5.17154 -0.312112
272 1 -22.9956 -5.08089 -0.829223
8 1 -22.658 -4.80868 -2.17305
11 1 -21.2919 -4.58784 -2.55619
12 1 -21.1173 -3.7545 -3.65988
267 1 -26.7985 -5.21392 -0.682865
269 1 -25.4633 -5.22368 -1.18434
6 1 -23.6461 -4.48991 -3.05887
7 1 -23.5095 -3.45074 -3.96213
9 1 -22.2069 -3.07278 -4.23403
10 1 -21.9681 -1.85407 -4.84614
108 1 -20.6153 -1.36612 -4.9693
265 1 -27.87 -4.93 -1.602
1 1 -27.602 -4.326 -2.855
3 1 -26.2898 -4.13465 -3.42269
4 1 -26.0341 -3.03916 -4.25941
5 1 -24.64 -2.67908 -4.46297
103 1 -24.4019 -1.38335 -4.93792
105 1 -23.0614 -0.944148 -5.04337
2 1 -27.1011 -2.20764 -4.73001
100 1 -26.8055 -0.889168 -5.06767
101 1 -25.4799 -0.48579 -5.06262
279 1 -17.9439 -4.83962 -1.11404
15 1 -18.936 -4.69386 -2.06443
16 1 -18.6952 -3.99688 -3.26028
18 1 -17.3694 -3.70306 -3.58439
19 1 -17.0818 -2.58563 -4.43589
13 1 -19.7728 -3.34169 -3.90385
14 1 -19.516 -2.22591 -4.71602
17 1 -18.1511 -1.78264 -4.88924
111 1 -17.932 -0.428794 -5.14622
287 1 -13.1673 -4.91896 -0.248234
283 1 -15.5424 -4.88789 -0.665965
285 1 -14.2143 -4.72938 -1.15046
24 1 -13.9113 -4.4576 -2.4572
26 1 -12.5855 -4.26465 -2.85603
27 1 -12.3399 -3.47668 -3.93152
281 1 -16.6118 -4.74909 -1.53824
20 1 -16.3144 -4.2766 -2.84774
22 1 -14.9916 -4.04688 -3.25262
23 1 -14.7282 -3.02033 -4.16239
25 1 -13.3757 -2.66283 -4.43264
117 1 -13.1142 -1.39238 -4.94047
21 1 -15.7702 -2.22332 -4.66149
114 1 -15.5136 -0.905762 -5.06851
115 1 -14.1999 -0.491942 -5.08258
295 1 -6.6869 -5.04619 -1.17224
291 1 -9.35943 -5.07101 -0.263763
292 1 -9.10724 -4.88004 -1.60838
35 1 -7.77001 -4.78334 -2.05291
36 1 -7.50661 -4.00801 -3.18017
38 1 -6.183 -3.72069 -3.47575
39 1 -5.90737 -2.65108 -4.34207
288 1 -11.8202 -4.96286 -0.667881
28 1 -11.5045 -4.65416 -2.02362
31 1 -10.1889 -4.52789 -2.4913
32 1 -9.88698 -3.76612 -3.6532
33 1 -8.54968 -3.41067 -3.90405
34 1 -8.28299 -2.22768 -4.58677
37 1 -6.93681 -1.81078 -4.77351
125 1 -6.67979 -0.474505 -5.1169
29 1 -11.0042 -3.07989 -4.22215
30 1 -10.7027 -1.85008 -4.80534
122 1 -9.35515 -1.41017 -4.92585
119 1 -11.7856 -0.960726 -4.9911
299 1 -4.31773 -5.14064 -0.656153
297 1 -5.35355 -4.90579 -1.58436
40 1 -5.10563 -4.3361 -2.80495
41 1 -4.5316 -2.23678 -4.54257
128 1 -4.26809 -0.884529 -4.97725
307 1 1.83725 -5.1561 -0.17687
308 1 2.10377 -4.92871 -1.52011
55 1 3.42964 -4.6979 -1.88378
56 1 3.71934 -3.96584 -3.05305
303 1 -1.88974 -5.12681 -0.202256
304 1 -0.536778 -5.16464 -0.675858
48 1 -0.239565 -4.82067 -2.00619
51 1 1.07604 -4.53087 -2.37674
52 1 1.34722 -3.63619 -3.42116
53 1 2.68018 -3.31659 -3.7012
54 1 2.96228 -2.16741 -4.43097
301 1 -2.96133 -5.04254 -1.10707
44 1 -2.67281 -4.57373 -2.40044
46 1 -1.32333 -4.29888 -2.77401
47 1 -1.02469 -3.32166 -3.73555
49 1 0.304939 -2.90117 -4.00358
50 1 0.581384 -1.67445 -4.63048
136 1 1.91566 -1.27433 -4.77322
42 1 -3.7702 -4.02483 -3.13811
43 1 -3.44726 -2.98522 -4.06048
45 1 -2.09695 -2.5503 -4.26223
131 1 -1.83528 -1.29309 -4.86337
133 1 -0.508893 -0.838802 -4.9382
129 1 -2.92303 -0.403095 -5.09847
311 1 4.50883 -5.01396 -1.04821
58 1 5.04203 -3.67003 -3.42976
59 1 5.31812 -2.53681 -4.17332
57 1 4.25407 -1.73774 -4.57254
139 1 4.53759 -0.397167 -4.92381
319 1 9.3537 -5.08252 -0.283436
320 1 10.6717 -5.15166 -0.758653
68 1 10.9525 -4.94941 -2.08635
315 1 6.9307 -5.12375 -0.659466
317 1 8.27731 -5.08878 -1.19157
64 1 8.50628 -4.65838 -2.5359
66 1 9.87438 -4.51157 -2.96212
67 1 10.0981 -3.55939 -3.99865
69 1 11.4518 -3.20039 -4.35787
70 1 11.7664 -1.83199 -4.68736
313 1 5.85026 -4.87391 -1.52836
60 1 6.10244 -4.31901 -2.78246
62 1 7.4432 -4.05331 -3.24126
63 1 7.68341 -3.0074 -4.10929
65 1 9.03461 -2.70591 -4.43219
145 1 9.33608 -1.37163 -4.79025
147 1 10.7047 -0.932662 -4.84027
61 1 6.659 -2.16078 -4.43943
142 1 6.95197 -0.865706 -4.80784
143 1 8.28048 -0.446639 -4.87803
157 1 19.5208 -0.405654 -5.24538
156 1 18.2323 -0.976648 -4.9834
80 1 17.9916 -2.33817 -4.60478
327 1 15.8401 -5.074 -1.08926
323 1 13.0988 -5.1768 -0.2211
324 1 13.4287 -5.02745 -1.58054
74 1 14.7847 -4.82263 -2.01409
75 1 15.0431 -4.14139 -3.20208
77 1 16.3986 -3.82563 -3.53966
78 1 16.654 -2.69199 -4.32984
71 1 12.3094 -4.93438 -2.47591
72 1 14.0357 -3.43782 -3.81435
73 1 14.2506 -2.27603 -4.55004
76 1 15.5829 -1.8711 -4.66778
153 1 15.7782 -0.504109 -4.90266
150 1 13.1375 -1.41962 -4.75776
331 1 18.266 -4.90975 -0.575653
333 1 19.5418 -4.8187 -1.08354
83 1 19.8054 -4.5253 -2.42588
329 1 17.1679 -4.83548 -1.4922
79 1 17.4614 -4.35288 -2.79847
81 1 18.7737 -4.12367 -3.24059
82 1 19.044 -3.24459 -4.29579
160 1 22.0091 0.0378628 -6.85819
343 1 27.0188 -4.97439 -1.16648
339 1 24.3455 -5.02329 -0.195074
340 1 24.6378 -4.89258 -1.57234
93 1 25.9503 -4.74897 -2.04831
94 1 26.2323 -4.06328 -3.22607
96 1 27.602 -3.746 -3.582
97 1 27.87 -2.658 -4.45
335 1 20.5866 -4.95015 -0.190097
336 1 21.9293 -4.98357 -0.644917
87 1 22.1834 -4.74368 -1.99872
89 1 23.5584 -4.65594 -2.44868
90 1 23.8109 -4.07544 -3.69346
91 1 25.1316 -3.55505 -3.95282
92 1 25.3612 -2.34462 -4.64842
95 1 26.7095 -1.92642 -4.76688
166 1 26.991 -0.560501 -5.09402
85 1 21.1263 -4.42426 -2.84478
86 1 21.3821 -3.77578 -4.06483
88 1 22.7208 -3.58242 -4.45975
84 1 20.3433 -3.10803 -4.73812
163 1 24.4128 -1.39556 -5.07302
107 1 -21.467 0.898935 -5.05362
178 1 -21.2156 2.17008 -4.54552
104 1 -23.8891 1.3533 -4.93398
174 1 -23.5956 2.56944 -4.35269
176 1 -22.2942 2.95878 -4.08326
177 1 -21.9839 3.9352 -3.13408
179 1 -20.6298 4.27009 -2.76851
356 1 -20.3466 4.89071 -1.53082
98 1 -27.87 0 -5.183
99 1 -27.602 1.379 -4.996
169 1 -26.2678 1.80533 -4.81024
170 1 -25.9996 3.01517 -4.15026
172 1 -24.6416 3.31354 -3.80367
173 1 -24.3752 4.24644 -2.78013
175 1 -23.0326 4.47215 -2.38011
352 1 -22.754 5.00813 -1.11587
354 1 -21.4508 5.10184 -0.686993
167 1 -27.0578 3.73854 -3.54576
168 1 -26.79 4.54718 -2.41611
171 1 -25.451 4.79287 -2.04553
349 1 -25.1957 5.17514 -0.722812
350 1 -23.8399 5.21343 -0.258789
345 1 -27.87 4.93 -1.602
346 1 -27.602 5.178 -0.233
109 1 -20.3765 0.0103077 -5.10482
106 1 -22.823 0.43799 -5.09025
102 1 -25.2039 0.868064 -5.01343
110 1 -19.0241 0.491742 -5.12116
182 1 -18.7618 1.85719 -4.78829
185 1 -17.3896 2.26986 -4.60882
186 1 -17.1275 3.45769 -3.83461
180 1 -19.8792 2.62171 -4.31322
181 1 -19.5712 3.67442 -3.46745
183 1 -18.2005 4.05248 -3.18329
184 1 -17.9043 4.74899 -1.97189
358 1 -19.0047 5.03217 -1.10256
118 1 -12.5986 1.33657 -4.9245
194 1 -12.3285 2.61228 -4.31887
112 1 -16.6008 0.0311639 -5.12018
113 1 -16.3441 1.40634 -4.94319
189 1 -15.0236 1.80672 -4.77168
190 1 -14.7263 3.07708 -4.14657
192 1 -13.3837 3.41385 -3.83661
193 1 -13.077 4.3261 -2.79353
187 1 -15.8028 3.81093 -3.52466
188 1 -15.524 4.63285 -2.38926
191 1 -14.1853 4.83366 -1.974
365 1 -13.9197 5.20252 -0.664588
366 1 -12.5584 5.22979 -0.217413
361 1 -16.6024 5.00283 -1.57373
362 1 -16.3456 5.23639 -0.222968
116 1 -13.9332 0.891074 -5.05779
124 1 -7.7531 0.436489 -5.11481
202 1 -7.50572 1.80835 -4.79731
205 1 -6.19116 2.25745 -4.74064
206 1 -5.94282 3.40672 -3.94894
121 1 -10.1611 0.839544 -5.00895
198 1 -9.91702 2.17241 -4.56299
200 1 -8.58075 2.60842 -4.3755
201 1 -8.30543 3.66143 -3.51914
203 1 -6.99445 3.95774 -3.19177
204 1 -6.70244 4.69209 -1.9924
196 1 -10.9559 2.98344 -4.05982
197 1 -10.6665 3.92966 -3.08043
199 1 -9.33932 4.20934 -2.71262
372 1 -9.04164 4.82751 -1.53317
374 1 -7.72498 5.00156 -1.11004
195 1 -11.722 4.55812 -2.38457
368 1 -11.4467 5.11176 -1.10834
370 1 -10.1189 5.12931 -0.653654
123 1 -9.09379 -0.0512096 -5.11868
120 1 -11.5262 0.408267 -5.04783
126 1 -5.36179 -0.00903503 -5.13454
127 1 -5.11743 1.39591 -5.06052
207 1 -4.63994 3.78584 -3.61978
208 1 -4.30169 4.40652 -2.41286
377 1 -5.35642 4.80242 -1.56527
378 1 -5.06964 5.00405 -0.212129
138 1 3.49958 0.519393 -5.06961
220 1 3.87541 1.89584 -5.14318
135 1 1.06344 0.999401 -5.08373
217 1 1.29902 2.35437 -4.84238
219 1 2.9662 4.04102 -3.65485
132 1 -1.34371 1.41358 -5.07259
213 1 -1.03362 2.71779 -4.57285
215 1 0.321551 3.15071 -4.28256
216 1 0.522282 4.14999 -3.318
218 1 1.85605 4.39191 -2.8945
388 1 2.1253 4.80329 -1.58838
390 1 3.42162 4.87952 -1.1091
209 1 -3.77037 1.80986 -5.10583
211 1 -2.05409 3.50281 -4.04187
212 1 -1.89275 4.24869 -2.87487
214 1 -0.574472 4.47271 -2.48371
384 1 -0.269977 4.92608 -1.14603
386 1 1.04041 4.97321 -0.684712
210 1 -2.96103 4.56852 -2.03592
381 1 -2.68417 4.91302 -0.706277
382 1 -1.32283 4.96203 -0.271934
137 1 2.15584 0.10543 -5.01661
134 1 -0.265613 0.522998 -5.17765
130 1 -2.67447 0.958612 -5.16001
223 1 5.15608 2.33825 -4.76363
224 1 5.35829 3.5153 -4.01764
221 1 4.27722 4.1612 -3.30226
222 1 4.49981 4.70518 -2.0257
146 1 9.89835 1.31265 -4.71724
232 1 10.1553 2.59998 -4.25912
234 1 11.4858 2.98849 -4.06959
235 1 11.7786 4.01475 -3.15223
140 1 5.90292 0.0245383 -4.94126
141 1 6.22945 1.38277 -4.81945
227 1 7.55064 1.79142 -4.69707
228 1 7.78507 3.05715 -4.17859
230 1 9.09183 3.40282 -3.83393
231 1 9.34226 4.23775 -2.79006
233 1 10.6639 4.46519 -2.40149
400 1 10.9493 4.94986 -1.11584
225 1 6.68476 3.76344 -3.63371
226 1 6.91194 4.48096 -2.48445
229 1 8.25922 4.65159 -2.02127
397 1 8.49229 4.9719 -0.695339
398 1 9.84282 5.05251 -0.221678
393 1 5.83355 4.83881 -1.6041
394 1 6.06452 4.95813 -0.212696
148 1 10.9603 0.432623 -4.81906
144 1 8.5849 0.889103 -4.80435
158 1 19.8328 0.987466 -5.11531
152 1 14.698 0.46324 -4.90874
240 1 14.9983 1.83227 -4.66839
243 1 16.3373 2.22454 -4.49698
244 1 16.5955 3.45394 -3.82536
149 1 12.322 0.875088 -4.85233
236 1 12.5814 2.20887 -4.49353
238 1 13.9116 2.6741 -4.3261
239 1 14.1287 3.78125 -3.51175
241 1 15.5075 4.14399 -3.23769
242 1 15.7784 4.92062 -2.07148
237 1 13.0713 4.42947 -2.86049
404 1 13.3641 5.05959 -1.63162
406 1 14.6894 5.18319 -1.21998
402 1 12.2989 5.11352 -0.703022
151 1 13.3689 -0.0456673 -4.93111
154 1 17.1289 -0.0749003 -4.98123
155 1 17.3785 1.31194 -4.75885
247 1 18.7321 1.78327 -4.65953
248 1 18.9935 3.03378 -4.00257
245 1 17.9124 3.81789 -3.42825
246 1 18.2193 4.67743 -2.39739
249 1 19.5792 4.83247 -1.98444
413 1 19.826 5.36838 -0.728408
409 1 17.1278 5.11864 -1.62335
410 1 17.3844 5.37218 -0.281083
161 1 22.2025 0.622363 -5.581
165 1 25.9765 0.413468 -5.08997
260 1 26.2546 1.76643 -4.84389
263 1 27.602 2.249 -4.67
264 1 27.87 3.41 -3.903
162 1 23.5238 0.917326 -5.21002
256 1 23.7765 2.17847 -4.65463
258 1 25.1538 2.53453 -4.34906
259 1 25.4288 3.6372 -3.48426
261 1 26.7805 4.04548 -3.18841
262 1 26.9808 4.86598 -2.02823
159 1 21.1787 1.43923 -5.08978
252 1 21.426 2.61982 -4.37006
254 1 22.7555 2.98413 -4.1309
255 1 23.0111 3.9057 -3.0818
257 1 24.3348 4.22275 -2.74495
420 1 24.6094 5.01142 -1.59031
422 1 25.9019 5.22774 -1.16894
250 1 20.3541 3.33542 -3.74058
251 1 20.6213 4.24314 -2.74103
253 1 21.969 4.5518 -2.39018
416 1 22.2274 5.1816 -1.15505
418 1 23.5531 5.2813 -0.707511
414 1 21.1484 5.38355 -0.257366
164 1 24.6419 0.00435956 -5.23254
529 1 -21.9836 -1.37185 5.00603
438 1 -20.6762 -1.80328 4.84409
439 1 -20.4163 -2.97229 4.13773
526 1 -24.6439 -0.458307 5.1892
431 1 -24.3765 -1.75289 4.75054
434 1 -23.0301 -2.18745 4.58432
435 1 -22.7763 -3.25881 3.72569
436 1 -21.4616 -3.5686 3.43802
437 1 -21.2092 -4.27263 2.28133
523 1 -27.0437 -0.972925 5.02474
427 1 -26.7724 -2.24495 4.60322
429 1 -25.446 -2.60814 4.35564
430 1 -25.1938 -3.61116 3.441
432 1 -23.8269 -3.85232 3.03569
433 1 -23.598 -4.55684 1.83371
273 1 -22.2469 -4.63893 1.42588
274 1 -21.9567 -4.95679 0.0935841
425 1 -27.87 -3.047 4.193
426 1 -27.602 -4.052 3.232
428 1 -26.2317 -4.29179 2.83716
268 1 -25.9708 -4.8656 1.56534
270 1 -24.6269 -4.9172 1.04443
266 1 -27.0529 -5.07238 0.714934
536 1 -17.1505 -0.488662 5.11959
532 1 -19.5859 -0.919663 5.07702
534 1 -18.2576 -1.38698 5.02488
443 1 -17.9993 -2.68798 4.48915
441 1 -19.0926 -3.34016 3.91862
442 1 -18.8232 -4.17045 2.82141
444 1 -17.4743 -4.38797 2.48871
280 1 -17.1551 -4.67219 1.14985
440 1 -19.8814 -4.48616 1.94835
277 1 -19.5659 -4.8309 0.640774
278 1 -18.2226 -4.83596 0.238911
540 1 -13.3765 -0.451433 5.05006
450 1 -13.0197 -1.80261 4.99382
537 1 -15.8553 -1.00819 5.11435
447 1 -15.7304 -2.39767 4.91714
449 1 -13.948 -4.08802 3.81872
451 1 -12.5977 -4.20315 3.36039
452 1 -12.3222 -4.71752 2.03886
445 1 -16.733 -3.13069 4.34205
446 1 -16.3798 -4.06865 3.33249
448 1 -15.029 -4.34896 2.96318
284 1 -14.748 -4.73473 1.59463
286 1 -13.4259 -4.86274 1.13691
282 1 -15.8476 -4.85324 0.706307
550 1 -5.91208 -0.384441 4.98182
546 1 -8.29818 -0.867366 5.0634
548 1 -6.97659 -1.30055 4.87821
462 1 -6.72336 -2.60266 4.35073
543 1 -10.6512 -1.39029 4.98487
457 1 -9.32444 -1.8234 4.89681
458 1 -9.08184 -3.03295 4.23161
460 1 -7.76999 -3.34229 3.83592
461 1 -7.4932 -4.26312 2.80075
463 1 -6.16519 -4.4756 2.36649
296 1 -5.89964 -4.95425 1.09049
453 1 -11.696 -2.28073 4.72134
454 1 -11.5106 -3.49166 3.95169
455 1 -10.1547 -3.77709 3.61062
456 1 -9.86353 -4.5544 2.48608
459 1 -8.54875 -4.72238 2.00197
293 1 -8.27208 -5.04308 0.629333
294 1 -6.93902 -5.08685 0.200531
289 1 -10.9728 -4.8198 1.63936
290 1 -10.7267 -4.98945 0.246889
551 1 -4.60562 -0.87465 4.98358
466 1 -4.3246 -2.21399 4.64612
464 1 -5.38921 -3.03387 4.1546
465 1 -5.15832 -4.045 3.193
298 1 -4.60483 -5.06934 0.679265
560 1 2.90589 -0.847427 5.127
557 1 0.507802 -1.3729 5.06042
477 1 1.86605 -1.81369 4.90996
478 1 2.13105 -3.05614 4.22004
480 1 3.45948 -3.40103 3.89778
481 1 3.72262 -4.33513 2.82477
554 1 -2.17279 -0.37324 5.12224
470 1 -1.9246 -1.78002 4.88923
473 1 -0.6005 -2.24468 4.72307
474 1 -0.318268 -3.45349 3.9264
475 1 1.05397 -3.78696 3.58139
476 1 1.3212 -4.58505 2.42387
479 1 2.65629 -4.78834 2.01647
309 1 2.92581 -5.14485 0.732598
468 1 -2.99624 -2.61118 4.42764
469 1 -2.72673 -3.78352 3.59716
471 1 -1.38066 -4.12078 3.28964
472 1 -1.09786 -4.83598 2.05858
305 1 0.236611 -4.87542 1.57459
306 1 0.516398 -5.14407 0.229017
467 1 -3.80461 -4.35531 2.83551
300 1 -3.52946 -4.9269 1.57152
302 1 -2.16509 -5.02439 1.15066
564 1 5.3794 -0.407599 5.14559
562 1 4.26012 -1.2909 4.96897
482 1 4.54436 -2.60603 4.41731
483 1 5.05816 -4.52572 2.46897
312 1 5.3644 -5.02576 1.18974
310 1 4.27379 -5.18243 0.307955
571 1 11.7583 -1.3873 4.9323
568 1 9.08093 -0.419386 5.17315
490 1 9.34267 -1.77733 4.85697
493 1 10.6977 -2.22624 4.66891
494 1 10.9553 -3.40134 3.90708
565 1 6.7354 -0.873041 5.06323
486 1 6.96492 -2.2008 4.62696
488 1 8.28902 -2.6242 4.48201
489 1 8.5316 -3.71594 3.63057
491 1 9.85846 -4.01416 3.21633
492 1 10.133 -4.70934 1.9926
321 1 11.4648 -4.80664 1.53869
322 1 11.7374 -5.15219 0.178214
484 1 5.88588 -2.96549 4.15801
485 1 6.11572 -4.00739 3.2223
487 1 7.49277 -4.28435 2.86768
316 1 7.79031 -4.84107 1.58367
318 1 9.0926 -4.88284 1.06058
314 1 6.6841 -5.16943 0.733556
578 1 16.5915 -0.55891 5.17754
574 1 14.1567 -0.99812 5.03421
576 1 15.4835 -1.44192 4.98589
502 1 15.7342 -2.69242 4.47473
497 1 13.1079 -1.83515 4.77631
498 1 13.3775 -3.02112 4.09471
500 1 14.6939 -3.3989 3.82813
501 1 14.9836 -4.22596 2.78594
503 1 16.2929 -4.52127 2.45035
328 1 16.6213 -4.99725 1.17898
495 1 12.2989 -3.64981 3.51042
496 1 12.5592 -4.41388 2.38381
499 1 13.8885 -4.67124 1.98282
325 1 14.1871 -5.09709 0.679255
326 1 15.5455 -5.13899 0.274564
579 1 17.9142 -1.05617 5.1786
506 1 18.1028 -2.40566 4.75591
508 1 19.3541 -3.01029 4.7146
509 1 19.7669 -3.89229 3.67669
504 1 17.0662 -3.09674 4.23558
505 1 17.329 -4.09861 3.29692
507 1 18.6618 -4.34183 2.91471
332 1 19.0065 -4.73171 1.64249
330 1 17.9741 -4.94727 0.769351
592 1 27.87 -0.465 5.162
588 1 25.4953 -0.932584 5.04737
590 1 26.8329 -1.3762 4.96984
521 1 27.0054 -2.61026 4.31582
585 1 23.0989 -1.46067 5.05013
516 1 24.4062 -1.84481 4.8114
517 1 24.6132 -3.03644 4.1038
519 1 25.9639 -3.36751 3.81736
520 1 26.245 -4.34879 2.85797
522 1 27.602 -4.564 2.456
344 1 27.87 -5.053 1.153
582 1 20.324 -0.40773 5.33638
512 1 22.0277 -2.36451 4.82167
513 1 22.2164 -3.4489 3.94406
514 1 23.5402 -3.77244 3.55191
515 1 23.8063 -4.59093 2.47266
518 1 25.1792 -4.75849 2.05861
341 1 25.4362 -4.99182 0.712791
342 1 26.7817 -5.03776 0.25072
510 1 21.1338 -4.04783 3.27381
511 1 21.4082 -4.65062 2.06696
337 1 22.7164 -4.84728 1.62061
338 1 22.9864 -5.04122 0.267683
334 1 20.3407 -4.81321 1.17931
355 1 -21.1992 5.10732 0.708557
351 1 -23.5854 4.99318 1.12397
353 1 -22.2549 4.86356 1.57774
604 1 -21.9764 4.2132 2.80377
606 1 -20.6102 3.96578 3.1918
607 1 -20.3371 2.95152 4.13894
347 1 -26.2823 5.1596 0.233238
348 1 -25.9855 4.89788 1.58924
599 1 -24.6442 4.77795 2.0298
600 1 -24.377 4.03791 3.23504
602 1 -23.0454 3.69068 3.55716
603 1 -22.7747 2.60682 4.37413
605 1 -21.4573 2.2051 4.60144
530 1 -21.173 0.885578 5.01064
595 1 -27.0718 4.54118 2.46269
596 1 -26.7729 3.68471 3.57881
597 1 -25.4156 3.36686 3.90224
598 1 -25.1704 2.21816 4.66045
601 1 -23.8376 1.75835 4.74586
527 1 -23.5639 0.461166 5.08419
528 1 -22.2182 -0.00344393 5.17879
593 1 -27.87 3.047 4.193
594 1 -27.602 1.821 4.853
524 1 -26.28 1.36498 5.03355
525 1 -25.9947 -0.00851903 5.19629
359 1 -18.7373 5.23411 0.286091
360 1 -17.3911 5.24527 0.75802
612 1 -17.114 4.70931 2.02841
357 1 -19.8417 5.08192 1.18325
608 1 -19.537 4.50352 2.4454
610 1 -18.1787 4.25694 2.80191
611 1 -17.945 3.24558 3.76079
609 1 -19.0327 2.54969 4.38212
533 1 -18.7556 1.30429 4.97453
535 1 -17.4141 0.869803 5.08278
531 1 -19.8614 0.424905 5.13074
367 1 -12.2767 5.06763 1.15023
363 1 -14.9876 5.24311 0.221724
364 1 -14.7079 4.94621 1.55888
619 1 -13.3754 4.73003 2.00299
620 1 -13.1248 3.99044 3.1525
615 1 -15.7724 4.53016 2.38406
616 1 -15.5395 3.64333 3.44145
617 1 -14.1746 3.34564 3.77213
618 1 -13.9299 2.19447 4.48823
621 1 -12.5511 1.75638 4.62763
541 1 -12.2764 0.434448 4.97393
613 1 -16.6035 2.92488 4.0416
614 1 -16.3287 1.732 4.76175
538 1 -14.9651 1.28487 4.86696
539 1 -14.7533 -0.0876411 5.07241
375 1 -7.44971 5.14128 0.260994
376 1 -6.15952 5.07522 0.738689
632 1 -5.90665 4.75237 2.06272
371 1 -9.85025 5.11 0.690926
373 1 -8.52956 5.05823 1.13834
628 1 -8.29224 4.56357 2.40414
630 1 -6.96152 4.30638 2.82767
631 1 -6.69825 3.42452 3.90545
369 1 -10.936 4.93791 1.57974
624 1 -10.6887 4.25663 2.77993
626 1 -9.34265 4.06705 3.19584
627 1 -9.12491 3.01461 4.07716
629 1 -7.81475 2.68218 4.38057
547 1 -7.52816 1.45008 4.92838
549 1 -6.20207 0.993491 4.99577
622 1 -11.7634 3.65441 3.44821
623 1 -11.5294 2.53973 4.22807
625 1 -10.1907 2.16514 4.45734
544 1 -9.88975 0.903777 4.94926
545 1 -8.54965 0.525449 5.02606
542 1 -10.9386 -0.0100602 5.06906
635 1 -4.57109 4.55003 2.42414
636 1 -4.30822 3.76556 3.57099
633 1 -5.36608 3.06918 4.15114
634 1 -5.07766 1.83959 4.74328
391 1 3.67855 4.9751 0.233404
387 1 1.294 4.98289 0.68701
389 1 2.62485 4.87721 1.12837
648 1 2.89225 4.44449 2.45087
383 1 -1.08107 4.91441 1.14805
385 1 0.266536 4.80332 1.59687
644 1 0.527203 4.28847 2.86751
646 1 1.84534 4.02086 3.25904
647 1 2.11228 3.0928 4.26922
649 1 3.432 2.72399 4.54891
561 1 3.71103 1.46636 5.05796
379 1 -3.75593 5.04646 0.218305
380 1 -3.48316 4.86723 1.57608
639 1 -2.16458 4.67798 2.05978
640 1 -1.91631 4.02393 3.24465
642 1 -0.54941 3.79998 3.61629
643 1 -0.295043 2.72117 4.44327
645 1 1.04263 2.25916 4.62633
558 1 1.30597 0.952343 5.07274
559 1 2.64291 0.559532 5.23375
637 1 -2.98644 3.39462 3.89847
638 1 -2.68655 2.25389 4.58529
641 1 -1.32177 1.82311 4.7705
555 1 -1.0971 0.499465 5.09209
556 1 0.234805 0.0131892 5.14164
552 1 -3.75769 1.39475 4.85472
553 1 -3.50142 0.0443931 5.08763
392 1 4.98787 4.9295 0.681186
652 1 5.28778 4.6139 2.02436
650 1 4.22716 4.17502 2.84434
651 1 4.54369 3.37965 3.97417
563 1 5.05957 0.934207 5.08892
399 1 10.1771 4.93707 1.15408
401 1 11.5413 4.934 1.57064
664 1 11.7875 4.2956 2.80606
395 1 7.41713 4.97825 0.249271
396 1 7.68737 4.80373 1.60114
659 1 9.06647 4.70516 2.0465
660 1 9.34538 3.95947 3.19815
662 1 10.7193 3.68285 3.51497
663 1 11.0117 2.60887 4.41303
655 1 6.62876 4.42504 2.45994
656 1 6.93435 3.66019 3.59609
657 1 8.2861 3.34886 3.88702
658 1 8.59704 2.20455 4.59732
661 1 9.9314 1.80119 4.82317
569 1 10.1901 0.476471 5.13237
570 1 11.4927 -0.0408066 5.1458
653 1 5.87775 3.00041 4.22575
654 1 6.16416 1.78158 4.85312
566 1 7.51585 1.36804 4.94537
567 1 7.78759 0.0181334 5.14337
407 1 14.9424 5.20705 0.148411
408 1 16.3015 5.1766 0.583625
672 1 16.6072 4.71829 1.86686
403 1 12.5728 5.11612 0.658107
405 1 13.8975 5.11185 1.05634
668 1 14.1834 4.61418 2.32022
670 1 15.5219 4.2747 2.65457
671 1 15.7956 3.25745 3.66691
666 1 13.1244 4.02917 3.13618
667 1 13.378 2.95605 4.08595
669 1 14.7255 2.53369 4.28249
575 1 14.9541 1.24573 4.86299
577 1 16.3004 0.812147 4.97759
665 1 12.3338 2.1304 4.59194
572 1 12.5967 0.81089 5.01254
573 1 13.9063 0.366841 5.06037
411 1 18.7197 5.35371 0.152166
412 1 19.0347 4.94307 1.47726
675 1 17.9695 4.47013 2.24526
676 1 18.242 3.61324 3.32756
677 1 19.5866 3.27322 3.62333
678 1 19.8448 2.13528 4.41151
673 1 17.1554 2.90015 3.9458
674 1 17.4144 1.71012 4.65443
580 1 18.7748 1.27604 4.81978
581 1 18.9633 -0.0614305 5.25518
423 1 26.2551 5.27305 0.214988
424 1 27.602 5.136 0.696
692 1 27.87 4.766 2.037
419 1 23.8402 5.23467 0.682687
421 1 25.2106 5.09332 1.12241
688 1 25.465 4.55492 2.38659
690 1 26.7517 4.38038 2.78091
691 1 27.0786 3.43553 3.74628
415 1 21.419 5.15496 1.13557
417 1 22.7726 5.00797 1.58441
684 1 23.058 4.28446 2.73561
686 1 24.4015 4.04087 3.11087
687 1 24.7021 3.00511 4.01587
689 1 26.0355 2.64797 4.29838
589 1 26.2617 1.38967 4.94438
591 1 27.602 0.925 5.1
679 1 20.3569 4.74242 1.91995
680 1 20.632 3.95942 3.00353
682 1 21.9335 3.69631 3.37738
683 1 22.2345 2.60547 4.27156
685 1 23.6098 2.23402 4.54684
586 1 23.8564 0.873356 5.02691
587 1 25.2137 0.463289 5.07675
681 1 21.1918 1.76101 4.67019
583 1 21.4402 0.415793 5.15605
584 1 22.7875 -0.0792652 5.16134
ITEM: TIMESTEP
200
ITEM: NUMBER OF ATOMS
692
ITEM: BOX BOUNDS ff ff ff
-6.0000000000000000e+01 6.0000000000000000e+01
-4.0000000000000000e+01 4.0000000000000000e+01
-4.0000000000000000e+01 4.0000000000000000e+01
ITEM: ATOMS id type x y z
275 1 -20.5879 -5.08781 -0.206091
276 1 -20.338 -4.78082 -1.58537
271 1 -24.3958 -5.32481 -0.205646
272 1 -23.0227 -5.21304 -0.724035
8 1 -22.7094 -4.85181 -2.07016
11 1 -21.3983 -4.42504 -2.39917
12 1 -21.1662 -3.66879 -3.52738
267 1 -26.8286 -5.18976 -0.732761
269 1 -25.5105 -5.48955 -1.08655
6 1 -23.7501 -4.42473 -2.84524
7 1 -23.546 -3.38796 -3.80844
9 1 -22.2291 -2.94595 -4.12319
10 1 -21.9667 -1.77636 -4.83444
108 1 -20.6189 -1.41795 -5.01099
265 1 -27.87 -4.93 -1.602
1 1 -27.602 -4.326 -2.855
3 1 -26.3287 -4.26996 -3.45876
4 1 -25.978 -3.12999 -4.26187
5 1 -24.6167 -2.65561 -4.38034
103 1 -24.4169 -1.37333 -4.89866
105 1 -23.0482 -0.871495 -4.99665
2 1 -26.9843 -2.24837 -4.7243
100 1 -26.796 -0.90655 -5.01062
101 1 -25.4713 -0.472828 -5.06817
279 1 -17.9687 -4.93955 -1.14655
15 1 -18.9889 -4.64534 -1.99902
16 1 -18.7399 -3.96059 -3.18374
18 1 -17.4115 -3.69446 -3.56874
19 1 -17.1504 -2.70322 -4.45536
13 1 -19.8181 -3.36067 -3.86657
14 1 -19.5626 -2.26065 -4.62605
17 1 -18.2337 -1.88207 -4.84186
111 1 -17.9479 -0.5434 -5.18284
287 1 -13.1332 -5.0563 -0.172745
283 1 -15.5635 -5.03492 -0.673148
285 1 -14.2363 -4.90099 -1.10226
24 1 -13.9161 -4.47723 -2.4217
26 1 -12.5772 -4.21794 -2.78313
27 1 -12.3069 -3.30843 -3.85422
281 1 -16.6337 -4.87599 -1.5631
20 1 -16.3528 -4.2196 -2.82468
22 1 -15.0179 -3.98515 -3.19998
23 1 -14.7499 -3.03711 -4.23618
25 1 -13.3997 -2.62485 -4.43388
117 1 -13.1868 -1.30798 -5.02964
21 1 -15.8251 -2.19752 -4.68079
114 1 -15.5837 -0.909819 -5.18565
115 1 -14.2718 -0.422013 -5.22967
295 1 -6.72134 -4.96942 -1.06962
291 1 -9.39051 -5.09748 -0.144748
292 1 -9.1214 -4.7763 -1.47409
35 1 -7.77387 -4.69368 -1.95779
36 1 -7.53938 -3.88662 -3.1301
38 1 -6.20205 -3.53364 -3.44561
39 1 -5.96436 -2.40965 -4.26756
288 1 -11.7975 -4.97278 -0.601913
28 1 -11.4997 -4.5455 -1.91268
31 1 -10.2024 -4.35984 -2.31604
32 1 -9.95692 -3.60502 -3.4647
33 1 -8.62656 -3.2726 -3.75195
34 1 -8.37628 -2.06745 -4.48195
37 1 -7.03353 -1.59896 -4.69455
125 1 -6.73704 -0.254543 -5.04406
29 1 -10.9878 -2.91912 -4.08961
30 1 -10.7774 -1.69663 -4.76097
122 1 -9.46978 -1.20556 -4.87826
119 1 -11.8521 -0.817162 -5.09015
299 1 -4.3336 -5.08735 -0.609218
297 1 -5.3568 -4.78823 -1.51522
40 1 -5.10417 -4.14763 -2.75095
41 1 -4.60189 -1.99759 -4.52587
128 1 -4.31122 -0.707263 -5.04311
307 1 1.87147 -5.17767 -0.167844
308 1 2.09202 -4.87842 -1.50286
55 1 3.44541 -4.71679 -1.91786
56 1 3.7071 -3.92577 -3.05683
303 1 -1.94117 -5.19991 -0.162013
304 1 -0.556912 -5.13904 -0.627129
48 1 -0.317406 -4.69843 -1.93517
51 1 1.00343 -4.45751 -2.35099
52 1 1.27361 -3.62285 -3.47689
53 1 2.65312 -3.26277 -3.72006
54 1 2.89934 -2.14805 -4.54559
301 1 -3.00801 -5.04264 -1.0436
44 1 -2.73683 -4.44766 -2.3203
46 1 -1.39739 -4.14959 -2.68461
47 1 -1.10801 -3.16525 -3.66918
49 1 0.20839 -2.85282 -4.01313
50 1 0.472973 -1.60071 -4.59465
136 1 1.81151 -1.21629 -4.85651
42 1 -3.77837 -3.85914 -3.06005
43 1 -3.5046 -2.79177 -3.97654
45 1 -2.15203 -2.38296 -4.1765
131 1 -1.90378 -1.16254 -4.83688
133 1 -0.559085 -0.715337 -4.83759
129 1 -2.98998 -0.302387 -5.13356
311 1 4.53942 -5.0206 -1.06191
58 1 5.04579 -3.65434 -3.38005
59 1 5.33957 -2.66448 -4.33348
57 1 4.28078 -1.7895 -4.73246
139 1 4.5632 -0.429621 -5.02722
319 1 9.36547 -5.3191 -0.192218
320 1 10.7552 -5.23243 -0.655367
68 1 11.0146 -4.99033 -2.01031
315 1 6.91487 -5.11608 -0.610681
317 1 8.2519 -5.1986 -1.08516
64 1 8.52552 -4.61644 -2.37416
66 1 9.90104 -4.42121 -2.7737
67 1 10.1395 -3.45471 -3.7291
69 1 11.4329 -3.13482 -4.11751
70 1 11.776 -1.93284 -4.6998
313 1 5.87281 -4.85007 -1.45828
60 1 6.1453 -4.23119 -2.66396
62 1 7.4692 -4.02154 -3.09693
63 1 7.70102 -3.02445 -4.04589
65 1 9.0799 -2.67276 -4.24019
145 1 9.34331 -1.37805 -4.74343
147 1 10.7114 -0.971724 -4.85536
61 1 6.69025 -2.26045 -4.57462
142 1 7.00457 -0.907862 -4.93081
143 1 8.3319 -0.413378 -4.93716
157 1 19.5045 -0.58167 -5.4067
156 1 18.183 -1.13631 -5.29877
80 1 17.9622 -2.43732 -4.84097
327 1 15.8645 -4.92895 -1.1823
323 1 13.1742 -5.1814 -0.234278
324 1 13.4724 -5.0472 -1.62023
74 1 14.7823 -4.79509 -2.09493
75 1 15.1079 -4.18735 -3.32737
77 1 16.4147 -3.89033 -3.66256
78 1 16.6326 -2.83556 -4.56647
71 1 12.3501 -4.99456 -2.46895
72 1 14.0751 -3.65576 -4.07157
73 1 14.208 -2.43439 -4.69435
76 1 15.5289 -2.03345 -4.84929
153 1 15.7752 -0.674486 -5.0519
150 1 13.1199 -1.53438 -4.87695
331 1 18.2223 -4.90604 -0.64014
333 1 19.5358 -4.73451 -1.10412
83 1 19.8058 -4.38152 -2.43082
329 1 17.1741 -4.78796 -1.58634
79 1 17.4532 -4.32232 -2.88914
81 1 18.776 -4.04981 -3.29787
82 1 19.0461 -3.26702 -4.40082
160 1 21.9435 -0.864978 -5.80079
343 1 27.0857 -4.69165 -1.05687
339 1 24.42 -4.75826 -0.1698
340 1 24.7056 -4.56185 -1.50984
93 1 26.0501 -4.51049 -1.96653
94 1 26.298 -3.973 -3.2252
96 1 27.602 -3.746 -3.582
97 1 27.87 -2.658 -4.45
335 1 20.6432 -4.84235 -0.209784
336 1 22.0067 -4.76119 -0.64748
87 1 22.2484 -4.34186 -1.95473
89 1 23.6197 -4.21625 -2.31571
90 1 23.93 -3.63096 -3.56987
91 1 25.2833 -3.34097 -3.97074
92 1 25.5982 -2.24275 -4.85756
95 1 26.898 -1.80033 -4.93091
166 1 27.1712 -0.49828 -5.32699
85 1 21.1595 -4.19631 -2.82062
86 1 21.4545 -3.56983 -4.01372
88 1 22.8085 -3.24707 -4.36752
84 1 20.3667 -3.0938 -4.73329
163 1 24.6232 -1.41353 -5.31634
107 1 -21.4485 0.920297 -5.05101
178 1 -21.2255 2.24661 -4.61815
104 1 -23.8947 1.3501 -4.93582
174 1 -23.6304 2.64857 -4.45661
176 1 -22.312 3.07823 -4.21006
177 1 -22.041 4.07834 -3.26225
179 1 -20.6994 4.32047 -2.85327
356 1 -20.4206 4.91908 -1.61876
98 1 -27.87 0 -5.183
99 1 -27.602 1.379 -4.996
169 1 -26.2746 1.7952 -4.85021
170 1 -26.0518 3.05097 -4.22665
172 1 -24.7144 3.4143 -3.92114
173 1 -24.4741 4.38998 -2.89966
175 1 -23.1128 4.58521 -2.48188
352 1 -22.8269 4.97567 -1.12655
354 1 -21.4621 5.07451 -0.708223
167 1 -27.1136 3.76441 -3.58013
168 1 -26.8162 4.51477 -2.40652
171 1 -25.5128 4.82196 -2.04632
349 1 -25.2299 5.14084 -0.698062
350 1 -23.8854 5.13036 -0.218733
345 1 -27.87 4.93 -1.602
346 1 -27.602 5.178 -0.233
109 1 -20.3788 -0.0054472 -5.1847
106 1 -22.8002 0.481268 -5.04536
102 1 -25.2259 0.872526 -5.00025
110 1 -19.0334 0.427232 -5.12419
182 1 -18.7952 1.81079 -4.79339
185 1 -17.4506 2.19725 -4.60265
186 1 -17.1805 3.34259 -3.82704
180 1 -19.893 2.66513 -4.39229
181 1 -19.5862 3.74305 -3.53895
183 1 -18.2341 4.01295 -3.19429
184 1 -17.9532 4.72931 -2.00104
358 1 -19.0784 5.05169 -1.16982
118 1 -12.6619 1.401 -4.98735
194 1 -12.3459 2.68359 -4.41802
112 1 -16.6308 -0.0121804 -5.25485
113 1 -16.3986 1.35113 -5.02705
189 1 -15.0855 1.86105 -4.90529
190 1 -14.7799 3.034 -4.20478
192 1 -13.4437 3.40518 -3.8714
193 1 -13.155 4.24743 -2.79856
187 1 -15.859 3.64135 -3.49046
188 1 -15.5632 4.48037 -2.37013
191 1 -14.2347 4.70325 -1.97896
365 1 -13.9782 5.05465 -0.647383
366 1 -12.5988 5.06562 -0.201938
361 1 -16.6325 4.83108 -1.54795
362 1 -16.4077 5.10857 -0.18985
116 1 -14.0276 0.96319 -5.13318
124 1 -7.82952 0.672635 -5.13941
202 1 -7.56453 1.97391 -4.83544
205 1 -6.19893 2.42974 -4.71024
206 1 -5.9972 3.63564 -4.01847
121 1 -10.2371 1.03718 -5.11652
198 1 -9.93087 2.32232 -4.63981
200 1 -8.60505 2.77036 -4.48003
201 1 -8.29727 3.84132 -3.60171
203 1 -7.02762 4.17883 -3.29314
204 1 -6.79289 4.82411 -2.07816
196 1 -11.013 3.06067 -4.13221
197 1 -10.7293 4.02753 -3.17116
199 1 -9.41652 4.33035 -2.83861
372 1 -9.17199 4.92198 -1.61491
374 1 -7.85739 5.12169 -1.21757
195 1 -11.8198 4.49377 -2.4094
368 1 -11.5435 4.97638 -1.09696
370 1 -10.2228 5.06826 -0.686086
123 1 -9.16279 0.150128 -5.1634
120 1 -11.5634 0.541473 -5.19071
126 1 -5.36608 0.197352 -5.15164
127 1 -5.14212 1.56851 -5.09704
207 1 -4.72917 4.10616 -3.76368
208 1 -4.35413 4.70935 -2.58156
377 1 -5.42456 4.96311 -1.66405
378 1 -5.10427 5.06719 -0.318971
138 1 3.51094 0.517879 -5.15783
220 1 3.86125 1.88516 -5.01501
135 1 0.984696 1.05756 -5.12839
217 1 1.31083 2.34634 -4.81762
219 1 3.0312 4.10242 -3.74377
132 1 -1.39247 1.54615 -5.07464
213 1 -1.01386 2.88132 -4.68282
215 1 0.306353 3.18293 -4.39637
216 1 0.57764 4.15935 -3.4703
218 1 1.90611 4.39158 -2.99033
388 1 2.13066 4.88277 -1.64871
390 1 3.48995 4.92446 -1.2103
209 1 -3.79872 1.95125 -5.20972
211 1 -2.07207 3.67362 -4.15285
212 1 -1.8435 4.39047 -2.98929
214 1 -0.513261 4.52432 -2.61386
384 1 -0.247626 4.86805 -1.25444
386 1 1.06884 4.95493 -0.746108
210 1 -2.97172 4.71971 -2.15726
381 1 -2.6656 4.88473 -0.803854
382 1 -1.29539 4.89208 -0.339519
137 1 2.09775 0.13316 -5.13185
134 1 -0.328655 0.655784 -5.08798
130 1 -2.72804 1.07709 -5.184
223 1 5.18172 2.33073 -4.72619
224 1 5.40508 3.48964 -3.93146
221 1 4.3467 4.14859 -3.30721
222 1 4.5864 4.75068 -2.06997
146 1 9.97943 1.35063 -4.77971
232 1 10.2373 2.59267 -4.27064
234 1 11.5801 2.90473 -3.97067
235 1 11.8471 3.94912 -3.08415
140 1 5.95444 0.0472443 -5.08565
141 1 6.24878 1.43118 -4.94093
227 1 7.57623 1.88545 -4.74412
228 1 7.8641 3.10602 -4.11668
230 1 9.17041 3.38597 -3.75648
231 1 9.42037 4.3437 -2.79312
233 1 10.7842 4.5836 -2.41258
400 1 11.0679 5.06934 -1.13366
225 1 6.75193 3.81032 -3.59258
226 1 7.01631 4.59537 -2.45834
229 1 8.32116 4.8104 -2.05955
397 1 8.64158 5.23122 -0.739578
398 1 9.97971 5.27595 -0.267859
393 1 5.92111 4.94229 -1.65657
394 1 6.218 5.21789 -0.318936
148 1 11.0107 0.40129 -4.91789
144 1 8.62423 0.966318 -4.86894
158 1 19.8061 0.781095 -5.18031
152 1 14.7266 0.271267 -4.99068
240 1 15.0434 1.60963 -4.68309
243 1 16.3561 2.01101 -4.50262
244 1 16.6577 3.20913 -3.751
149 1 12.3459 0.797898 -4.84995
236 1 12.6354 2.09088 -4.38782
238 1 14.0027 2.46307 -4.23883
239 1 14.2691 3.62567 -3.43758
241 1 15.5956 3.94241 -3.12487
242 1 15.8276 4.71052 -1.98247
237 1 13.2026 4.26983 -2.79059
404 1 13.4638 4.94095 -1.56513
406 1 14.7679 5.05843 -1.10635
402 1 12.4016 5.18733 -0.637878
151 1 13.3695 -0.151913 -4.97198
154 1 17.1491 -0.211676 -5.14673
155 1 17.3951 1.13294 -4.88384
247 1 18.7571 1.62821 -4.83537
248 1 19.0579 2.83484 -4.15819
245 1 17.9926 3.48264 -3.47684
246 1 18.2247 4.31098 -2.37958
249 1 19.5735 4.57618 -1.97174
413 1 19.8739 5.05913 -0.642497
409 1 17.166 4.68786 -1.50845
410 1 17.443 5.09482 -0.163048
161 1 22.3069 0.403031 -5.35379
165 1 26.1168 0.41773 -5.31192
260 1 26.3398 1.76242 -4.97259
263 1 27.602 2.249 -4.67
264 1 27.87 3.41 -3.903
162 1 23.664 0.825347 -5.25494
256 1 23.9468 2.03749 -4.7548
258 1 25.2542 2.45585 -4.52841
259 1 25.4824 3.47156 -3.63593
261 1 26.7496 3.92391 -3.34141
262 1 26.974 4.70891 -2.22646
159 1 21.1631 1.23288 -5.07176
252 1 21.3947 2.47013 -4.48427
254 1 22.8021 2.80005 -4.24337
255 1 23.0694 3.85842 -3.29704
257 1 24.4327 4.04387 -2.91383
420 1 24.6829 4.69608 -1.66241
422 1 25.9982 4.98797 -1.24008
250 1 20.3542 3.20783 -3.87049
251 1 20.6119 4.08405 -2.79827
253 1 21.9889 4.35702 -2.49263
416 1 22.3066 4.7598 -1.18003
418 1 23.6352 4.91129 -0.76059
414 1 21.2158 4.99123 -0.269911
164 1 24.7895 -0.048304 -5.38145
529 1 -21.9958 -1.36888 4.90483
438 1 -20.6467 -1.74926 4.6792
439 1 -20.4207 -2.9946 4.07863
526 1 -24.6687 -0.43672 5.1492
431 1 -24.3681 -1.79993 4.80014
434 1 -23.0667 -2.31237 4.67826
435 1 -22.8292 -3.39573 3.84422
436 1 -21.4792 -3.69246 3.47264
437 1 -21.1853 -4.49977 2.37956
523 1 -27.0373 -0.89336 5.16927
427 1 -26.77 -2.24192 4.7152
429 1 -25.4314 -2.60288 4.39761
430 1 -25.211 -3.69423 3.52861
432 1 -23.8901 -3.99202 3.16549
433 1 -23.6145 -4.70667 2.01596
273 1 -22.2491 -4.83689 1.5693
274 1 -21.9693 -5.13204 0.206085
425 1 -27.87 -3.047 4.193
426 1 -27.602 -4.052 3.232
428 1 -26.2804 -4.32856 2.86945
268 1 -26.0281 -4.86418 1.60185
270 1 -24.6782 -5.03813 1.16538
266 1 -27.0507 -5.06707 0.644419
536 1 -17.2169 -0.450318 5.02735
532 1 -19.5338 -0.88728 4.93684
534 1 -18.249 -1.31869 4.79222
443 1 -18.0606 -2.65681 4.34698
441 1 -19.1026 -3.42523 3.84982
442 1 -18.7823 -4.31938 2.81139
444 1 -17.4356 -4.5561 2.49254
280 1 -17.1674 -4.98965 1.16681
440 1 -19.8391 -4.72611 2.0421
277 1 -19.5637 -5.07598 0.704955
278 1 -18.2318 -5.08511 0.226466
540 1 -13.4168 -0.530012 5.25648
450 1 -13.0345 -1.86325 5.21868
537 1 -15.8954 -0.937756 5.11289
447 1 -15.7502 -2.27146 4.73275
449 1 -13.9646 -3.95891 3.77752
451 1 -12.6181 -4.10442 3.33904
452 1 -12.3774 -4.70761 2.08569
445 1 -16.7679 -3.05769 4.22329
446 1 -16.4034 -4.06202 3.32645
448 1 -15.0417 -4.36265 2.92532
284 1 -14.7605 -4.87631 1.62252
286 1 -13.4448 -4.96925 1.18593
282 1 -15.8619 -5.05219 0.72823
550 1 -5.8948 -0.442741 5.16495
546 1 -8.32538 -0.958749 5.08446
548 1 -6.97402 -1.31206 5.01492
462 1 -6.68998 -2.6112 4.45762
543 1 -10.727 -1.43993 5.14809
457 1 -9.40124 -1.83792 4.89914
458 1 -9.1312 -3.05267 4.26987
460 1 -7.7677 -3.38264 4.00027
461 1 -7.55414 -4.31972 2.97403
463 1 -6.21157 -4.58516 2.55679
296 1 -5.95972 -5.07106 1.25434
453 1 -11.7801 -2.32539 4.81702
454 1 -11.5595 -3.4742 4.00827
455 1 -10.231 -3.7592 3.65399
456 1 -9.96347 -4.51142 2.53356
459 1 -8.63793 -4.73345 2.17606
293 1 -8.34232 -5.09685 0.826744
294 1 -7.03087 -5.13684 0.302892
289 1 -11.0394 -4.86955 1.69778
290 1 -10.7446 -5.06433 0.313543
551 1 -4.5681 -0.893499 5.05837
466 1 -4.30635 -2.17308 4.58229
464 1 -5.38604 -2.96522 4.17564
465 1 -5.1208 -4.05356 3.29219
298 1 -4.61349 -5.14464 0.776467
560 1 2.98762 -0.891573 5.15098
557 1 0.52801 -1.35734 5.02535
477 1 1.91007 -1.73791 4.84575
478 1 2.14737 -3.00031 4.18658
480 1 3.47054 -3.38606 3.95162
481 1 3.71494 -4.33054 2.86416
554 1 -2.18476 -0.47484 5.21994
470 1 -1.90555 -1.82278 4.852
473 1 -0.552424 -2.19736 4.60463
474 1 -0.300464 -3.32204 3.82088
475 1 1.06732 -3.6583 3.54636
476 1 1.35584 -4.53668 2.46679
479 1 2.65472 -4.77566 2.04041
309 1 2.9356 -5.18144 0.736206
468 1 -2.98056 -2.63416 4.43312
469 1 -2.70048 -3.71979 3.64022
471 1 -1.38233 -4.02211 3.23669
472 1 -1.08792 -4.73264 2.04794
305 1 0.275941 -4.89505 1.6231
306 1 0.548072 -5.14806 0.255534
467 1 -3.77562 -4.30343 2.93299
300 1 -3.54097 -4.95102 1.68019
302 1 -2.22173 -5.01211 1.20847
564 1 5.41918 -0.419288 5.20071
562 1 4.31602 -1.32103 5.07818
482 1 4.55516 -2.56914 4.42097
483 1 5.07057 -4.61395 2.48796
312 1 5.32182 -5.10061 1.19044
310 1 4.27569 -5.23416 0.283592
571 1 11.8109 -1.42169 5.04221
568 1 9.19982 -0.491137 5.22757
490 1 9.40251 -1.86066 4.94989
493 1 10.7189 -2.29998 4.76041
494 1 10.9711 -3.40891 3.93315
565 1 6.78229 -0.894266 5.09756
486 1 7.00528 -2.24916 4.64524
488 1 8.32207 -2.63016 4.43088
489 1 8.58823 -3.76154 3.59663
491 1 9.90077 -4.07162 3.25545
492 1 10.1742 -4.75899 2.04989
321 1 11.5508 -4.8991 1.62037
322 1 11.8469 -5.2017 0.264013
484 1 5.88077 -3.02344 4.14289
485 1 6.15196 -4.05315 3.22161
487 1 7.5096 -4.32179 2.85468
316 1 7.74544 -4.99 1.65491
318 1 9.097 -5.10222 1.19673
314 1 6.66303 -5.18474 0.749487
578 1 16.5953 -0.487758 5.21652
574 1 14.1999 -0.951974 5.0821
576 1 15.5213 -1.39178 5.07529
502 1 15.7728 -2.62297 4.42106
497 1 13.1267 -1.821 4.89426
498 1 13.3925 -3.00132 4.15879
500 1 14.7114 -3.34811 3.80056
501 1 15.0087 -4.29492 2.79287
503 1 16.3053 -4.50706 2.4284
328 1 16.6417 -4.85033 1.12687
495 1 12.3039 -3.69224 3.53623
496 1 12.6133 -4.54091 2.468
499 1 13.9615 -4.7363 2.00292
325 1 14.2368 -5.08147 0.687496
326 1 15.5894 -5.02746 0.210994
579 1 17.9252 -0.963593 5.19699
506 1 18.1426 -2.34766 4.79033
508 1 19.5013 -2.76591 4.5356
509 1 19.8142 -3.69831 3.59733
504 1 17.0919 -3.10775 4.24723
505 1 17.3988 -4.01377 3.21817
507 1 18.7313 -4.19236 2.82043
332 1 19.0264 -4.73477 1.60591
330 1 17.9705 -4.90005 0.714393
592 1 27.87 -0.465 5.162
588 1 25.4503 -0.979493 5.19583
590 1 26.8111 -1.41392 5.08496
521 1 27.0575 -2.74678 4.58924
585 1 23.0971 -1.47901 5.28192
516 1 24.4215 -1.87916 5.04921
517 1 24.6945 -3.09123 4.33829
519 1 26.0023 -3.42211 3.98041
520 1 26.2533 -4.24987 2.90118
522 1 27.602 -4.564 2.456
344 1 27.87 -5.053 1.153
582 1 20.3487 -0.423098 5.48462
512 1 22.0921 -2.34973 4.88724
513 1 22.2677 -3.40957 3.97052
514 1 23.6103 -3.67624 3.68197
515 1 23.8599 -4.30508 2.48227
518 1 25.1848 -4.54176 2.0475
341 1 25.4642 -4.81585 0.716737
342 1 26.8047 -4.88008 0.270234
510 1 21.1759 -3.96015 3.28867
511 1 21.432 -4.59079 2.06451
337 1 22.7755 -4.66494 1.62063
338 1 23.0758 -4.84224 0.272456
334 1 20.3903 -4.80795 1.16388
355 1 -21.1802 5.11388 0.698156
351 1 -23.6223 4.99515 1.14944
353 1 -22.2806 4.93454 1.60119
604 1 -21.9888 4.39735 2.87881
606 1 -20.6791 4.03664 3.21335
607 1 -20.4126 3.03076 4.16028
347 1 -26.2965 5.19296 0.254033
348 1 -26.0157 4.92586 1.62419
599 1 -24.7003 4.71846 2.04785
600 1 -24.3913 4.04082 3.27045
602 1 -23.0513 3.73064 3.59327
603 1 -22.7945 2.67662 4.46512
605 1 -21.4799 2.25392 4.66171
530 1 -21.2227 0.914148 5.09713
595 1 -27.0463 4.55985 2.49603
596 1 -26.813 3.75728 3.62046
597 1 -25.4728 3.46135 4.02162
598 1 -25.2152 2.23934 4.76638
601 1 -23.8737 1.83433 4.90479
527 1 -23.6185 0.472313 5.16469
528 1 -22.295 0.0236702 5.14954
593 1 -27.87 3.047 4.193
594 1 -27.602 1.821 4.853
524 1 -26.264 1.37808 4.98897
525 1 -25.9919 0.021375 5.13103
359 1 -18.8129 5.14686 0.241459
360 1 -17.4845 5.1215 0.712619
612 1 -17.216 4.70586 2.01006
357 1 -19.8558 5.06363 1.18382
608 1 -19.6176 4.51131 2.44612
610 1 -18.2729 4.24509 2.81393
611 1 -17.9985 3.34446 3.88031
609 1 -19.0759 2.639 4.44842
533 1 -18.7957 1.36512 4.93595
535 1 -17.4525 0.914075 5.03382
531 1 -19.8739 0.463707 5.09453
367 1 -12.3637 4.96743 1.14518
363 1 -15.0524 5.09783 0.272712
364 1 -14.7751 4.81594 1.61514
619 1 -13.43 4.69853 2.04506
620 1 -13.1743 3.94794 3.19738
615 1 -15.8801 4.38668 2.39876
616 1 -15.5981 3.62074 3.54916
617 1 -14.2569 3.2579 3.83744
618 1 -14.0015 2.14914 4.64662
621 1 -12.6118 1.74345 4.77558
541 1 -12.3295 0.386924 5.14598
613 1 -16.6471 3.02132 4.2189
614 1 -16.3934 1.78417 4.88763
538 1 -15.0646 1.30375 5.03785
539 1 -14.7859 -0.0785925 5.26867
375 1 -7.53605 5.13608 0.186137
376 1 -6.1766 5.0228 0.63844
632 1 -5.87674 4.5791 1.9377
371 1 -9.94769 5.04317 0.679957
373 1 -8.61119 4.95215 1.12845
628 1 -8.35157 4.40381 2.38945
630 1 -6.97094 4.18502 2.79004
631 1 -6.67941 3.31747 3.87737
369 1 -11.015 4.85375 1.57377
624 1 -10.7414 4.24935 2.80604
626 1 -9.42559 3.91179 3.14032
627 1 -9.12897 2.95147 4.09302
629 1 -7.78786 2.57186 4.37181
547 1 -7.50822 1.32756 4.96788
549 1 -6.15219 0.895209 5.12151
622 1 -11.7893 3.63753 3.52127
623 1 -11.5331 2.56045 4.37707
625 1 -10.1833 2.15899 4.59972
544 1 -9.9557 0.864882 5.03003
545 1 -8.57654 0.435599 5.11541
542 1 -10.9818 -0.0569865 5.19655
635 1 -4.52298 4.33818 2.35157
636 1 -4.30328 3.56303 3.49564
633 1 -5.35763 2.95273 4.18453
634 1 -5.10003 1.81786 4.95321
391 1 3.73983 4.97367 0.152755
387 1 1.34433 4.80707 0.622384
389 1 2.68306 4.7016 1.05607
648 1 2.92457 4.32514 2.33777
383 1 -1.01497 4.73014 1.03645
385 1 0.29981 4.58283 1.51428
644 1 0.5546 4.06098 2.74665
646 1 1.88909 3.86856 3.16821
647 1 2.14472 2.9362 4.1532
649 1 3.52394 2.61194 4.30483
561 1 3.76154 1.39829 4.92593
379 1 -3.75195 4.93337 0.110329
380 1 -3.47224 4.5761 1.4747
639 1 -2.1396 4.48688 1.88061
640 1 -1.88324 3.84906 3.10024
642 1 -0.525717 3.57916 3.47599
643 1 -0.219966 2.56228 4.39053
645 1 1.0645 2.16609 4.62485
558 1 1.34962 0.917605 5.12436
559 1 2.68657 0.51609 5.19839
637 1 -2.97706 3.26764 3.80898
638 1 -2.64334 2.24457 4.73318
641 1 -1.29932 1.81741 4.86877
555 1 -1.07731 0.423344 5.13785
556 1 0.260436 -0.0133683 5.21545
552 1 -3.74977 1.38558 4.99583
553 1 -3.51032 0.0198905 5.16711
392 1 5.09585 5.0886 0.595464
652 1 5.35763 4.66658 1.88553
650 1 4.28488 4.15921 2.70116
651 1 4.58161 3.34246 3.79016
563 1 5.1275 0.936933 5.06892
399 1 10.241 5.13182 1.12125
401 1 11.5771 4.98312 1.57844
664 1 11.8793 4.34069 2.82549
395 1 7.55383 5.26063 0.179654
396 1 7.80527 4.95153 1.53351
659 1 9.1514 4.79849 1.95203
660 1 9.44497 4.03506 3.10229
662 1 10.7825 3.75613 3.51161
663 1 11.0632 2.60041 4.34392
655 1 6.69707 4.51701 2.33413
656 1 6.99676 3.66815 3.42664
657 1 8.33809 3.3452 3.76161
658 1 8.63146 2.2504 4.61546
661 1 9.9941 1.84177 4.82626
569 1 10.2217 0.455452 5.18419
570 1 11.5576 -0.0418903 5.17908
653 1 5.93325 2.97864 4.05998
654 1 6.18323 1.83567 4.85476
566 1 7.53613 1.42412 5.03288
567 1 7.87335 0.00496863 5.15731
407 1 15.0441 5.16764 0.284435
408 1 16.3842 5.08541 0.766775
672 1 16.634 4.76465 2.11394
403 1 12.6125 5.2221 0.712673
405 1 13.954 5.13639 1.18628
668 1 14.279 4.56127 2.4354
670 1 15.5614 4.30683 2.86246
671 1 15.833 3.34344 3.87195
666 1 13.2175 4.03409 3.19117
667 1 13.4324 2.99815 4.07732
669 1 14.7613 2.59437 4.35041
575 1 14.999 1.36005 4.92099
577 1 16.3139 0.862847 5.0131
665 1 12.3958 2.20026 4.5483
572 1 12.6281 0.897496 5.02114
573 1 13.9655 0.434622 5.05115
411 1 18.7684 5.11161 0.303227
412 1 19.0127 4.80492 1.63498
675 1 17.9519 4.42601 2.47359
676 1 18.2478 3.60772 3.57231
677 1 19.6065 3.24479 3.84249
678 1 19.8441 2.09213 4.65137
673 1 17.1526 2.964 4.13397
674 1 17.4025 1.71468 4.78452
580 1 18.7627 1.27916 4.98179
581 1 19.0265 -0.0511113 5.32264
423 1 26.284 5.13776 0.170629
424 1 27.602 5.136 0.696
692 1 27.87 4.766 2.037
419 1 23.883 4.94296 0.641651
421 1 25.2513 4.97358 1.12942
688 1 25.5091 4.40283 2.42488
690 1 26.8305 4.23929 2.84555
691 1 27.0028 3.31134 3.94131
415 1 21.4789 4.87044 1.09581
417 1 22.7851 4.74228 1.5279
684 1 23.0994 4.08999 2.73922
686 1 24.4259 3.84737 3.16255
687 1 24.7017 2.8379 4.14157
689 1 25.992 2.52829 4.49361
589 1 26.2397 1.27979 5.02553
591 1 27.602 0.925 5.1
679 1 20.4135 4.61362 1.99552
680 1 20.7091 3.88744 3.17189
682 1 22.0499 3.52545 3.45773
683 1 22.2756 2.46067 4.3403
685 1 23.6034 2.103 4.59135
586 1 23.8542 0.810987 5.04605
587 1 25.2042 0.378252 5.17972
681 1 21.1815 1.71353 4.82874
583 1 21.4526 0.411508 5.26796
584 1 22.7781 -0.106059 5.26981
ITEM: TIMESTEP
300
ITEM: NUMBER OF ATOMS
692
ITEM: BOX BOUNDS ff ff ff
-6.0000000000000000e+01 6.0000000000000000e+01
-4.0000000000000000e+01 4.0000000000000000e+01
-4.0000000000000000e+01 4.0000000000000000e+01
ITEM: ATOMS id type x y z
275 1 -20.6589 -5.23764 -0.163701
276 1 -20.3586 -4.9794 -1.52634
271 1 -24.4029 -5.40727 -0.205797
272 1 -23.038 -5.28063 -0.663616
8 1 -22.7343 -4.93023 -2.03033
11 1 -21.4082 -4.55009 -2.39467
12 1 -21.1244 -3.69215 -3.47102
267 1 -26.818 -5.20108 -0.683471
269 1 -25.5063 -5.49471 -1.0934
6 1 -23.7561 -4.46137 -2.85394
7 1 -23.4908 -3.43052 -3.82809
9 1 -22.1431 -3.04674 -4.09744
10 1 -21.9277 -1.83663 -4.80204
108 1 -20.5524 -1.37018 -4.91911
265 1 -27.87 -4.93 -1.602
1 1 -27.602 -4.326 -2.855
3 1 -26.3489 -4.18967 -3.43744
4 1 -25.8996 -3.00576 -4.16606
5 1 -24.5515 -2.65683 -4.334
103 1 -24.3383 -1.33826 -4.9194
105 1 -22.9922 -0.909267 -5.05291
2 1 -26.9847 -2.1897 -4.6281
100 1 -26.7763 -0.866007 -5.09144
101 1 -25.4386 -0.433739 -5.10241
279 1 -17.9365 -5.05565 -1.045
15 1 -19.0422 -4.76708 -1.92991
16 1 -18.7163 -3.96921 -3.09363
18 1 -17.3638 -3.61682 -3.39832
19 1 -17.151 -2.4962 -4.21928
13 1 -19.7842 -3.34255 -3.7474
14 1 -19.5284 -2.20049 -4.50372
17 1 -18.2214 -1.72949 -4.66237
111 1 -17.9766 -0.378806 -4.9516
287 1 -13.0251 -5.095 -0.126216
283 1 -15.4743 -5.10138 -0.527203
285 1 -14.1556 -4.98043 -0.991136
24 1 -13.9314 -4.37075 -2.2358
26 1 -12.6129 -4.06514 -2.60844
27 1 -12.3543 -3.18584 -3.67518
281 1 -16.5319 -4.92641 -1.44843
20 1 -16.3003 -4.22122 -2.68867
22 1 -14.999 -3.89454 -3.00243
23 1 -14.7573 -2.87857 -3.95641
25 1 -13.4456 -2.4656 -4.23363
117 1 -13.165 -1.2511 -4.91185
21 1 -15.8263 -2.06193 -4.43114
114 1 -15.5356 -0.759762 -4.88922
115 1 -14.2086 -0.314415 -5.01416
295 1 -6.67021 -4.8561 -0.995463
291 1 -9.34141 -5.00788 -0.094477
292 1 -9.06111 -4.69811 -1.41645
35 1 -7.72715 -4.54851 -1.84427
36 1 -7.4795 -3.83512 -3.08384
38 1 -6.15553 -3.53232 -3.459
39 1 -5.90637 -2.41328 -4.30925
288 1 -11.731 -5.02766 -0.586675
28 1 -11.5027 -4.5559 -1.87959
31 1 -10.1548 -4.36298 -2.28427
32 1 -9.90856 -3.54615 -3.40805
33 1 -8.55112 -3.1763 -3.71633
34 1 -8.33495 -2.00061 -4.44411
37 1 -6.98738 -1.58575 -4.7359
125 1 -6.69941 -0.248049 -5.15088
29 1 -11.0244 -2.85048 -3.96992
30 1 -10.7275 -1.65525 -4.69051
122 1 -9.4025 -1.19049 -4.84237
119 1 -11.8254 -0.784848 -5.0547
299 1 -4.28764 -4.87382 -0.52023
297 1 -5.35265 -4.67995 -1.44048
40 1 -5.06734 -4.08321 -2.69605
41 1 -4.57237 -1.94836 -4.51702
128 1 -4.34003 -0.675655 -5.04842
307 1 1.83597 -5.15358 -0.128886
308 1 2.06671 -4.78012 -1.4525
55 1 3.41675 -4.61409 -1.89418
56 1 3.66846 -3.9349 -3.14531
303 1 -1.88509 -4.94864 -0.0646863
304 1 -0.551129 -4.97645 -0.540191
48 1 -0.328511 -4.56573 -1.88726
51 1 1.01062 -4.3939 -2.29452
52 1 1.27044 -3.53032 -3.40967
53 1 2.63609 -3.18536 -3.76203
54 1 2.91895 -2.02263 -4.54541
301 1 -2.98879 -4.72396 -0.931548
44 1 -2.74302 -4.21065 -2.24587
46 1 -1.38774 -4.05428 -2.65289
47 1 -1.11964 -3.11423 -3.71126
49 1 0.217547 -2.78608 -3.97137
50 1 0.512155 -1.5427 -4.64444
136 1 1.85474 -1.10967 -4.75553
42 1 -3.74713 -3.7381 -3.08156
43 1 -3.5362 -2.6802 -4.00879
45 1 -2.17098 -2.34508 -4.2779
131 1 -1.88159 -1.13171 -4.90439
133 1 -0.531626 -0.638628 -5.01066
129 1 -2.98334 -0.229717 -5.15628
311 1 4.52829 -4.96526 -1.03677
58 1 5.04702 -3.7451 -3.56291
59 1 5.28699 -2.59901 -4.36916
57 1 4.26287 -1.68334 -4.78237
139 1 4.53874 -0.29502 -5.00312
319 1 9.34283 -5.11572 -0.266465
320 1 10.6865 -5.1066 -0.751686
68 1 10.9179 -4.90378 -2.12066
315 1 6.99022 -5.10142 -0.672092
317 1 8.29972 -5.02682 -1.19521
64 1 8.55298 -4.60376 -2.52583
66 1 9.87875 -4.44349 -2.96585
67 1 10.0518 -3.58099 -4.10757
69 1 11.3575 -3.23042 -4.52289
70 1 11.6747 -1.96442 -5.08632
313 1 5.89853 -4.89359 -1.54815
60 1 6.13097 -4.35425 -2.85188
62 1 7.47057 -4.09304 -3.28041
63 1 7.74085 -3.0555 -4.18558
65 1 9.01397 -2.75375 -4.55637
145 1 9.25661 -1.44763 -5.0066
147 1 10.612 -1.05133 -5.18653
61 1 6.66525 -2.17217 -4.5864
142 1 6.903 -0.857786 -4.96895
143 1 8.19727 -0.47811 -5.02917
157 1 19.4833 -0.575999 -5.66876
156 1 18.1853 -1.11653 -5.46644
80 1 17.9183 -2.42787 -4.87338
327 1 15.8092 -4.83982 -1.05391
323 1 13.1263 -5.12551 -0.172454
324 1 13.3786 -4.99998 -1.57377
74 1 14.7443 -4.73237 -2.02571
75 1 14.9956 -4.16107 -3.25378
77 1 16.3097 -3.81189 -3.59168
78 1 16.5753 -2.84183 -4.60162
71 1 12.2947 -4.92381 -2.44961
72 1 13.9763 -3.58981 -4.08313
73 1 14.1712 -2.44479 -4.85433
76 1 15.5032 -2.03543 -5.035
153 1 15.7523 -0.669689 -5.32396
150 1 13.0458 -1.61158 -5.19023
331 1 18.2359 -4.87491 -0.583356
333 1 19.5767 -4.83669 -1.04789
83 1 19.749 -4.49892 -2.43584
329 1 17.151 -4.76171 -1.50176
79 1 17.3711 -4.27017 -2.77963
81 1 18.6903 -4.12559 -3.28495
82 1 18.9465 -3.34302 -4.41484
160 1 22.2622 -0.266789 -6.88506
343 1 27.0668 -5.16582 -1.14429
339 1 24.3605 -5.06271 -0.235096
340 1 24.615 -4.92088 -1.60005
93 1 25.9825 -4.85234 -1.99435
94 1 26.2932 -4.12395 -3.19102
96 1 27.602 -3.746 -3.582
97 1 27.87 -2.658 -4.45
335 1 20.6539 -4.89561 -0.125003
336 1 21.9506 -4.95804 -0.622906
87 1 22.1887 -4.68439 -1.98907
89 1 23.5426 -4.58508 -2.46159
90 1 23.8854 -3.94239 -3.69051
91 1 25.2138 -3.50731 -4.00252
92 1 25.4446 -2.32914 -4.78487
95 1 26.7992 -1.88764 -4.9563
166 1 27.0838 -0.528493 -5.23112
85 1 21.1112 -4.31099 -2.83705
86 1 21.4117 -3.73433 -4.06926
88 1 22.7653 -3.48534 -4.42719
84 1 20.2982 -3.29449 -4.87234
163 1 24.4498 -1.45425 -5.25121
107 1 -21.414 0.96623 -5.06329
178 1 -21.1669 2.30535 -4.72415
104 1 -23.8061 1.35804 -5.02733
174 1 -23.5362 2.66548 -4.50146
176 1 -22.206 3.07778 -4.24572
177 1 -21.9896 4.00139 -3.19323
179 1 -20.6916 4.27839 -2.80305
356 1 -20.3868 4.78903 -1.50905
98 1 -27.87 0 -5.183
99 1 -27.602 1.379 -4.996
169 1 -26.2599 1.766 -4.82486
170 1 -26.0052 2.98852 -4.10568
172 1 -24.6148 3.39072 -3.9257
173 1 -24.3725 4.28333 -2.84382
175 1 -23.0379 4.46895 -2.39315
352 1 -22.7688 4.91899 -1.09031
354 1 -21.4699 5.00688 -0.597551
167 1 -27.0792 3.66958 -3.48838
168 1 -26.7668 4.52109 -2.41557
171 1 -25.4487 4.73685 -1.9927
349 1 -25.184 5.10965 -0.643073
350 1 -23.8326 5.08377 -0.177611
345 1 -27.87 4.93 -1.602
346 1 -27.602 5.178 -0.233
109 1 -20.3359 0.0249655 -5.1465
106 1 -22.7209 0.467983 -5.12494
102 1 -25.1543 0.925502 -5.0707
110 1 -18.9987 0.532473 -5.09039
182 1 -18.7715 1.88852 -4.84913
185 1 -17.4273 2.38027 -4.70815
186 1 -17.1752 3.49122 -3.92967
180 1 -19.8462 2.71948 -4.43451
181 1 -19.5825 3.80333 -3.55462
183 1 -18.2481 4.06563 -3.1611
184 1 -17.9611 4.68475 -1.96625
358 1 -19.0338 4.90576 -1.07245
118 1 -12.6467 1.53795 -5.10696
194 1 -12.3782 2.91556 -4.69003
112 1 -16.6594 0.0992473 -5.0088
113 1 -16.3512 1.49156 -5.03975
189 1 -15.0298 1.93352 -4.94802
190 1 -14.737 3.15924 -4.32358
192 1 -13.4318 3.55163 -4.0365
193 1 -13.1377 4.41651 -2.98531
187 1 -15.8134 3.86457 -3.67496
188 1 -15.5584 4.58762 -2.47508
191 1 -14.2012 4.8034 -2.0925
365 1 -13.9127 5.08879 -0.680004
366 1 -12.5641 5.0612 -0.242627
361 1 -16.6031 4.78813 -1.57147
362 1 -16.3457 5.03023 -0.223975
116 1 -13.9646 1.04755 -5.11824
124 1 -7.77792 0.67934 -5.25438
202 1 -7.49464 2.04704 -5.03302
205 1 -6.1655 2.5197 -4.95838
206 1 -5.92749 3.69436 -4.21091
121 1 -10.232 1.14253 -5.17295
198 1 -9.98026 2.54159 -4.93428
200 1 -8.62137 2.90424 -4.71684
201 1 -8.3721 3.9663 -3.78284
203 1 -7.0386 4.23142 -3.43972
204 1 -6.69006 4.78788 -2.20923
196 1 -11.0643 3.37393 -4.48467
197 1 -10.7919 4.29789 -3.44897
199 1 -9.42366 4.44267 -2.95674
372 1 -9.1252 4.80729 -1.6707
374 1 -7.74861 4.8936 -1.28189
195 1 -11.8189 4.63699 -2.58034
368 1 -11.5142 4.90731 -1.19851
370 1 -10.195 4.90929 -0.773763
123 1 -9.13545 0.195035 -5.20342
120 1 -11.5646 0.611807 -5.18689
126 1 -5.40975 0.218624 -5.23321
127 1 -5.08835 1.58566 -5.29395
207 1 -4.61144 4.10375 -3.86353
208 1 -4.28179 4.64219 -2.60033
377 1 -5.33138 4.89782 -1.78102
378 1 -5.08702 4.98134 -0.433205
138 1 3.49492 0.632881 -5.05855
220 1 3.90015 1.97271 -5.00662
135 1 1.07792 1.19746 -5.15616
217 1 1.30379 2.56017 -5.03071
219 1 3.08168 4.31799 -3.90282
132 1 -1.33685 1.66194 -5.19728
213 1 -1.03265 2.9716 -4.74992
215 1 0.31174 3.41864 -4.53545
216 1 0.621069 4.34394 -3.51895
218 1 1.95459 4.63762 -3.07591
388 1 2.16067 5.04384 -1.73655
390 1 3.48523 5.0589 -1.24062
209 1 -3.78779 1.98874 -5.36456
211 1 -1.99697 3.74195 -4.19554
212 1 -1.8144 4.55963 -3.10007
214 1 -0.46497 4.775 -2.66494
384 1 -0.278274 5.15935 -1.31498
386 1 1.06859 5.15284 -0.812038
210 1 -2.92814 4.81902 -2.21941
381 1 -2.73144 5.12083 -0.830192
382 1 -1.38933 5.20367 -0.371561
137 1 2.11688 0.246612 -5.0465
134 1 -0.263752 0.752057 -5.16598
130 1 -2.68616 1.1374 -5.31235
223 1 5.17951 2.40658 -4.75206
224 1 5.41103 3.55124 -4.00137
221 1 4.36976 4.265 -3.36408
222 1 4.60988 4.76102 -2.09691
146 1 9.89847 1.25783 -4.9949
232 1 10.2089 2.51795 -4.47263
234 1 11.5718 2.81146 -4.19585
235 1 11.8537 3.8275 -3.29781
140 1 5.89223 0.123361 -5.09655
141 1 6.18885 1.46807 -5.02415
227 1 7.53279 1.84684 -4.8331
228 1 7.81571 3.09838 -4.26485
230 1 9.14417 3.31622 -3.95835
231 1 9.43579 4.13581 -2.90482
233 1 10.7924 4.29115 -2.50219
400 1 11.0786 4.81988 -1.21205
225 1 6.78105 3.8316 -3.66665
226 1 7.04133 4.51561 -2.48558
229 1 8.38134 4.64543 -2.09993
397 1 8.61696 5.07537 -0.731355
398 1 9.95722 5.03283 -0.314911
393 1 5.96075 4.83691 -1.65926
394 1 6.23967 5.15397 -0.307791
148 1 10.9246 0.314008 -5.20523
144 1 8.51049 0.889706 -5.04506
158 1 19.841 0.785457 -5.3403
152 1 14.6894 0.253953 -5.28027
240 1 14.9863 1.57682 -4.9228
243 1 16.3306 1.96431 -4.73707
244 1 16.5649 3.0606 -3.8748
149 1 12.2863 0.686035 -5.07098
236 1 12.5913 1.97522 -4.62341
238 1 13.9386 2.43376 -4.44484
239 1 14.1895 3.54548 -3.63351
241 1 15.5303 3.75667 -3.20326
242 1 15.8032 4.40747 -1.95533
237 1 13.1704 4.11967 -2.90576
404 1 13.435 4.65017 -1.57906
406 1 14.7298 4.67766 -1.07964
402 1 12.3533 4.89211 -0.687934
151 1 13.3238 -0.256455 -5.2723
154 1 17.1102 -0.211759 -5.40459
155 1 17.4182 1.16363 -5.14648
247 1 18.7701 1.5604 -4.95314
248 1 19.0168 2.66623 -4.13916
245 1 17.9312 3.31363 -3.48271
246 1 18.2 4.12203 -2.31548
249 1 19.5631 4.36478 -1.89163
413 1 19.8492 4.81085 -0.541049
409 1 17.1523 4.48201 -1.44731
410 1 17.4261 4.7509 -0.0810194
161 1 22.3299 0.581282 -5.78974
165 1 26.0589 0.408536 -5.24761
260 1 26.2822 1.76573 -4.83294
263 1 27.602 2.249 -4.67
264 1 27.87 3.41 -3.903
162 1 23.6358 0.851595 -5.35171
256 1 23.8781 2.02358 -4.60735
258 1 25.184 2.44454 -4.28972
259 1 25.4716 3.51551 -3.40865
261 1 26.7927 3.97614 -3.24516
262 1 27.0973 4.7364 -2.09678
159 1 21.1938 1.22734 -5.2495
252 1 21.4421 2.38781 -4.45118
254 1 22.7992 2.75421 -4.09306
255 1 23.0805 3.72722 -3.0922
257 1 24.403 4.00078 -2.63123
420 1 24.6502 4.64188 -1.4129
422 1 26.017 4.86215 -1.07287
250 1 20.3454 3.03854 -3.81308
251 1 20.6185 3.96212 -2.77719
253 1 21.9479 4.28217 -2.38396
416 1 22.2051 4.77135 -1.07213
418 1 23.5539 4.91403 -0.647764
414 1 21.164 4.85576 -0.110753
164 1 24.7038 -0.0890185 -5.42412
529 1 -21.978 -1.51395 5.03467
438 1 -20.6171 -1.91944 4.94427
439 1 -20.3861 -3.13825 4.257
526 1 -24.6404 -0.529387 5.09255
431 1 -24.3772 -1.87856 4.76732
434 1 -23.0441 -2.2876 4.62352
435 1 -22.7944 -3.4625 3.86722
436 1 -21.4551 -3.77939 3.64356
437 1 -21.2002 -4.60304 2.49119
523 1 -27.1105 -0.988019 5.02579
427 1 -26.7769 -2.29399 4.64994
429 1 -25.4564 -2.70139 4.39522
430 1 -25.1519 -3.81796 3.524
432 1 -23.8424 -4.15233 3.24046
433 1 -23.5795 -4.84407 2.0547
273 1 -22.2724 -4.98329 1.62591
274 1 -21.985 -5.27413 0.301302
425 1 -27.87 -3.047 4.193
426 1 -27.602 -4.052 3.232
428 1 -26.293 -4.36127 2.84411
268 1 -26.0547 -4.9313 1.58422
270 1 -24.6741 -5.07187 1.16174
266 1 -27.101 -5.08111 0.651879
536 1 -17.1617 -0.536124 5.19816
532 1 -19.5659 -0.983049 5.0844
534 1 -18.2013 -1.41127 4.96778
443 1 -17.9723 -2.73521 4.49815
441 1 -19.0268 -3.45903 3.95269
442 1 -18.7704 -4.38245 2.93444
444 1 -17.4333 -4.67146 2.55835
280 1 -17.1358 -5.11809 1.25343
440 1 -19.8479 -4.80614 2.09987
277 1 -19.6071 -5.20632 0.767756
278 1 -18.2166 -5.26332 0.324779
540 1 -13.3933 -0.435938 5.20682
450 1 -13.1259 -1.80212 5.07615
537 1 -15.8238 -1.0379 5.20605
447 1 -15.6926 -2.37744 4.87357
449 1 -13.9268 -3.95268 3.78959
451 1 -12.5601 -4.07987 3.41079
452 1 -12.2939 -4.73279 2.16914
445 1 -16.6702 -3.17216 4.3058
446 1 -16.3886 -4.20763 3.36218
448 1 -15.0004 -4.35351 2.99504
284 1 -14.7029 -4.91483 1.69103
286 1 -13.3408 -4.98774 1.24013
282 1 -15.776 -5.14763 0.838983
550 1 -5.9033 -0.529747 5.4428
546 1 -8.32065 -0.973674 5.32707
548 1 -6.94676 -1.50483 5.26792
462 1 -6.67649 -2.80537 4.76797
543 1 -10.7436 -1.40827 5.11695
457 1 -9.40726 -1.85971 5.03472
458 1 -9.11398 -3.04955 4.36097
460 1 -7.74712 -3.4737 4.13189
461 1 -7.46878 -4.31824 3.07038
463 1 -6.13409 -4.52632 2.69273
296 1 -5.87754 -4.92617 1.36276
453 1 -11.8174 -2.28657 4.86711
454 1 -11.5052 -3.42365 4.10692
455 1 -10.1887 -3.75459 3.76645
456 1 -9.89789 -4.55362 2.61324
459 1 -8.55096 -4.73655 2.23703
293 1 -8.25729 -4.92477 0.826841
294 1 -6.93941 -4.96191 0.40101
289 1 -10.9825 -4.8447 1.71807
290 1 -10.6917 -5.07644 0.31996
551 1 -4.56113 -0.990384 5.37909
466 1 -4.29002 -2.34745 5.01008
464 1 -5.33922 -3.21633 4.56998
465 1 -5.05312 -4.11134 3.51785
298 1 -4.5425 -4.97404 0.889384
560 1 2.94151 -1.00819 5.11994
557 1 0.568449 -1.41944 5.15007
477 1 1.89808 -1.91987 5.0823
478 1 2.14058 -3.16742 4.47659
480 1 3.48278 -3.53622 4.12821
481 1 3.75202 -4.44399 3.03903
554 1 -2.16413 -0.493308 5.22789
470 1 -1.85018 -1.88915 5.06306
473 1 -0.517418 -2.30798 4.94036
474 1 -0.281667 -3.47704 4.15008
475 1 1.04908 -3.83287 3.86489
476 1 1.32934 -4.56202 2.64935
479 1 2.67573 -4.82277 2.1937
309 1 2.90435 -5.08488 0.814271
468 1 -2.94513 -2.74725 4.80483
469 1 -2.69851 -3.82329 3.9144
471 1 -1.36776 -4.12181 3.47908
472 1 -1.07393 -4.72772 2.25354
305 1 0.24598 -4.8467 1.76445
306 1 0.512839 -5.07386 0.37296
467 1 -3.73682 -4.42425 3.15539
300 1 -3.47202 -4.87541 1.78723
302 1 -2.13798 -4.92053 1.32692
564 1 5.35563 -0.552724 5.12296
562 1 4.26851 -1.45404 5.05415
482 1 4.58365 -2.78083 4.66386
483 1 5.08333 -4.71362 2.5901
312 1 5.3839 -5.13735 1.26431
310 1 4.27769 -5.16904 0.380266
571 1 11.7516 -1.37305 4.87761
568 1 9.04137 -0.444016 4.99824
490 1 9.34535 -1.80006 4.80401
493 1 10.7024 -2.20232 4.56555
494 1 10.9995 -3.39008 3.90869
565 1 6.71639 -0.94752 5.0084
486 1 6.99249 -2.3059 4.612
488 1 8.30762 -2.68646 4.38589
489 1 8.57358 -3.75163 3.54557
491 1 9.91203 -4.04866 3.24308
492 1 10.217 -4.80062 2.05585
321 1 11.5218 -4.88749 1.57538
322 1 11.7715 -5.14618 0.205134
484 1 5.93879 -3.20004 4.32512
485 1 6.18329 -4.18093 3.30622
487 1 7.53832 -4.34442 2.8388
316 1 7.80246 -4.96186 1.59267
318 1 9.12537 -5.02454 1.14222
314 1 6.70408 -5.16526 0.729444
578 1 16.554 -0.429232 5.42116
574 1 14.1188 -0.90978 5.1596
576 1 15.4776 -1.31988 5.13255
502 1 15.7792 -2.57053 4.55589
497 1 13.0666 -1.75922 4.83278
498 1 13.3857 -2.95684 4.20732
500 1 14.7333 -3.31965 3.94024
501 1 15.0095 -4.19067 2.8731
503 1 16.3287 -4.40216 2.51434
328 1 16.5763 -4.81507 1.21424
495 1 12.3377 -3.67997 3.56233
496 1 12.6332 -4.47341 2.40301
499 1 13.9821 -4.67703 2.045
325 1 14.2167 -5.00257 0.738081
326 1 15.5352 -4.95047 0.306954
579 1 17.8938 -0.901215 5.51993
506 1 18.1511 -2.25046 5.02163
508 1 19.4575 -2.70823 4.75147
509 1 19.7701 -3.53579 3.69913
504 1 17.1298 -2.9793 4.39245
505 1 17.3834 -3.88395 3.33494
507 1 18.6961 -4.08099 2.93859
332 1 18.9724 -4.64013 1.662
330 1 17.911 -4.8773 0.800037
592 1 27.87 -0.465 5.162
588 1 25.4419 -0.87859 5.20676
590 1 26.7617 -1.3382 5.05441
521 1 26.9787 -2.63205 4.55364
585 1 23.0997 -1.3871 5.20832
516 1 24.3894 -1.82351 5.06413
517 1 24.649 -3.0438 4.31932
519 1 25.9822 -3.38303 3.9184
520 1 26.2762 -4.2497 2.81932
522 1 27.602 -4.564 2.456
344 1 27.87 -5.053 1.153
582 1 20.3999 -0.357128 5.77911
512 1 22.1464 -2.35809 5.01399
513 1 22.2877 -3.38886 4.05162
514 1 23.5978 -3.63641 3.60006
515 1 23.8971 -4.30151 2.43714
518 1 25.2173 -4.50956 1.94965
341 1 25.4428 -4.96995 0.604606
342 1 26.8202 -5.16048 0.234182
510 1 21.1413 -3.81742 3.32607
511 1 21.4099 -4.44896 2.04911
337 1 22.7913 -4.58488 1.61952
338 1 23.0496 -4.92567 0.274252
334 1 20.3299 -4.71513 1.21723
355 1 -21.1638 5.11083 0.743266
351 1 -23.5499 5.10374 1.19817
353 1 -22.2278 4.95165 1.66413
604 1 -21.923 4.28114 2.90402
606 1 -20.562 4.01357 3.27456
607 1 -20.3491 2.99267 4.27454
347 1 -26.2688 5.14252 0.267868
348 1 -25.975 4.96508 1.64367
599 1 -24.621 4.81074 2.08039
600 1 -24.3439 4.04618 3.2361
602 1 -23.026 3.66686 3.5349
603 1 -22.771 2.59298 4.40815
605 1 -21.4362 2.17643 4.66232
530 1 -21.1611 0.811724 5.12448
595 1 -27.0329 4.53501 2.46316
596 1 -26.7695 3.67329 3.57612
597 1 -25.41 3.33002 3.79555
598 1 -25.1868 2.15056 4.52419
601 1 -23.8675 1.76216 4.78686
527 1 -23.5376 0.381312 5.09632
528 1 -22.2193 -0.120174 5.09934
593 1 -27.87 3.047 4.193
594 1 -27.602 1.821 4.853
524 1 -26.2734 1.31558 4.90454
525 1 -25.9874 -0.0524592 5.03951
359 1 -18.7445 5.04905 0.265441
360 1 -17.4008 4.97814 0.727257
612 1 -17.1069 4.6388 2.04429
357 1 -19.8092 4.97798 1.17792
608 1 -19.4993 4.57083 2.52007
610 1 -18.1627 4.30304 2.90651
611 1 -17.9465 3.41505 3.97432
609 1 -19.0029 2.60531 4.48292
533 1 -18.7545 1.35452 5.05854
535 1 -17.4259 0.874129 5.15583
531 1 -19.7968 0.407707 5.19688
367 1 -12.3107 4.90816 1.14348
363 1 -15.0154 5.01463 0.244575
364 1 -14.6951 4.80938 1.6237
619 1 -13.3542 4.65428 2.04656
620 1 -13.0777 3.98518 3.29748
615 1 -15.7517 4.43006 2.4678
616 1 -15.5169 3.63693 3.62234
617 1 -14.1613 3.32925 3.97417
618 1 -13.9216 2.17641 4.7638
621 1 -12.5895 1.76982 4.90444
541 1 -12.2931 0.448377 5.16422
613 1 -16.6045 3.01854 4.27333
614 1 -16.3244 1.75644 4.92592
538 1 -15.0085 1.28104 4.99298
539 1 -14.7653 -0.0741892 5.21682
375 1 -7.46107 4.84148 0.0634972
376 1 -6.16077 4.86318 0.474799
632 1 -5.93728 4.43733 1.78455
371 1 -9.89666 4.83156 0.585084
373 1 -8.53212 4.63579 0.951346
628 1 -8.2756 4.26557 2.27496
630 1 -6.97498 4.0197 2.60728
631 1 -6.67833 3.1867 3.69427
369 1 -10.9483 4.71317 1.56042
624 1 -10.6625 4.2044 2.86971
626 1 -9.28171 3.91623 3.18165
627 1 -9.05522 2.95022 4.13206
629 1 -7.719 2.51735 4.35593
547 1 -7.4571 1.3213 5.07995
549 1 -6.10777 0.857884 5.20851
622 1 -11.7341 3.63612 3.62832
623 1 -11.5098 2.57307 4.49593
625 1 -10.1442 2.20371 4.64726
544 1 -9.88955 0.911499 5.14478
545 1 -8.53836 0.448373 5.31016
542 1 -10.9535 -0.0142841 5.20184
635 1 -4.60357 4.24342 2.23398
636 1 -4.32675 3.4971 3.38454
633 1 -5.34922 2.81762 4.01989
634 1 -5.04356 1.69947 4.81945
391 1 3.75583 5.11538 0.13931
387 1 1.33624 5.12567 0.581919
389 1 2.67408 5.03068 1.05508
648 1 2.89527 4.52829 2.3473
383 1 -1.12664 4.99011 1.00216
385 1 0.234604 4.89477 1.48033
644 1 0.476186 4.16411 2.67135
646 1 1.80047 3.97498 3.03609
647 1 2.10719 2.93577 3.94081
649 1 3.42049 2.53047 4.18651
561 1 3.74029 1.27062 4.80457
379 1 -3.80471 5.04137 0.080595
380 1 -3.53202 4.71232 1.44593
639 1 -2.2261 4.60903 1.86871
640 1 -1.90107 3.81027 2.94062
642 1 -0.560768 3.61687 3.36649
643 1 -0.238987 2.51825 4.18404
645 1 1.06645 2.10986 4.39499
558 1 1.36407 0.858267 4.95048
559 1 2.68887 0.373614 5.0563
637 1 -2.96101 3.17293 3.64463
638 1 -2.65173 2.0945 4.47991
641 1 -1.30657 1.72687 4.6374
555 1 -1.07785 0.371484 5.0431
556 1 0.279485 -0.0509673 5.12971
552 1 -3.70482 1.29724 4.94927
553 1 -3.48945 -0.0672778 5.31302
392 1 5.11045 5.10894 0.568801
652 1 5.31644 4.76312 1.91533
650 1 4.20504 4.29566 2.70513
651 1 4.45656 3.32806 3.69793
563 1 5.04275 0.801058 4.94775
399 1 10.1903 4.90186 1.10482
401 1 11.5324 4.80666 1.58846
664 1 11.7808 4.36208 2.94572
395 1 7.56072 5.14485 0.208715
396 1 7.77775 4.93795 1.60828
659 1 9.08619 4.70638 2.01769
660 1 9.32247 4.10869 3.26701
662 1 10.6756 3.8238 3.66417
663 1 10.9268 2.65479 4.43317
655 1 6.67247 4.58006 2.41083
656 1 6.90953 3.72669 3.57431
657 1 8.26505 3.4132 3.94279
658 1 8.52264 2.27515 4.65334
661 1 9.86804 1.83967 4.79612
569 1 10.1157 0.466183 5.04764
570 1 11.4413 -0.0362643 5.07478
653 1 5.81969 2.98738 4.04506
654 1 6.08572 1.71701 4.6959
566 1 7.45286 1.35977 4.86363
567 1 7.72438 0.00734613 4.96428
407 1 14.9906 4.83718 0.305244
408 1 16.341 4.81735 0.812256
672 1 16.6284 4.59383 2.17511
403 1 12.6296 4.88838 0.686303
405 1 13.9295 4.83267 1.22065
668 1 14.1993 4.44888 2.56367
670 1 15.5296 4.19422 2.93425
671 1 15.761 3.39539 4.04888
666 1 13.1377 4.0635 3.37463
667 1 13.3282 3.06417 4.39163
669 1 14.6901 2.64331 4.61723
575 1 14.9303 1.35992 5.1522
577 1 16.2519 0.961722 5.35297
665 1 12.2199 2.24135 4.76525
572 1 12.5211 0.884186 5.07121
573 1 13.8435 0.466267 5.20178
411 1 18.7516 4.7543 0.355907
412 1 19.0286 4.64428 1.74113
675 1 17.9652 4.3776 2.59153
676 1 18.2384 3.69502 3.8175
677 1 19.5727 3.32459 4.15065
678 1 19.8801 2.25087 5.01762
673 1 17.1065 2.99037 4.39216
674 1 17.347 1.80754 5.1229
580 1 18.7558 1.41977 5.31922
581 1 19.0335 0.0475057 5.58426
423 1 26.2418 5.07019 0.278811
424 1 27.602 5.136 0.696
692 1 27.87 4.766 2.037
419 1 23.8026 4.93783 0.732752
421 1 25.1476 4.97565 1.21551
688 1 25.4323 4.46288 2.51118
690 1 26.798 4.36751 2.91648
691 1 26.994 3.5632 4.08401
415 1 21.4184 4.80981 1.28407
417 1 22.7642 4.77684 1.71158
684 1 23.0628 4.17217 2.9774
686 1 24.3969 4.00677 3.41257
687 1 24.638 3.06336 4.46018
689 1 25.9949 2.70102 4.59132
589 1 26.262 1.42227 5.07119
591 1 27.602 0.925 5.1
679 1 20.3711 4.56258 2.184
680 1 20.6535 3.89387 3.43155
682 1 22.0159 3.62319 3.73928
683 1 22.2767 2.60912 4.71989
685 1 23.5908 2.23683 4.95172
586 1 23.844 0.920575 5.35175
587 1 25.1603 0.513033 5.3195
681 1 21.2208 1.82787 5.16258
583 1 21.4758 0.500925 5.50341
584 1 22.814 -0.0387218 5.46431
ITEM: TIMESTEP
400
ITEM: NUMBER OF ATOMS
692
ITEM: BOX BOUNDS ff ff ff
-6.0000000000000000e+01 6.0000000000000000e+01
-4.0000000000000000e+01 4.0000000000000000e+01
-4.0000000000000000e+01 4.0000000000000000e+01
ITEM: ATOMS id type x y z
275 1 -20.5895 -5.02831 -0.117115
276 1 -20.27 -4.84245 -1.45384
271 1 -24.3195 -5.16432 -0.220925
272 1 -23.0102 -5.07002 -0.633341
8 1 -22.6792 -4.78359 -1.97561
11 1 -21.3489 -4.52208 -2.26899
12 1 -21.0635 -3.71311 -3.38765
267 1 -26.8246 -5.07514 -0.62851
269 1 -25.4476 -5.14993 -1.06371
6 1 -23.6568 -4.40134 -2.92007
7 1 -23.4526 -3.39363 -3.8411
9 1 -22.1202 -3.03503 -3.99329
10 1 -21.9262 -1.76986 -4.63203
108 1 -20.5999 -1.30636 -4.7296
265 1 -27.87 -4.93 -1.602
1 1 -27.602 -4.326 -2.855
3 1 -26.3384 -4.14874 -3.49813
4 1 -25.9315 -2.99843 -4.17272
5 1 -24.5851 -2.64325 -4.3082
103 1 -24.3361 -1.3315 -4.73158
105 1 -23.0096 -0.912595 -4.85044
2 1 -26.9645 -2.1765 -4.61753
100 1 -26.7692 -0.907558 -4.95846
101 1 -25.4191 -0.452461 -4.91366
279 1 -17.9117 -4.79732 -0.937281
15 1 -18.9725 -4.5885 -1.87665
16 1 -18.6654 -3.86049 -3.04494
18 1 -17.3219 -3.51241 -3.33988
19 1 -17.0609 -2.46265 -4.22568
13 1 -19.7446 -3.32225 -3.78051
14 1 -19.5116 -2.14152 -4.54875
17 1 -18.1889 -1.7101 -4.70678
111 1 -17.8943 -0.349461 -4.99184
287 1 -13.0688 -4.81311 0.0607614
283 1 -15.4644 -4.76424 -0.454017
285 1 -14.1107 -4.62856 -0.87365
24 1 -13.8811 -4.18025 -2.16862
26 1 -12.5636 -4.00973 -2.56418
27 1 -12.3272 -3.22911 -3.68985
281 1 -16.5256 -4.64904 -1.33725
20 1 -16.2608 -4.03493 -2.56132
22 1 -14.9126 -3.75933 -2.94138
23 1 -14.6852 -2.83461 -3.94018
25 1 -13.4043 -2.52171 -4.28918
117 1 -13.0988 -1.36764 -5.02284
21 1 -15.7169 -2.14695 -4.5494
114 1 -15.4683 -0.861866 -5.03593
115 1 -14.1494 -0.441456 -5.12599
295 1 -6.69078 -4.7251 -0.907269
291 1 -9.3578 -4.87395 0.0375595
292 1 -9.11071 -4.54124 -1.28013
35 1 -7.79839 -4.37453 -1.72498
36 1 -7.51346 -3.58553 -2.91953
38 1 -6.19963 -3.28046 -3.234
39 1 -5.92445 -2.22925 -4.16491
288 1 -11.766 -4.74373 -0.382141
28 1 -11.5257 -4.36486 -1.73783
31 1 -10.2096 -4.14533 -2.08977
32 1 -9.97087 -3.33862 -3.25188
33 1 -8.60498 -3.01407 -3.62202
34 1 -8.33699 -1.94078 -4.5339
37 1 -7.0053 -1.49992 -4.66251
125 1 -6.75077 -0.211485 -5.11103
29 1 -11.0497 -2.78793 -3.99569
30 1 -10.7465 -1.66854 -4.799
122 1 -9.44447 -1.16966 -5.00872
119 1 -11.8193 -0.858464 -5.06804
299 1 -4.29853 -4.84949 -0.486814
297 1 -5.34899 -4.54282 -1.33444
40 1 -5.08346 -3.84052 -2.51899
41 1 -4.58284 -1.81257 -4.37861
128 1 -4.2948 -0.536318 -4.94379
307 1 1.91831 -5.08711 -0.0415505
308 1 2.20603 -4.69328 -1.38259
55 1 3.52934 -4.47519 -1.85117
56 1 3.75868 -3.66366 -2.98408
303 1 -1.89942 -5.0737 0.0107559
304 1 -0.548877 -4.98314 -0.462587
48 1 -0.25004 -4.3999 -1.74258
51 1 1.11721 -4.21326 -2.12913
52 1 1.35471 -3.3612 -3.25546
53 1 2.71263 -3.04478 -3.64824
54 1 2.93405 -1.98706 -4.53308
301 1 -2.97577 -4.72193 -0.892943
44 1 -2.7375 -4.13823 -2.15778
46 1 -1.3265 -3.92347 -2.54031
47 1 -1.08816 -2.99759 -3.55827
49 1 0.259484 -2.67632 -3.918
50 1 0.48875 -1.52681 -4.73472
136 1 1.86051 -1.12265 -4.94958
42 1 -3.76822 -3.5628 -2.89964
43 1 -3.474 -2.59328 -3.88572
45 1 -2.12799 -2.26106 -4.18092
131 1 -1.88865 -1.04665 -4.83049
133 1 -0.537274 -0.639706 -5.04928
129 1 -2.93764 -0.156523 -5.13206
311 1 4.55839 -4.8047 -1.00391
58 1 5.07072 -3.53582 -3.43664
59 1 5.32149 -2.47702 -4.32856
57 1 4.29975 -1.60808 -4.70629
139 1 4.5538 -0.308145 -5.2064
319 1 9.36711 -4.81585 -0.261725
320 1 10.6669 -4.84229 -0.713674
68 1 10.894 -4.71835 -2.07014
315 1 6.932 -4.9706 -0.662723
317 1 8.24302 -4.75238 -1.12231
64 1 8.51011 -4.37 -2.42357
66 1 9.82604 -4.22775 -2.85541
67 1 10.0882 -3.37689 -3.93124
69 1 11.3416 -3.17238 -4.46683
70 1 11.756 -1.99579 -5.06095
313 1 5.86486 -4.70699 -1.49048
60 1 6.11522 -4.11434 -2.72332
62 1 7.40623 -3.93807 -3.13035
63 1 7.6582 -2.9979 -4.10637
65 1 9.01946 -2.63853 -4.36938
145 1 9.31115 -1.48078 -5.00363
147 1 10.7131 -1.0821 -5.2145
61 1 6.63294 -2.15845 -4.56676
142 1 6.91375 -0.873164 -5.07299
143 1 8.27979 -0.539354 -5.22974
157 1 19.4817 -0.552598 -5.64296
156 1 18.1901 -1.11427 -5.48153
80 1 17.9645 -2.45483 -5.0648
327 1 15.7904 -4.88891 -1.1927
323 1 13.131 -4.82253 -0.347686
324 1 13.3893 -4.8043 -1.70097
74 1 14.7462 -4.71483 -2.11912
75 1 15.0461 -4.17586 -3.40073
77 1 16.3549 -3.78911 -3.72595
78 1 16.6147 -2.78304 -4.67106
71 1 12.2537 -4.83845 -2.51981
72 1 14.0185 -3.63566 -4.25317
73 1 14.2296 -2.35464 -4.87374
76 1 15.571 -1.93583 -5.02662
153 1 15.8057 -0.600935 -5.38349
150 1 13.1236 -1.56411 -5.19637
331 1 18.2344 -4.93082 -0.792644
333 1 19.5872 -4.80655 -1.2445
83 1 19.8419 -4.39839 -2.55815
329 1 17.1379 -4.77489 -1.65645
79 1 17.4002 -4.27814 -2.93186
81 1 18.7196 -4.04252 -3.31157
82 1 19.0133 -3.3043 -4.48144
160 1 22.1565 -0.807786 -6.18178
343 1 27.0973 -4.96297 -1.18278
339 1 24.3136 -4.90134 -0.242406
340 1 24.6444 -4.66988 -1.60801
93 1 26.0048 -4.67059 -2.06356
94 1 26.2444 -3.96447 -3.24407
96 1 27.602 -3.746 -3.582
97 1 27.87 -2.658 -4.45
335 1 20.6086 -4.89803 -0.286569
336 1 21.9513 -4.87306 -0.719193
87 1 22.2295 -4.46829 -2.05385
89 1 23.5753 -4.36974 -2.47524
90 1 23.8683 -3.75199 -3.71326
91 1 25.2065 -3.37536 -3.97001
92 1 25.5611 -2.29915 -4.78827
95 1 26.8695 -1.88144 -4.9617
166 1 27.1617 -0.512868 -5.23825
85 1 21.1927 -4.15178 -2.94615
86 1 21.4553 -3.64115 -4.21683
88 1 22.7835 -3.48622 -4.56535
84 1 20.3458 -3.25586 -4.96454
163 1 24.6343 -1.47742 -5.35822
107 1 -21.4591 0.939149 -4.85153
178 1 -21.1322 2.26877 -4.49187
104 1 -23.8675 1.37654 -4.71479
174 1 -23.5975 2.70814 -4.26096
176 1 -22.213 3.07948 -4.04657
177 1 -22.0032 4.14857 -3.16083
179 1 -20.6365 4.41455 -2.79777
356 1 -20.4371 4.95947 -1.58512
98 1 -27.87 0 -5.183
99 1 -27.602 1.379 -4.996
169 1 -26.2454 1.83271 -4.73939
170 1 -26.0059 3.10534 -4.11396
172 1 -24.6992 3.48992 -3.82819
173 1 -24.394 4.39212 -2.80807
175 1 -23.0821 4.69258 -2.40159
352 1 -22.8282 5.09149 -1.0757
354 1 -21.4728 5.17608 -0.640578
167 1 -27.1114 3.76164 -3.57003
168 1 -26.8092 4.56312 -2.45729
171 1 -25.5069 4.76412 -1.99671
349 1 -25.1938 5.11843 -0.648095
350 1 -23.8725 5.06294 -0.178891
345 1 -27.87 4.93 -1.602
346 1 -27.602 5.178 -0.233
109 1 -20.3711 0.0476386 -4.9436
106 1 -22.7939 0.486362 -4.90407
102 1 -25.1951 0.918741 -4.86761
110 1 -19.0118 0.518271 -5.03433
182 1 -18.7542 1.89124 -4.8094
185 1 -17.4332 2.32513 -4.67069
186 1 -17.173 3.49586 -3.96779
180 1 -19.7795 2.74176 -4.37794
181 1 -19.5314 3.85389 -3.54534
183 1 -18.2129 4.17943 -3.22584
184 1 -17.9855 4.89351 -2.06729
358 1 -19.1082 5.10611 -1.20496
118 1 -12.6209 1.41448 -5.04438
194 1 -12.3848 2.70085 -4.44537
112 1 -16.5432 0.0581985 -5.07233
113 1 -16.3881 1.4363 -4.89532
189 1 -15.0496 1.83546 -4.7799
190 1 -14.8067 3.08919 -4.12793
192 1 -13.4505 3.50675 -3.89203
193 1 -13.1541 4.43659 -2.88383
187 1 -15.8593 3.85364 -3.60118
188 1 -15.5673 4.65072 -2.49576
191 1 -14.249 4.81259 -2.06472
365 1 -13.9652 5.19084 -0.786224
366 1 -12.5818 5.17518 -0.332861
361 1 -16.6243 5.05103 -1.65391
362 1 -16.4001 5.20796 -0.283484
116 1 -13.9353 0.946655 -5.05687
124 1 -7.84785 0.704105 -5.16414
202 1 -7.54532 2.06541 -5.0576
205 1 -6.16082 2.48698 -4.90865
206 1 -5.96202 3.69462 -4.17986
121 1 -10.2344 1.025 -5.13513
198 1 -9.9646 2.31389 -4.69032
200 1 -8.65613 2.8316 -4.60994
201 1 -8.3974 3.95975 -3.72274
203 1 -7.04583 4.23533 -3.41067
204 1 -6.71752 4.78975 -2.14715
196 1 -11.0671 3.09746 -4.17836
197 1 -10.7238 4.14368 -3.29116
199 1 -9.40037 4.41608 -2.90429
372 1 -9.09029 4.88382 -1.65399
374 1 -7.772 4.95427 -1.24236
195 1 -11.7705 4.66066 -2.52377
368 1 -11.4808 5.12399 -1.23006
370 1 -10.1288 5.13443 -0.735734
123 1 -9.13219 0.194812 -5.1974
120 1 -11.5408 0.511096 -5.21818
126 1 -5.39887 0.277007 -5.23484
127 1 -5.12806 1.64217 -5.32698
207 1 -4.69101 4.14229 -3.83651
208 1 -4.33304 4.63465 -2.62205
377 1 -5.38152 4.94415 -1.70428
378 1 -5.10276 5.11991 -0.368973
138 1 3.54279 0.598192 -5.35751
220 1 3.91816 1.96599 -5.32137
135 1 1.10567 1.1834 -5.26698
217 1 1.30527 2.54987 -5.05184
219 1 3.08385 4.138 -3.85458
132 1 -1.32032 1.67067 -5.17531
213 1 -0.997329 2.97448 -4.84396
215 1 0.301969 3.41303 -4.59132
216 1 0.635125 4.32875 -3.53583
218 1 1.97961 4.51205 -3.07063
388 1 2.27185 4.82026 -1.73184
390 1 3.5707 4.88025 -1.25799
209 1 -3.79188 2.04436 -5.34373
211 1 -1.99744 3.68329 -4.29712
212 1 -1.80831 4.45651 -3.16726
214 1 -0.459501 4.63337 -2.74998
384 1 -0.184927 4.91198 -1.43471
386 1 1.14328 4.96753 -0.898045
210 1 -2.97326 4.74776 -2.29622
381 1 -2.68747 4.93584 -0.948534
382 1 -1.30256 4.89772 -0.538471
137 1 2.17263 0.188622 -5.29832
134 1 -0.256786 0.738773 -5.26968
130 1 -2.67588 1.19487 -5.28322
223 1 5.20651 2.39617 -5.02555
224 1 5.46172 3.47089 -4.13884
221 1 4.40731 4.12837 -3.42805
222 1 4.6177 4.60502 -2.12426
146 1 9.95022 1.20874 -5.09284
232 1 10.2169 2.40187 -4.41837
234 1 11.5582 2.77741 -4.10397
235 1 11.8753 3.75951 -3.11877
140 1 5.89482 0.0953726 -5.2672
141 1 6.23708 1.46308 -5.2524
227 1 7.58118 1.78768 -5.0749
228 1 7.84983 2.91912 -4.25937
230 1 9.15991 3.15026 -3.85415
231 1 9.42763 4.09197 -2.86739
233 1 10.7846 4.24922 -2.40015
400 1 11.0314 4.6991 -1.07844
225 1 6.77718 3.6256 -3.65682
226 1 6.97126 4.35994 -2.5264
229 1 8.31475 4.54721 -2.07518
397 1 8.61626 4.86717 -0.757646
398 1 9.9415 4.84108 -0.203744
393 1 5.93667 4.7391 -1.70388
394 1 6.18363 5.08104 -0.381625
148 1 11.0005 0.284318 -5.32009
144 1 8.58492 0.83622 -5.31857
158 1 19.8509 0.727649 -5.24974
152 1 14.7312 0.301834 -5.31807
240 1 15.0172 1.63442 -4.93653
243 1 16.3295 2.08304 -4.72129
244 1 16.6264 3.08704 -3.79729
149 1 12.3303 0.762018 -5.21416
236 1 12.5994 2.05139 -4.69069
238 1 13.9522 2.41869 -4.43655
239 1 14.2503 3.42236 -3.48526
241 1 15.5777 3.69465 -3.11811
242 1 15.8504 4.32265 -1.88301
237 1 13.2152 3.95634 -2.73122
404 1 13.4736 4.59934 -1.48878
406 1 14.8065 4.73401 -1.02053
402 1 12.3945 4.7368 -0.5794
151 1 13.3842 -0.182006 -5.36223
154 1 17.1347 -0.148389 -5.43213
155 1 17.3975 1.2012 -5.1171
247 1 18.7751 1.56396 -4.85618
248 1 19.0573 2.65124 -4.05443
245 1 17.971 3.31317 -3.41856
246 1 18.2889 4.03832 -2.26482
249 1 19.5925 4.2297 -1.85241
413 1 19.837 4.78702 -0.572418
409 1 17.2032 4.45308 -1.48993
410 1 17.4272 4.70237 -0.120508
161 1 22.3865 0.356638 -5.44871
165 1 26.1098 0.404824 -5.21452
260 1 26.3225 1.75875 -4.90531
263 1 27.602 2.249 -4.67
264 1 27.87 3.41 -3.903
162 1 23.6818 0.726955 -5.22416
256 1 23.8765 2.00046 -4.66095
258 1 25.194 2.52501 -4.49176
259 1 25.4664 3.51666 -3.5287
261 1 26.7957 3.9543 -3.2038
262 1 27.067 4.63687 -2.03464
159 1 21.2106 1.06937 -5.07652
252 1 21.4216 2.20425 -4.28145
254 1 22.7803 2.66682 -4.0479
255 1 23.02 3.67326 -3.08729
257 1 24.3636 3.95997 -2.73675
420 1 24.6462 4.62302 -1.51892
422 1 25.9879 4.84973 -1.12115
250 1 20.3949 2.88516 -3.70587
251 1 20.6194 3.82743 -2.68864
253 1 21.9204 4.09521 -2.3545
416 1 22.1912 4.67552 -1.07275
418 1 23.5615 4.83967 -0.704031
414 1 21.1736 4.91467 -0.125803
164 1 24.83 -0.0831517 -5.44156
529 1 -21.9903 -1.39903 5.03688
438 1 -20.6571 -1.83041 4.91587
439 1 -20.4097 -3.01269 4.19651
526 1 -24.6293 -0.405197 5.23712
431 1 -24.4021 -1.73847 4.78019
434 1 -23.0976 -2.20473 4.64261
435 1 -22.8409 -3.31401 3.82485
436 1 -21.4813 -3.62763 3.54719
437 1 -21.159 -4.45557 2.48024
523 1 -27.008 -0.946655 5.12143
427 1 -26.778 -2.21503 4.58836
429 1 -25.4212 -2.59228 4.3505
430 1 -25.1928 -3.67285 3.46167
432 1 -23.8839 -3.95857 3.17147
433 1 -23.5692 -4.67987 2.05433
273 1 -22.225 -4.77521 1.65452
274 1 -21.935 -5.04234 0.320618
425 1 -27.87 -3.047 4.193
426 1 -27.602 -4.052 3.232
428 1 -26.2739 -4.2259 2.79971
268 1 -25.9724 -4.88399 1.61334
270 1 -24.6392 -4.94434 1.1653
266 1 -27.0943 -5.04089 0.78389
536 1 -17.1784 -0.577053 5.18372
532 1 -19.6187 -0.943358 5.17043
534 1 -18.2829 -1.41675 5.0952
443 1 -18.0104 -2.76839 4.69823
441 1 -19.0622 -3.39938 4.02577
442 1 -18.7955 -4.30651 3.01429
444 1 -17.4303 -4.56797 2.64702
280 1 -17.138 -4.92348 1.32655
440 1 -19.8353 -4.68945 2.14971
277 1 -19.5451 -5.03953 0.787851
278 1 -18.1902 -4.99316 0.42216
540 1 -13.3565 -0.700438 5.42728
450 1 -12.9873 -2.04565 5.47396
537 1 -15.8489 -1.07787 5.23177
447 1 -15.6645 -2.45868 5.14226
449 1 -13.904 -4.28233 4.02249
451 1 -12.461 -4.30298 3.7521
452 1 -12.2039 -4.69685 2.39437
445 1 -16.6713 -3.26912 4.57398
446 1 -16.3722 -4.13771 3.49219
448 1 -15.0054 -4.46334 3.18457
284 1 -14.7087 -4.8392 1.86597
286 1 -13.3005 -4.86128 1.46004
282 1 -15.7726 -4.90974 0.896404
550 1 -5.87585 -0.500685 5.2718
546 1 -8.27305 -0.982761 5.23253
548 1 -6.93243 -1.41223 5.12791
462 1 -6.64475 -2.69724 4.6572
543 1 -10.6241 -1.55675 5.30374
457 1 -9.29322 -1.95069 5.19496
458 1 -9.02528 -3.15038 4.52093
460 1 -7.69996 -3.4541 4.15589
461 1 -7.41972 -4.27591 3.059
463 1 -6.13159 -4.62462 2.71397
296 1 -5.88133 -4.94138 1.35478
453 1 -11.6763 -2.46823 5.22063
454 1 -11.3869 -3.59144 4.43038
455 1 -10.0773 -3.82513 4.01857
456 1 -9.83396 -4.54218 2.86538
459 1 -8.54733 -4.65291 2.33241
293 1 -8.30665 -4.89736 0.970129
294 1 -7.00574 -4.89665 0.485671
289 1 -10.8713 -4.82523 1.97827
290 1 -10.6715 -4.96948 0.538365
551 1 -4.53449 -0.932272 5.19694
466 1 -4.25593 -2.2727 4.82564
464 1 -5.31188 -3.11834 4.44977
465 1 -5.0506 -4.19105 3.55143
298 1 -4.54744 -5.04799 0.879649
560 1 2.95693 -0.903849 5.1188
557 1 0.547063 -1.4422 5.03334
477 1 1.90099 -1.825 4.92591
478 1 2.18648 -3.09532 4.32543
480 1 3.50109 -3.46118 3.98955
481 1 3.7423 -4.35965 2.94828
554 1 -2.1324 -0.516694 5.11777
470 1 -1.88202 -1.87454 4.90668
473 1 -0.552908 -2.32595 4.74436
474 1 -0.258069 -3.49984 3.99054
475 1 1.0732 -3.83702 3.74479
476 1 1.31383 -4.67355 2.61068
479 1 2.67961 -4.87875 2.16113
309 1 2.98913 -5.16729 0.827096
468 1 -2.92316 -2.75396 4.61662
469 1 -2.64776 -3.89943 3.8371
471 1 -1.31292 -4.2402 3.48915
472 1 -1.07923 -4.85551 2.25769
305 1 0.251892 -5.03454 1.83462
306 1 0.542741 -5.17889 0.42302
467 1 -3.76096 -4.46247 3.1644
300 1 -3.52994 -4.98874 1.82672
302 1 -2.18458 -5.09831 1.39647
564 1 5.30815 -0.42035 5.1817
562 1 4.25582 -1.36326 5.00651
482 1 4.53509 -2.63118 4.42943
483 1 5.08961 -4.57498 2.4918
312 1 5.41479 -5.00965 1.18448
310 1 4.32744 -5.08276 0.335636
571 1 11.7364 -1.38037 5.2686
568 1 9.03977 -0.49017 5.39854
490 1 9.33157 -1.83295 5.04247
493 1 10.6806 -2.23262 4.88086
494 1 11.0095 -3.30144 3.92306
565 1 6.63893 -0.886423 5.20793
486 1 6.92112 -2.16044 4.70608
488 1 8.26807 -2.62766 4.50605
489 1 8.5788 -3.63027 3.54723
491 1 9.95471 -3.86216 3.17181
492 1 10.2391 -4.44347 1.95023
321 1 11.5792 -4.55597 1.54633
322 1 11.8291 -4.80897 0.185108
484 1 5.87588 -2.93717 4.1395
485 1 6.18355 -4.00391 3.2339
487 1 7.52072 -4.21741 2.81375
316 1 7.82403 -4.78891 1.53875
318 1 9.16404 -4.701 1.09346
314 1 6.73113 -5.02276 0.679825
578 1 16.6405 -0.432067 5.41698
574 1 14.1385 -0.889496 5.34025
576 1 15.5343 -1.30702 5.22206
502 1 15.8369 -2.42528 4.47035
497 1 13.0716 -1.77483 5.06142
498 1 13.4202 -2.85239 4.23008
500 1 14.7521 -3.10168 3.90366
501 1 14.9709 -3.82287 2.69241
503 1 16.3068 -4.09297 2.28462
328 1 16.5797 -4.65911 1.04149
495 1 12.3576 -3.47515 3.52845
496 1 12.6233 -4.2089 2.37421
499 1 13.9254 -4.25531 1.9118
325 1 14.1749 -4.60834 0.580864
326 1 15.5187 -4.80076 0.177006
579 1 17.952 -0.922983 5.40532
506 1 18.1599 -2.22853 4.77445
508 1 19.4162 -2.82493 4.52296
509 1 19.7249 -3.67019 3.48885
504 1 17.0926 -2.81131 4.13651
505 1 17.3489 -3.71644 3.07053
507 1 18.648 -4.04822 2.66658
332 1 18.9639 -4.56193 1.42038
330 1 17.9295 -4.91785 0.575847
592 1 27.87 -0.465 5.162
588 1 25.4635 -0.850531 5.08102
590 1 26.7793 -1.32149 4.94276
521 1 27.0316 -2.64761 4.46918
585 1 23.0681 -1.33341 5.07059
516 1 24.4208 -1.76323 4.82937
517 1 24.6689 -3.02938 4.14232
519 1 25.9978 -3.43617 3.87051
520 1 26.2646 -4.29928 2.83416
522 1 27.602 -4.564 2.456
344 1 27.87 -5.053 1.153
582 1 20.3173 -0.318736 5.70245
512 1 22.0607 -2.2653 4.73109
513 1 22.2087 -3.39959 3.87475
514 1 23.5625 -3.70736 3.55326
515 1 23.8152 -4.52141 2.45354
518 1 25.1575 -4.69787 2.05442
341 1 25.4229 -4.93921 0.697093
342 1 26.7773 -5.02397 0.228582
510 1 21.0617 -3.84165 3.13578
511 1 21.3869 -4.49336 1.94655
337 1 22.7162 -4.66073 1.5673
338 1 22.9959 -4.92475 0.238205
334 1 20.3346 -4.69808 1.06209
355 1 -21.1967 5.1147 0.720967
351 1 -23.6022 4.92945 1.18656
353 1 -22.2816 4.77357 1.57248
604 1 -21.988 4.17999 2.80173
606 1 -20.613 3.92072 3.11687
607 1 -20.3595 2.92209 4.10493
347 1 -26.2975 5.11953 0.261254
348 1 -26.0166 4.81746 1.65839
599 1 -24.6567 4.66885 2.06529
600 1 -24.3774 3.92466 3.18917
602 1 -23.06 3.62507 3.50988
603 1 -22.7455 2.5842 4.38438
605 1 -21.4174 2.17479 4.65199
530 1 -21.1447 0.922908 5.19075
595 1 -27.0601 4.46455 2.50989
596 1 -26.7644 3.62538 3.54932
597 1 -25.4354 3.24977 3.84559
598 1 -25.1397 2.16328 4.70198
601 1 -23.7709 1.81138 4.83728
527 1 -23.5564 0.474312 5.24248
528 1 -22.2144 0.00583972 5.31801
593 1 -27.87 3.047 4.193
594 1 -27.602 1.821 4.853
524 1 -26.2682 1.3685 5.04766
525 1 -25.9922 0.0103356 5.32354
359 1 -18.7699 5.19394 0.15724
360 1 -17.4549 5.10373 0.627877
612 1 -17.1206 4.55675 1.87984
357 1 -19.8143 4.97652 1.07469
608 1 -19.519 4.38325 2.3079
610 1 -18.203 4.10554 2.68124
611 1 -17.9054 3.15732 3.68595
609 1 -18.9887 2.49068 4.2471
533 1 -18.7478 1.26605 4.92473
535 1 -17.4069 0.791447 4.97238
531 1 -19.8436 0.431848 5.18668
367 1 -12.2877 4.89645 1.02227
363 1 -15.0516 5.18454 0.15472
364 1 -14.7133 4.64657 1.42096
619 1 -13.3549 4.48465 1.82328
620 1 -13.0504 3.67336 2.93504
615 1 -15.7833 4.2288 2.21808
616 1 -15.482 3.38352 3.29225
617 1 -14.1191 3.03396 3.57777
618 1 -13.86 1.90399 4.41546
621 1 -12.4967 1.49936 4.70811
541 1 -12.2881 0.209919 5.24979
613 1 -16.5472 2.77069 3.97707
614 1 -16.3012 1.54362 4.66971
538 1 -14.9438 1.08124 4.85506
539 1 -14.7263 -0.244409 5.24106
375 1 -7.47476 5.10513 0.145031
376 1 -6.12382 5.00962 0.587206
632 1 -5.85768 4.58991 1.88911
371 1 -9.82928 5.05412 0.648759
373 1 -8.49439 4.97621 1.10656
628 1 -8.30253 4.31061 2.37744
630 1 -6.91784 4.10496 2.67971
631 1 -6.67448 3.18339 3.69974
369 1 -10.9201 4.73283 1.46776
624 1 -10.7236 4.014 2.7019
626 1 -9.40779 3.75515 3.08457
627 1 -9.12931 2.76582 3.97641
629 1 -7.75544 2.43451 4.18484
547 1 -7.47701 1.26315 4.86382
549 1 -6.11212 0.859663 5.02662
622 1 -11.7942 3.38973 3.3691
623 1 -11.5201 2.32429 4.23065
625 1 -10.2003 1.98107 4.50138
544 1 -9.89617 0.696415 5.05969
545 1 -8.56219 0.347283 5.17875
542 1 -10.9324 -0.225214 5.29782
635 1 -4.49858 4.32801 2.22139
636 1 -4.23834 3.49613 3.3402
633 1 -5.30587 2.83507 3.95331
634 1 -5.06856 1.6807 4.66993
391 1 3.82484 5.00483 0.0676372
387 1 1.39174 4.8991 0.493095
389 1 2.74146 4.87682 0.928124
648 1 2.99726 4.28634 2.16577
383 1 -1.01688 4.64694 0.826743
385 1 0.300836 4.57514 1.31789
644 1 0.591367 4.039 2.54614
646 1 1.90337 3.87482 2.92289
647 1 2.10178 2.90405 3.90706
649 1 3.43318 2.61862 4.31024
561 1 3.73932 1.40862 4.93926
379 1 -3.75686 4.98679 -0.00558577
380 1 -3.48617 4.68549 1.3131
639 1 -2.13987 4.43966 1.67084
640 1 -1.86985 3.81788 2.88747
642 1 -0.542006 3.56661 3.25828
643 1 -0.310984 2.59225 4.25951
645 1 1.01756 2.19511 4.50147
558 1 1.32095 0.888448 5.07439
559 1 2.70914 0.486407 5.08654
637 1 -2.91987 3.24629 3.64574
638 1 -2.71318 2.11819 4.45337
641 1 -1.37966 1.78327 4.73972
555 1 -1.08256 0.448162 5.09945
556 1 0.266525 -0.0417468 5.14627
552 1 -3.77101 1.25449 4.84234
553 1 -3.47357 -0.047076 5.17551
392 1 5.12737 4.99987 0.503805
652 1 5.40466 4.56654 1.82124
650 1 4.2923 4.07067 2.59507
651 1 4.53817 3.26262 3.72592
563 1 5.03373 0.9272 5.00167
399 1 10.1584 4.70637 1.16405
401 1 11.4815 4.55022 1.61431
664 1 11.6918 4.00357 2.86854
395 1 7.5376 4.98223 0.122505
396 1 7.7542 4.69137 1.50891
659 1 9.07777 4.46855 1.99062
660 1 9.31346 3.78075 3.18925
662 1 10.624 3.57906 3.63915
663 1 10.8987 2.5955 4.5895
655 1 6.68647 4.29761 2.27239
656 1 6.93751 3.55193 3.46479
657 1 8.23937 3.20849 3.80465
658 1 8.53074 2.1938 4.7378
661 1 9.85191 1.77401 4.96886
569 1 10.1027 0.453725 5.40069
570 1 11.4481 0.0104 5.48723
653 1 5.86502 2.95933 4.09688
654 1 6.11203 1.79222 4.79435
566 1 7.43283 1.39279 5.09499
567 1 7.68752 0.0181275 5.36723
407 1 15.0248 4.87151 0.3261
408 1 16.3295 4.77947 0.777181
672 1 16.5788 4.62376 2.16069
403 1 12.608 4.68288 0.816633
405 1 13.9342 4.69132 1.26004
668 1 14.1356 4.29952 2.61872
670 1 15.468 4.22113 3.0146
671 1 15.7886 3.27545 4.02618
666 1 13.0074 3.78661 3.28738
667 1 13.3648 2.88882 4.34349
669 1 14.7226 2.51978 4.58618
575 1 14.9628 1.27215 5.20467
577 1 16.3245 0.924621 5.36187
665 1 12.2277 2.17031 4.90267
572 1 12.5167 0.936973 5.43297
573 1 13.8684 0.435431 5.48478
411 1 18.7703 4.79534 0.324686
412 1 19.0168 4.73026 1.72037
675 1 17.9348 4.37147 2.56277
676 1 18.1746 3.59718 3.73708
677 1 19.5295 3.3448 4.03825
678 1 19.7933 2.25611 4.90043
673 1 17.1063 2.92697 4.3332
674 1 17.3973 1.77942 5.07704
580 1 18.7471 1.34419 5.18482
581 1 19.0107 0.0177069 5.48949
423 1 26.2514 5.04994 0.236364
424 1 27.602 5.136 0.696
692 1 27.87 4.766 2.037
419 1 23.825 4.78817 0.674586
421 1 25.1348 4.87014 1.12761
688 1 25.4803 4.46302 2.46136
690 1 26.8043 4.27522 2.82236
691 1 27.054 3.34312 3.85602
415 1 21.4064 4.8616 1.21906
417 1 22.7693 4.74468 1.64466
684 1 23.0695 4.29975 2.94289
686 1 24.4305 4.00855 3.2463
687 1 24.6688 3.0025 4.16796
689 1 26.0053 2.6033 4.44149
589 1 26.2595 1.36413 5.00305
591 1 27.602 0.925 5.1
679 1 20.3625 4.6303 2.12496
680 1 20.6054 3.96961 3.30317
682 1 21.9745 3.73613 3.68504
683 1 22.2504 2.68751 4.55268
685 1 23.5863 2.28073 4.75594
586 1 23.8147 0.954162 5.17716
587 1 25.1362 0.504095 5.21741
681 1 21.1499 1.90363 5.06711
583 1 21.392 0.563046 5.47629
584 1 22.7434 0.067551 5.2441
ITEM: TIMESTEP
500
ITEM: NUMBER OF ATOMS
692
ITEM: BOX BOUNDS ff ff ff
-6.0000000000000000e+01 6.0000000000000000e+01
-4.0000000000000000e+01 4.0000000000000000e+01
-4.0000000000000000e+01 4.0000000000000000e+01
ITEM: ATOMS id type x y z
275 1 -20.5863 -4.99599 -0.0724233
276 1 -20.3242 -4.7237 -1.45307
271 1 -24.3827 -5.24992 -0.146278
272 1 -23.0608 -5.06078 -0.608535
8 1 -22.7311 -4.72366 -1.97266
11 1 -21.3867 -4.47626 -2.31895
12 1 -21.091 -3.63603 -3.43985
267 1 -26.8545 -5.23346 -0.618995
269 1 -25.4865 -5.31994 -1.00545
6 1 -23.7408 -4.28403 -2.86298
7 1 -23.5078 -3.33361 -3.91923
9 1 -22.1642 -2.91622 -4.06714
10 1 -21.9333 -1.70414 -4.74921
108 1 -20.5929 -1.29543 -4.89017
265 1 -27.87 -4.93 -1.602
1 1 -27.602 -4.326 -2.855
3 1 -26.3195 -4.00561 -3.38128
4 1 -25.9544 -2.99993 -4.23046
5 1 -24.6168 -2.59402 -4.43149
103 1 -24.3899 -1.29844 -4.9279
105 1 -23.0505 -0.824472 -4.96511
2 1 -27.0051 -2.21428 -4.71807
100 1 -26.7832 -0.878518 -5.09545
101 1 -25.4576 -0.40426 -5.18716
279 1 -17.9505 -4.71773 -0.950434
15 1 -18.9809 -4.50756 -1.83685
16 1 -18.7255 -3.83548 -3.02724
18 1 -17.3903 -3.56658 -3.3748
19 1 -17.107 -2.48726 -4.23775
13 1 -19.7898 -3.3206 -3.75844
14 1 -19.4962 -2.13703 -4.53173
17 1 -18.1743 -1.67898 -4.70713
111 1 -17.9126 -0.337847 -5.11347
287 1 -13.1624 -4.88775 0.103784
283 1 -15.5777 -4.70123 -0.407705
285 1 -14.2125 -4.75151 -0.786902
24 1 -13.9533 -4.33842 -2.11097
26 1 -12.6214 -3.96024 -2.53069
27 1 -12.3589 -3.01294 -3.55463
281 1 -16.6222 -4.63713 -1.34804
20 1 -16.3363 -4.04999 -2.59654
22 1 -14.9989 -3.80279 -2.93708
23 1 -14.7281 -2.78306 -3.94693
25 1 -13.4006 -2.35429 -4.19327
117 1 -13.1159 -1.12352 -4.80645
21 1 -15.7769 -2.09974 -4.4843
114 1 -15.5315 -0.777738 -4.93958
115 1 -14.1915 -0.239243 -5.04853
295 1 -6.72243 -4.85843 -0.875895
291 1 -9.44224 -4.94735 0.0458277
292 1 -9.14897 -4.65759 -1.27007
35 1 -7.83306 -4.47323 -1.64738
36 1 -7.54066 -3.72328 -2.80227
38 1 -6.23547 -3.40976 -3.27789
39 1 -5.92451 -2.35513 -4.18539
288 1 -11.8563 -4.76586 -0.415932
28 1 -11.5475 -4.37932 -1.72969
31 1 -10.2171 -4.21708 -2.08066
32 1 -9.97581 -3.34286 -3.19364
33 1 -8.63864 -3.06401 -3.51121
34 1 -8.33969 -1.95654 -4.37467
37 1 -7.0439 -1.57007 -4.62206
125 1 -6.76641 -0.223749 -5.00422
29 1 -11.0548 -2.66166 -3.8185
30 1 -10.7104 -1.52401 -4.57401
122 1 -9.4064 -1.11173 -4.7259
119 1 -11.7834 -0.712772 -4.94224
299 1 -4.28483 -5.02922 -0.507512
297 1 -5.40551 -4.71673 -1.35015
40 1 -5.12721 -4.00728 -2.57927
41 1 -4.5768 -1.96249 -4.4174
128 1 -4.30412 -0.700068 -4.9038
307 1 1.93508 -4.81284 -0.0914994
308 1 2.10166 -4.50529 -1.44949
55 1 3.46186 -4.39861 -1.90543
56 1 3.66876 -3.7365 -3.12759
303 1 -1.88818 -5.14121 -0.123888
304 1 -0.535602 -4.97232 -0.540113
48 1 -0.338688 -4.51496 -1.85675
51 1 0.988799 -4.15657 -2.26945
52 1 1.21777 -3.33908 -3.36425
53 1 2.57568 -3.06063 -3.77636
54 1 2.88489 -1.9358 -4.58202
301 1 -2.98053 -4.88957 -1.00745
44 1 -2.73496 -4.35664 -2.31811
46 1 -1.39714 -4.0189 -2.66149
47 1 -1.10726 -3.02172 -3.60309
49 1 0.189357 -2.67941 -3.97527
50 1 0.470635 -1.51636 -4.74
136 1 1.84797 -1.106 -4.97735
42 1 -3.76472 -3.75119 -2.97639
43 1 -3.49814 -2.70894 -3.91337
45 1 -2.16371 -2.29858 -4.14052
131 1 -1.88467 -1.05581 -4.68211
133 1 -0.554786 -0.667952 -4.96287
129 1 -2.93426 -0.21495 -4.99068
311 1 4.52766 -4.70456 -1.08936
58 1 5.00493 -3.49924 -3.62098
59 1 5.2717 -2.43457 -4.5301
57 1 4.22589 -1.56685 -4.86987
139 1 4.50374 -0.257866 -5.24614
319 1 9.38146 -4.85686 -0.260507
320 1 10.6965 -4.83686 -0.752182
68 1 10.9463 -4.66005 -2.15171
315 1 6.95804 -4.66981 -0.697731
317 1 8.31807 -4.74943 -1.17445
64 1 8.55594 -4.41044 -2.53926
66 1 9.9012 -4.2863 -3.0013
67 1 10.0968 -3.49307 -4.15321
69 1 11.3526 -3.15305 -4.55885
70 1 11.6983 -1.93121 -5.1344
313 1 5.8348 -4.61971 -1.58549
60 1 6.11097 -4.09291 -2.91174
62 1 7.47348 -3.89459 -3.32306
63 1 7.69771 -2.9052 -4.26826
65 1 9.05175 -2.67199 -4.5566
145 1 9.3169 -1.41076 -5.11792
147 1 10.6656 -0.977833 -5.2818
61 1 6.64238 -2.09272 -4.75623
142 1 6.94125 -0.781404 -5.211
143 1 8.28503 -0.444263 -5.31935
157 1 19.5885 -0.565543 -5.42357
156 1 18.2626 -1.05366 -5.35301
80 1 18.0219 -2.41936 -5.03845
327 1 15.7644 -4.69278 -1.25873
323 1 13.1482 -4.75888 -0.301033
324 1 13.3916 -4.78519 -1.69024
74 1 14.7301 -4.62615 -2.1805
75 1 15.0144 -4.17365 -3.54595
77 1 16.3785 -3.79113 -3.81149
78 1 16.6628 -2.84629 -4.8055
71 1 12.2998 -4.66903 -2.5635
72 1 14.0308 -3.81687 -4.51145
73 1 14.2051 -2.52251 -5.07464
76 1 15.5763 -2.06768 -5.14875
153 1 15.8279 -0.695948 -5.26788
150 1 13.1003 -1.58847 -5.30294
331 1 18.1528 -4.77237 -0.764105
333 1 19.5398 -4.69953 -1.2218
83 1 19.8612 -4.38585 -2.5694
329 1 17.1085 -4.65956 -1.69727
79 1 17.4608 -4.21 -2.9994
81 1 18.7959 -3.97312 -3.3844
82 1 19.0641 -3.30184 -4.57339
160 1 22.1451 -0.483738 -6.63366
343 1 27.051 -4.86278 -1.13163
339 1 24.4056 -4.86995 -0.286954
340 1 24.6405 -4.75341 -1.64523
93 1 25.9812 -4.65465 -2.07681
94 1 26.2982 -4.08416 -3.32392
96 1 27.602 -3.746 -3.582
97 1 27.87 -2.658 -4.45
335 1 20.642 -4.78416 -0.327707
336 1 21.9844 -4.76665 -0.757279
87 1 22.3079 -4.61463 -2.10424
89 1 23.6105 -4.57579 -2.56286
90 1 23.8826 -3.90165 -3.76824
91 1 25.2161 -3.48465 -4.02726
92 1 25.4573 -2.33084 -4.78577
95 1 26.8119 -1.89574 -4.92189
166 1 27.1067 -0.499443 -5.13462
85 1 21.2573 -4.37555 -3.01446
86 1 21.5011 -3.87525 -4.26353
88 1 22.7793 -3.56671 -4.58444
84 1 20.4419 -3.36362 -5.02344
163 1 24.4539 -1.41662 -5.28273
107 1 -21.4318 0.98722 -5.05565
178 1 -21.2049 2.29963 -4.63006
104 1 -23.8559 1.39139 -4.95387
174 1 -23.6165 2.65248 -4.43252
176 1 -22.3156 3.08736 -4.23109
177 1 -22.0948 4.15068 -3.26687
179 1 -20.6853 4.39621 -2.89485
356 1 -20.3979 4.94235 -1.62451
98 1 -27.87 0 -5.183
99 1 -27.602 1.379 -4.996
169 1 -26.2867 1.81689 -4.92918
170 1 -26.0051 3.08438 -4.35297
172 1 -24.6445 3.42666 -3.96673
173 1 -24.4349 4.39223 -2.93475
175 1 -23.1418 4.64426 -2.44044
352 1 -22.8541 5.16813 -1.13121
354 1 -21.5206 5.14472 -0.71847
167 1 -27.0867 3.79301 -3.67128
168 1 -26.831 4.55833 -2.51359
171 1 -25.4641 4.80022 -2.07533
349 1 -25.2313 5.1032 -0.69417
350 1 -23.902 5.28996 -0.179888
345 1 -27.87 4.93 -1.602
346 1 -27.602 5.178 -0.233
109 1 -20.3196 0.0691584 -5.20638
106 1 -22.7505 0.51402 -5.07192
102 1 -25.2012 0.959765 -5.11359
110 1 -18.9746 0.538879 -5.23966
182 1 -18.767 1.91555 -4.91466
185 1 -17.4571 2.4103 -4.77011
186 1 -17.1852 3.49541 -3.94057
180 1 -19.8562 2.71507 -4.50366
181 1 -19.6044 3.8551 -3.65041
183 1 -18.2342 4.16316 -3.33662
184 1 -17.9649 4.81444 -2.10504
358 1 -19.055 5.05459 -1.24258
118 1 -12.5974 1.5919 -5.03164
194 1 -12.3401 2.91793 -4.58615
112 1 -16.5908 0.175665 -5.15302
113 1 -16.3622 1.57914 -5.09993
189 1 -15.0291 2.06528 -4.99146
190 1 -14.7585 3.26491 -4.34141
192 1 -13.4076 3.60179 -4.01862
193 1 -13.0925 4.46709 -2.9952
187 1 -15.8477 3.90461 -3.68945
188 1 -15.5603 4.66361 -2.524
191 1 -14.1719 4.86653 -2.14232
365 1 -13.8554 5.15876 -0.827724
366 1 -12.5097 5.15613 -0.412917
361 1 -16.6327 4.91432 -1.66276
362 1 -16.3555 5.11926 -0.363424
116 1 -13.9248 1.14495 -5.06691
124 1 -7.85546 0.688613 -5.11388
202 1 -7.54829 2.05195 -5.03905
205 1 -6.19604 2.50681 -5.0342
206 1 -5.99476 3.79057 -4.30799
121 1 -10.2234 1.14249 -5.08323
198 1 -9.94609 2.4751 -4.79214
200 1 -8.60909 2.88966 -4.64945
201 1 -8.37579 4.03599 -3.85825
203 1 -7.04733 4.37587 -3.53722
204 1 -6.72866 4.88272 -2.23229
196 1 -11.0177 3.33685 -4.36496
197 1 -10.7587 4.38306 -3.42643
199 1 -9.4059 4.63235 -3.07576
372 1 -9.13069 5.08489 -1.748
374 1 -7.78181 5.05206 -1.32685
195 1 -11.807 4.81025 -2.62638
368 1 -11.4691 5.11773 -1.31522
370 1 -10.1941 5.14063 -0.819732
123 1 -9.14923 0.233614 -5.12723
120 1 -11.5391 0.657051 -5.13194
126 1 -5.41685 0.1487 -5.11906
127 1 -5.15717 1.53444 -5.29369
207 1 -4.65017 4.15568 -3.90579
208 1 -4.33333 4.71705 -2.61417
377 1 -5.37226 4.90083 -1.74406
378 1 -5.05253 5.08567 -0.394434
138 1 3.48655 0.677098 -5.2157
220 1 3.80593 2.01467 -5.2816
135 1 1.07723 1.20244 -5.22586
217 1 1.25731 2.59642 -5.1862
219 1 3.02432 3.97255 -3.86022
132 1 -1.39082 1.67476 -5.22966
213 1 -1.08664 2.96914 -4.77724
215 1 0.241049 3.32724 -4.60987
216 1 0.574313 4.11979 -3.48306
218 1 1.90498 4.31554 -3.09517
388 1 2.15569 4.60964 -1.75598
390 1 3.48546 4.5762 -1.28575
209 1 -3.83648 1.9313 -5.36999
211 1 -2.10123 3.7724 -4.2875
212 1 -1.83824 4.37588 -3.08593
214 1 -0.492448 4.42073 -2.62732
384 1 -0.241136 4.6603 -1.24588
386 1 1.06695 4.70242 -0.832658
210 1 -2.93674 4.74236 -2.24789
381 1 -2.57836 4.97674 -0.869446
382 1 -1.29406 4.79205 -0.342578
137 1 2.13711 0.250865 -5.31771
134 1 -0.288373 0.728754 -5.23854
130 1 -2.69644 1.12481 -5.2872
223 1 5.11346 2.40253 -5.10331
224 1 5.40239 3.46093 -4.21342
221 1 4.35573 4.02214 -3.45494
222 1 4.58582 4.39599 -2.14331
146 1 9.95784 1.30673 -5.17834
232 1 10.2116 2.55069 -4.63
234 1 11.578 2.7785 -4.2543
235 1 11.8362 3.84801 -3.32092
140 1 5.90362 0.165805 -5.33911
141 1 6.17077 1.50829 -5.35437
227 1 7.53443 1.90003 -5.19288
228 1 7.82414 3.08323 -4.50201
230 1 9.19871 3.36885 -4.16288
231 1 9.41389 4.24996 -3.07917
233 1 10.7484 4.37436 -2.57249
400 1 10.9855 4.8347 -1.25656
225 1 6.7538 3.72782 -3.8351
226 1 6.98884 4.36927 -2.62492
229 1 8.33816 4.61575 -2.22948
397 1 8.61083 4.81322 -0.828372
398 1 9.94462 4.87033 -0.334906
393 1 5.91517 4.49149 -1.69862
394 1 6.23637 4.61278 -0.326861
148 1 11.0297 0.374331 -5.34645
144 1 8.58854 0.949767 -5.30841
158 1 19.8715 0.772513 -5.19998
152 1 14.78 0.238799 -5.21086
240 1 15.0258 1.53303 -4.72141
243 1 16.3671 2.00118 -4.60024
244 1 16.6257 3.11829 -3.80536
149 1 12.3766 0.714248 -5.23972
236 1 12.6325 2.00967 -4.75256
238 1 13.9471 2.38167 -4.38961
239 1 14.2432 3.46865 -3.56933
241 1 15.544 3.75852 -3.19734
242 1 15.8037 4.44586 -1.95351
237 1 13.1746 4.15318 -2.93193
404 1 13.4119 4.69335 -1.64336
406 1 14.7508 4.79946 -1.13875
402 1 12.3425 4.92393 -0.756067
151 1 13.4531 -0.242014 -5.40158
154 1 17.1551 -0.201669 -5.25673
155 1 17.4243 1.16139 -4.90491
247 1 18.7742 1.57048 -4.82675
248 1 19.0448 2.74363 -4.09211
245 1 17.9656 3.4495 -3.48103
246 1 18.2062 4.3046 -2.38698
249 1 19.6113 4.53401 -1.99048
413 1 19.8982 4.96448 -0.689737
409 1 17.1206 4.66063 -1.55948
410 1 17.3848 4.96102 -0.20525
161 1 22.3222 0.518996 -5.64557
165 1 26.1065 0.450256 -5.25464
260 1 26.3017 1.80034 -4.86966
263 1 27.602 2.249 -4.67
264 1 27.87 3.41 -3.903
162 1 23.6764 0.905536 -5.31712
256 1 23.9364 2.08817 -4.60558
258 1 25.2489 2.52248 -4.3835
259 1 25.5044 3.59788 -3.48743
261 1 26.8139 3.93697 -3.20903
262 1 27.1047 4.62696 -2.01828
159 1 21.2017 1.20387 -5.02537
252 1 21.475 2.41651 -4.37456
254 1 22.8508 2.79462 -4.11019
255 1 23.0639 3.83238 -3.1887
257 1 24.4009 4.1713 -2.85995
420 1 24.7087 4.80587 -1.57114
422 1 26.0688 4.89332 -1.11506
250 1 20.3729 3.12705 -3.82437
251 1 20.6878 4.02585 -2.77156
253 1 22.0076 4.32846 -2.39339
416 1 22.3309 4.91471 -1.13204
418 1 23.6704 5.05019 -0.697497
414 1 21.2674 5.02225 -0.218077
164 1 24.756 -0.0183685 -5.40938
529 1 -22.0205 -1.48348 5.18738
438 1 -20.6611 -1.99778 5.1761
439 1 -20.432 -3.28459 4.51787
526 1 -24.6801 -0.444092 5.23285
431 1 -24.4151 -1.79255 4.89059
434 1 -23.115 -2.29256 4.86499
435 1 -22.8519 -3.41769 4.07623
436 1 -21.5413 -3.88604 3.83987
437 1 -21.251 -4.58918 2.63895
523 1 -27.1444 -0.931294 5.17851
427 1 -26.8486 -2.18916 4.64663
429 1 -25.4788 -2.59856 4.41171
430 1 -25.1969 -3.73559 3.62383
432 1 -23.8581 -4.03358 3.33217
433 1 -23.5976 -4.87388 2.20289
273 1 -22.2609 -4.94114 1.75431
274 1 -21.9802 -5.12366 0.350766
425 1 -27.87 -3.047 4.193
426 1 -27.602 -4.052 3.232
428 1 -26.2448 -4.38082 2.8844
268 1 -25.9988 -4.93262 1.59933
270 1 -24.6349 -5.14142 1.25862
266 1 -27.0853 -5.0463 0.716681
536 1 -17.1889 -0.58533 5.31058
532 1 -19.5926 -1.08612 5.35258
534 1 -18.2461 -1.52318 5.32044
443 1 -18.0371 -2.82846 4.84437
441 1 -19.0829 -3.53741 4.22127
442 1 -18.8165 -4.30495 3.10125
444 1 -17.4547 -4.40303 2.70644
280 1 -17.1488 -4.76055 1.36414
440 1 -19.9021 -4.66375 2.18664
277 1 -19.5345 -4.90404 0.821902
278 1 -18.2192 -4.82326 0.427515
540 1 -13.473 -0.656166 5.2798
450 1 -13.138 -2.03848 5.22169
537 1 -15.8908 -1.03974 5.22144
447 1 -15.7166 -2.41115 5.1695
449 1 -13.9492 -4.10932 4.02062
451 1 -12.6014 -4.3087 3.65812
452 1 -12.3695 -4.73247 2.33734
445 1 -16.7279 -3.19836 4.64908
446 1 -16.4071 -3.96464 3.53633
448 1 -15.0828 -4.27248 3.17909
284 1 -14.8059 -4.60982 1.86841
286 1 -13.4427 -4.81759 1.43995
282 1 -15.8096 -4.73314 0.93558
550 1 -5.84327 -0.568182 5.21061
546 1 -8.26598 -1.05242 5.10046
548 1 -6.92031 -1.50194 5.09694
462 1 -6.67987 -2.8315 4.66249
543 1 -10.7425 -1.56354 5.12695
457 1 -9.35056 -1.94828 5.03622
458 1 -9.08442 -3.20604 4.47659
460 1 -7.80169 -3.57164 4.1757
461 1 -7.50882 -4.4134 3.08627
463 1 -6.14849 -4.61373 2.71326
296 1 -5.91223 -5.05412 1.3851
453 1 -11.8087 -2.47481 5.04897
454 1 -11.5387 -3.66783 4.37254
455 1 -10.1726 -3.96711 4.00395
456 1 -9.9451 -4.609 2.76261
459 1 -8.58621 -4.82846 2.29395
293 1 -8.37102 -5.11056 0.899542
294 1 -7.02355 -5.08737 0.47461
289 1 -11.0332 -4.79314 1.88156
290 1 -10.8034 -4.91786 0.493077
551 1 -4.53529 -1.01236 5.17855
466 1 -4.25454 -2.35965 4.84895
464 1 -5.31478 -3.21955 4.48398
465 1 -5.00085 -4.23338 3.54141
298 1 -4.53528 -5.11804 0.932205
560 1 2.98392 -0.976008 5.35238
557 1 0.587556 -1.41267 5.26279
477 1 1.90639 -1.85134 5.07924
478 1 2.21077 -3.01294 4.44181
480 1 3.59897 -3.29851 4.12807
481 1 3.88905 -4.13248 3.02501
554 1 -2.05766 -0.580446 5.24202
470 1 -1.8406 -1.92825 5.02256
473 1 -0.479479 -2.25932 4.90428
474 1 -0.217162 -3.38972 4.09847
475 1 1.13719 -3.6743 3.80753
476 1 1.39895 -4.35526 2.60006
479 1 2.77682 -4.5423 2.19891
309 1 3.02452 -4.83559 0.801506
468 1 -2.90392 -2.75979 4.64557
469 1 -2.58256 -3.87584 3.83516
471 1 -1.25953 -4.05968 3.41211
472 1 -1.03919 -4.6801 2.15973
305 1 0.309642 -4.75471 1.74966
306 1 0.577503 -4.98663 0.3782
467 1 -3.64198 -4.42142 3.12353
300 1 -3.42529 -4.86589 1.79704
302 1 -2.10595 -5.05339 1.27044
564 1 5.45646 -0.528614 5.48035
562 1 4.37765 -1.39844 5.26126
482 1 4.63926 -2.63916 4.67546
483 1 5.22572 -4.27743 2.54365
312 1 5.42032 -4.63687 1.16099
310 1 4.29861 -4.79092 0.311208
571 1 11.8603 -1.23198 5.0806
568 1 9.21288 -0.386339 5.39306
490 1 9.49498 -1.67625 5.00789
493 1 10.8129 -2.08433 4.74216
494 1 11.0408 -3.22041 3.98431
565 1 6.77422 -0.975843 5.38215
486 1 7.05089 -2.24162 4.86943
488 1 8.4006 -2.5651 4.62456
489 1 8.67954 -3.56528 3.68033
491 1 9.97832 -3.84735 3.29233
492 1 10.1603 -4.4723 2.04857
321 1 11.4872 -4.59629 1.56943
322 1 11.7921 -4.75743 0.163936
484 1 5.98662 -2.99855 4.3481
485 1 6.33498 -3.86533 3.28638
487 1 7.62263 -4.05805 2.87836
316 1 7.79025 -4.55704 1.57957
318 1 9.11954 -4.726 1.12836
314 1 6.72259 -4.5903 0.651842
578 1 16.648 -0.458827 5.28822
574 1 14.2368 -0.830068 5.25573
576 1 15.5588 -1.29357 5.10911
502 1 15.8388 -2.51728 4.49726
497 1 13.1953 -1.65994 4.92483
498 1 13.4492 -2.84302 4.23214
500 1 14.7785 -3.18459 3.90115
501 1 14.979 -4.04686 2.79105
503 1 16.3435 -4.2134 2.35906
328 1 16.6403 -4.56516 1.04302
495 1 12.3644 -3.57448 3.60314
496 1 12.5652 -4.31801 2.42239
499 1 13.9017 -4.44958 1.94762
325 1 14.2262 -4.69502 0.584515
326 1 15.5436 -4.74788 0.144616
579 1 17.9978 -0.910385 5.32062
506 1 18.1934 -2.25714 4.91636
508 1 19.5174 -2.81598 4.73326
509 1 19.8204 -3.54923 3.58399
504 1 17.1688 -2.93195 4.26775
505 1 17.4109 -3.71317 3.1093
507 1 18.7541 -3.95369 2.76605
332 1 19.0213 -4.50408 1.51704
330 1 17.9343 -4.59549 0.626743
592 1 27.87 -0.465 5.162
588 1 25.4898 -0.895421 5.21912
590 1 26.8029 -1.32337 5.06875
521 1 27.0639 -2.59 4.57314
585 1 23.1264 -1.35229 5.31158
516 1 24.4309 -1.79095 5.04635
517 1 24.7176 -3.02646 4.36587
519 1 26.003 -3.35164 3.95607
520 1 26.2508 -4.28439 2.88862
522 1 27.602 -4.564 2.456
344 1 27.87 -5.053 1.153
582 1 20.4132 -0.3514 5.63959
512 1 22.1315 -2.33206 5.02176
513 1 22.2794 -3.2927 3.99046
514 1 23.6205 -3.56264 3.6023
515 1 23.8403 -4.30071 2.41411
518 1 25.1761 -4.58059 2.02818
341 1 25.4568 -4.92223 0.673594
342 1 26.7861 -5.10187 0.259267
510 1 21.1586 -3.78098 3.23764
511 1 21.408 -4.36574 2.00572
337 1 22.7484 -4.50892 1.55056
338 1 23.0646 -4.769 0.156672
334 1 20.3512 -4.56133 1.05558
355 1 -21.2145 5.08503 0.659373
351 1 -23.631 4.99451 1.1963
353 1 -22.2871 4.84989 1.58886
604 1 -22.0318 4.18029 2.77586
606 1 -20.6882 3.89723 3.07624
607 1 -20.3594 2.88728 3.98413
347 1 -26.2981 5.13599 0.2618
348 1 -26.0595 4.91281 1.64428
599 1 -24.7328 4.66894 2.02837
600 1 -24.5206 3.97397 3.18587
602 1 -23.1456 3.62914 3.42808
603 1 -22.8507 2.50122 4.25873
605 1 -21.4684 2.1307 4.47675
530 1 -21.1959 0.804928 5.03944
595 1 -27.1193 4.72766 2.56554
596 1 -26.8387 3.80917 3.62753
597 1 -25.5514 3.34282 3.87824
598 1 -25.279 2.15098 4.56321
601 1 -23.8947 1.71047 4.7417
527 1 -23.6108 0.396805 5.13905
528 1 -22.2818 -0.0987345 5.23837
593 1 -27.87 3.047 4.193
594 1 -27.602 1.821 4.853
524 1 -26.3129 1.33103 4.93841
525 1 -26.0666 -0.0251356 5.20328
359 1 -18.7692 5.13059 0.143088
360 1 -17.4207 5.15558 0.58177
612 1 -17.1832 4.71153 1.89214
357 1 -19.8686 4.96204 1.01122
608 1 -19.6099 4.38403 2.24928
610 1 -18.2339 4.19123 2.68624
611 1 -17.9468 3.23114 3.70968
609 1 -19.0082 2.50872 4.29803
533 1 -18.7832 1.20665 4.93331
535 1 -17.4475 0.759635 5.04853
531 1 -19.82 0.327135 5.21964
367 1 -12.3021 4.93419 0.96238
363 1 -14.987 5.12414 0.0739284
364 1 -14.7846 4.81012 1.42519
619 1 -13.4105 4.62284 1.83657
620 1 -13.1573 3.82855 2.97796
615 1 -15.8441 4.48177 2.34039
616 1 -15.5356 3.59274 3.4427
617 1 -14.2066 3.28705 3.74323
618 1 -13.9641 2.09752 4.54676
621 1 -12.6046 1.62321 4.71754
541 1 -12.4134 0.237996 5.07665
613 1 -16.6153 2.86613 4.06155
614 1 -16.394 1.65644 4.77199
538 1 -15.0579 1.25363 4.93345
539 1 -14.7899 -0.150183 5.20594
375 1 -7.47901 5.05055 0.0361015
376 1 -6.11048 5.05617 0.481362
632 1 -5.82741 4.61762 1.78581
371 1 -9.88107 5.05023 0.525588
373 1 -8.51732 4.90153 0.948586
628 1 -8.26931 4.31786 2.21511
630 1 -6.92399 4.09489 2.55645
631 1 -6.65468 3.13981 3.55377
369 1 -10.9517 4.78223 1.40935
624 1 -10.7259 4.04411 2.57164
626 1 -9.38902 3.74832 2.90625
627 1 -9.13029 2.74387 3.80272
629 1 -7.76636 2.39121 4.0767
547 1 -7.53709 1.18435 4.71201
549 1 -6.18758 0.831853 4.96859
622 1 -11.8022 3.47507 3.28866
623 1 -11.5447 2.37665 4.12691
625 1 -10.1768 2.04152 4.34572
544 1 -9.97007 0.74209 4.95679
545 1 -8.59543 0.339507 4.9944
542 1 -11.0564 -0.197628 5.14549
635 1 -4.52461 4.33347 2.24043
636 1 -4.24025 3.51759 3.32502
633 1 -5.29287 2.77485 3.88408
634 1 -5.07396 1.68391 4.69055
391 1 3.78176 4.59672 0.10452
387 1 1.37004 4.58641 0.558782
389 1 2.69977 4.58558 1.00329
648 1 3.05431 4.17789 2.31534
383 1 -1.06751 4.64631 1.05659
385 1 0.26512 4.45386 1.48987
644 1 0.579805 3.98076 2.77693
646 1 1.95849 3.78607 3.162
647 1 2.19469 2.85147 4.19711
649 1 3.50732 2.46714 4.57517
561 1 3.80785 1.24094 5.26218
379 1 -3.68695 4.96379 0.0262193
380 1 -3.44854 4.64316 1.38118
639 1 -2.12523 4.44591 1.8561
640 1 -1.82922 3.8036 3.07404
642 1 -0.481557 3.47406 3.47308
643 1 -0.211221 2.48367 4.38886
645 1 1.12195 2.09688 4.69572
558 1 1.37087 0.853622 5.24165
559 1 2.69808 0.394321 5.36161
637 1 -2.91808 3.2159 3.71403
638 1 -2.67117 2.15007 4.59162
641 1 -1.32786 1.7374 4.82448
555 1 -1.04908 0.431018 5.19998
556 1 0.272439 -0.0152682 5.27428
552 1 -3.71421 1.2865 4.93845
553 1 -3.42625 -0.0942762 5.2357
392 1 5.17054 4.53368 0.548595
652 1 5.48654 4.29149 1.88014
650 1 4.41268 3.93565 2.70974
651 1 4.60717 3.1171 3.89014
563 1 5.14802 0.869272 5.4222
399 1 10.2044 4.63946 1.08822
401 1 11.5518 4.58319 1.55961
664 1 11.7804 4.16399 2.87766
395 1 7.56881 4.67566 0.0916088
396 1 7.88015 4.45676 1.42968
659 1 9.15493 4.36377 1.97562
660 1 9.38667 3.89304 3.28994
662 1 10.7059 3.71995 3.68175
663 1 11.0297 2.72393 4.60131
655 1 6.82545 4.17892 2.33466
656 1 7.02018 3.50658 3.56877
657 1 8.33027 3.24912 3.98046
658 1 8.63461 2.23632 4.92318
661 1 9.99868 1.90958 5.14051
569 1 10.3045 0.52874 5.46159
570 1 11.6309 0.118399 5.37513
653 1 5.94057 2.81926 4.25734
654 1 6.23925 1.75 5.13255
566 1 7.57721 1.35434 5.30069
567 1 7.85328 -0.0474472 5.47418
407 1 15.0116 5.02476 0.260259
408 1 16.3345 4.94255 0.716994
672 1 16.6557 4.59189 2.06997
403 1 12.6157 4.86923 0.66449
405 1 13.9583 4.90732 1.20158
668 1 14.217 4.46021 2.55561
670 1 15.5974 4.21561 2.94302
671 1 15.9284 3.35227 3.99102
666 1 13.1439 4.04261 3.34358
667 1 13.4814 3.13421 4.40407
669 1 14.8256 2.73814 4.64629
575 1 15.0216 1.40191 5.12843
577 1 16.323 0.924686 5.25214
665 1 12.3587 2.33754 4.79943
572 1 12.6678 1.00281 5.1964
573 1 13.9512 0.557502 5.3232
411 1 18.7735 5.04313 0.198863
412 1 19.0287 4.71096 1.55326
675 1 17.9961 4.33941 2.45003
676 1 18.2811 3.60127 3.55895
677 1 19.6375 3.27154 3.81738
678 1 19.9272 2.17211 4.66862
673 1 17.2463 2.95232 4.21157
674 1 17.4675 1.78299 4.89095
580 1 18.8065 1.3377 5.04779
581 1 19.0786 0.0139474 5.47057
423 1 26.2922 5.05766 0.237799
424 1 27.602 5.136 0.696
692 1 27.87 4.766 2.037
419 1 23.8788 5.09713 0.662923
421 1 25.2309 5.02054 1.14821
688 1 25.4573 4.53939 2.41963
690 1 26.7911 4.27527 2.75882
691 1 27.0272 3.32144 3.73666
415 1 21.4843 4.93267 1.14809
417 1 22.8063 4.92994 1.55624
684 1 23.098 4.22968 2.77929
686 1 24.4176 4.03037 3.20373
687 1 24.6427 2.94201 4.08479
689 1 25.9812 2.55817 4.32686
589 1 26.2322 1.33485 4.93233
591 1 27.602 0.925 5.1
679 1 20.3561 4.5738 1.98152
680 1 20.7101 3.89649 3.17992
682 1 22.0612 3.63648 3.50919
683 1 22.3175 2.58353 4.38781
685 1 23.5873 2.16568 4.58409
586 1 23.8292 0.921464 5.09321
587 1 25.1736 0.477794 5.12646
681 1 21.2623 1.7668 4.8445
583 1 21.4932 0.517032 5.38169
584 1 22.8133 0.0203414 5.40927
ITEM: TIMESTEP
600
ITEM: NUMBER OF ATOMS
692
ITEM: BOX BOUNDS ff ff ff
-6.0000000000000000e+01 6.0000000000000000e+01
-4.0000000000000000e+01 4.0000000000000000e+01
-4.0000000000000000e+01 4.0000000000000000e+01
ITEM: ATOMS id type x y z
275 1 -20.5787 -5.05967 -0.0945787
276 1 -20.3066 -4.63164 -1.41565
271 1 -24.3711 -5.22196 -0.147624
272 1 -22.9912 -5.06779 -0.634241
8 1 -22.6396 -4.67036 -1.95041
11 1 -21.3307 -4.30457 -2.26757
12 1 -21.1055 -3.48543 -3.38616
267 1 -26.8179 -5.19751 -0.597034
269 1 -25.4831 -5.26073 -0.993372
6 1 -23.6895 -4.2878 -2.85494
7 1 -23.5161 -3.30316 -3.89293
9 1 -22.1981 -2.874 -4.10233
10 1 -21.9519 -1.66917 -4.73142
108 1 -20.6116 -1.22409 -4.93036
265 1 -27.87 -4.93 -1.602
1 1 -27.602 -4.326 -2.855
3 1 -26.3245 -4.15894 -3.41536
4 1 -25.9431 -2.99507 -4.14388
5 1 -24.6109 -2.53693 -4.34123
103 1 -24.3433 -1.25218 -4.90513
105 1 -23.0346 -0.813809 -5.07562
2 1 -26.9929 -2.19573 -4.54167
100 1 -26.7605 -0.900246 -5.06439
101 1 -25.4661 -0.389922 -5.12849
279 1 -17.9161 -4.82096 -1.00039
15 1 -18.9763 -4.40403 -1.84362
16 1 -18.7213 -3.60299 -2.94256
18 1 -17.3679 -3.30558 -3.24833
19 1 -17.1035 -2.27555 -4.15483
13 1 -19.7771 -3.05533 -3.59858
14 1 -19.5132 -1.99103 -4.48925
17 1 -18.1651 -1.54085 -4.64446
111 1 -17.894 -0.296599 -5.19238
287 1 -13.0737 -5.09782 -0.0693659
283 1 -15.5106 -5.09028 -0.566658
285 1 -14.1528 -4.93545 -0.955612
24 1 -13.9088 -4.26894 -2.18071
26 1 -12.5876 -3.97742 -2.5483
27 1 -12.3226 -3.02265 -3.57891
281 1 -16.5805 -4.68697 -1.37232
20 1 -16.2818 -3.92643 -2.5161
22 1 -14.9719 -3.66609 -2.89105
23 1 -14.7133 -2.63014 -3.83774
25 1 -13.3955 -2.3311 -4.17518
117 1 -13.1587 -1.10709 -4.81811
21 1 -15.8015 -1.91564 -4.37612
114 1 -15.5252 -0.664175 -4.91302
115 1 -14.231 -0.210621 -5.07426
295 1 -6.70446 -4.80526 -0.979624
291 1 -9.32024 -5.13978 -0.148586
292 1 -9.06582 -4.79397 -1.48328
35 1 -7.72589 -4.58168 -1.87516
36 1 -7.47237 -3.72874 -2.95511
38 1 -6.17088 -3.39904 -3.37181
39 1 -5.86757 -2.33077 -4.22586
288 1 -11.7612 -5.05571 -0.569711
28 1 -11.4917 -4.57521 -1.84407
31 1 -10.1481 -4.29082 -2.22644
32 1 -9.91291 -3.44397 -3.32749
33 1 -8.58775 -3.08628 -3.59586
34 1 -8.3535 -1.92937 -4.38386
37 1 -6.99607 -1.55222 -4.60936
125 1 -6.71579 -0.210286 -4.95543
29 1 -10.9791 -2.71781 -3.93847
30 1 -10.7549 -1.51532 -4.63085
122 1 -9.41892 -1.09587 -4.72827
119 1 -11.8361 -0.637191 -4.92108
299 1 -4.26696 -4.85791 -0.497913
297 1 -5.38842 -4.58477 -1.36565
40 1 -5.11814 -3.94462 -2.6147
41 1 -4.54903 -1.96925 -4.42106
128 1 -4.2615 -0.650369 -4.92698
307 1 1.89866 -4.92056 -0.147961
308 1 2.14868 -4.57369 -1.48994
55 1 3.48453 -4.42235 -1.97333
56 1 3.74863 -3.77279 -3.20228
303 1 -1.86375 -4.85441 -0.0666796
304 1 -0.528736 -4.75896 -0.581631
48 1 -0.211072 -4.396 -1.92028
51 1 1.11042 -4.20661 -2.36461
52 1 1.35817 -3.43427 -3.55565
53 1 2.69797 -3.22304 -3.95507
54 1 2.94897 -2.11329 -4.81125
301 1 -2.9493 -4.69597 -0.971263
44 1 -2.65863 -4.23275 -2.24991
46 1 -1.33343 -4.0055 -2.69798
47 1 -1.0578 -3.16384 -3.7966
49 1 0.285641 -2.73127 -4.08914
50 1 0.533138 -1.62093 -4.94243
136 1 1.89032 -1.24339 -5.18224
42 1 -3.73771 -3.70949 -2.95159
43 1 -3.44616 -2.73699 -3.92948
45 1 -2.13824 -2.38907 -4.35564
131 1 -1.84293 -1.12479 -5.03557
133 1 -0.520292 -0.74479 -5.30618
129 1 -2.92148 -0.259646 -5.12992
311 1 4.51387 -4.7447 -1.07888
58 1 5.08922 -3.50493 -3.56828
59 1 5.36704 -2.58221 -4.54647
57 1 4.30248 -1.76953 -5.03427
139 1 4.61019 -0.477812 -5.44255
319 1 9.39094 -4.79246 -0.2775
320 1 10.6931 -4.81781 -0.748254
68 1 10.9018 -4.76375 -2.12057
315 1 6.9645 -4.81239 -0.706582
317 1 8.33069 -4.73523 -1.19287
64 1 8.5385 -4.44145 -2.54038
66 1 9.83814 -4.35564 -3.00017
67 1 10.09 -3.4577 -4.09201
69 1 11.3595 -3.032 -4.44862
70 1 11.7964 -1.87464 -5.09766
313 1 5.83758 -4.66954 -1.60638
60 1 6.10005 -4.10425 -2.89375
62 1 7.48351 -3.99929 -3.29023
63 1 7.75922 -2.98876 -4.26065
65 1 9.07275 -2.71439 -4.68055
145 1 9.40383 -1.49096 -5.24659
147 1 10.7496 -1.0362 -5.34275
61 1 6.73802 -2.21801 -4.84393
142 1 7.04905 -0.948482 -5.35002
143 1 8.40468 -0.538077 -5.46997
157 1 19.5448 -0.394812 -5.66699
156 1 18.2298 -0.932208 -5.44564
80 1 18.0032 -2.27803 -4.93411
327 1 15.8157 -4.87785 -1.10564
323 1 13.1232 -4.89817 -0.272445
324 1 13.3462 -4.82704 -1.65694
74 1 14.7481 -4.69473 -2.04428
75 1 15.0835 -4.05554 -3.26828
77 1 16.3953 -3.67146 -3.61244
78 1 16.6457 -2.62223 -4.58337
71 1 12.2186 -4.77247 -2.56125
72 1 14.0597 -3.427 -4.02425
73 1 14.2873 -2.27613 -4.82941
76 1 15.5795 -1.85815 -5.04605
153 1 15.8529 -0.538405 -5.38866
150 1 13.1806 -1.46265 -5.11909
331 1 18.2725 -4.90139 -0.653704
333 1 19.5931 -4.78676 -1.08438
83 1 19.822 -4.4199 -2.4374
329 1 17.1896 -4.6774 -1.52497
79 1 17.4868 -4.1785 -2.84153
81 1 18.7761 -3.98055 -3.26764
82 1 19.05 -3.13867 -4.42526
160 1 22.1421 -0.626888 -6.35979
343 1 27.0562 -4.95151 -1.11535
339 1 24.3964 -5.03587 -0.209183
340 1 24.6603 -4.71432 -1.57249
93 1 26.0157 -4.67009 -2.0264
94 1 26.2308 -4.0119 -3.25023
96 1 27.602 -3.746 -3.582
97 1 27.87 -2.658 -4.45
335 1 20.7025 -4.86429 -0.239312
336 1 22.0213 -4.81594 -0.700287
87 1 22.2608 -4.54082 -2.06541
89 1 23.5897 -4.4954 -2.53353
90 1 23.8709 -3.77085 -3.75202
91 1 25.2166 -3.41507 -4.02954
92 1 25.5672 -2.28549 -4.84732
95 1 26.8561 -1.80692 -4.89758
166 1 27.1156 -0.488908 -5.22515
85 1 21.148 -4.21876 -2.87011
86 1 21.3677 -3.55354 -4.10728
88 1 22.7319 -3.31632 -4.50632
84 1 20.3674 -2.98297 -4.85047
163 1 24.585 -1.44126 -5.32755
107 1 -21.4438 1.06345 -5.22043
178 1 -21.2093 2.40946 -4.85202
104 1 -23.8761 1.45607 -5.1214
174 1 -23.6241 2.68008 -4.525
176 1 -22.3179 3.10794 -4.2916
177 1 -22.054 4.0949 -3.30842
179 1 -20.7157 4.37866 -2.91417
356 1 -20.4302 4.93676 -1.65118
98 1 -27.87 0 -5.183
99 1 -27.602 1.379 -4.996
169 1 -26.2337 1.85977 -4.90985
170 1 -26.0365 3.05226 -4.21173
172 1 -24.695 3.43919 -4.00542
173 1 -24.4585 4.29532 -2.8818
175 1 -23.1281 4.51839 -2.49716
352 1 -22.8559 4.98275 -1.17821
354 1 -21.483 5.07589 -0.764868
167 1 -27.1468 3.73484 -3.58919
168 1 -26.8118 4.47461 -2.45635
171 1 -25.4962 4.68458 -2.05855
349 1 -25.2605 4.99517 -0.713695
350 1 -23.9364 4.99983 -0.262082
345 1 -27.87 4.93 -1.602
346 1 -27.602 5.178 -0.233
109 1 -20.3562 0.150603 -5.27612
106 1 -22.7934 0.572882 -5.28852
102 1 -25.1804 0.999587 -5.23439
110 1 -18.991 0.615257 -5.35782
182 1 -18.7688 1.99814 -5.09374
185 1 -17.4332 2.4335 -4.89445
186 1 -17.1786 3.63293 -4.11434
180 1 -19.8845 2.81478 -4.64724
181 1 -19.6528 3.82177 -3.6744
183 1 -18.2967 4.17488 -3.40971
184 1 -18.0023 4.81898 -2.1829
358 1 -19.0717 4.99216 -1.2491
118 1 -12.5808 1.59595 -5.10332
194 1 -12.308 2.89467 -4.644
112 1 -16.5816 0.154048 -5.18405
113 1 -16.3395 1.5347 -5.09254
189 1 -15.0071 2.04829 -5.0127
190 1 -14.7116 3.324 -4.4012
192 1 -13.3387 3.60977 -4.07396
193 1 -13.1106 4.50418 -3.04953
187 1 -15.8236 3.97575 -3.79716
188 1 -15.4916 4.74027 -2.63357
191 1 -14.1777 4.94146 -2.21369
365 1 -13.8928 5.20933 -0.830697
366 1 -12.5473 5.09708 -0.319964
361 1 -16.6125 4.9916 -1.75036
362 1 -16.3006 5.14191 -0.372979
116 1 -13.9272 1.1731 -5.1819
124 1 -7.79714 0.6313 -5.00183
202 1 -7.52465 1.9774 -4.87519
205 1 -6.21038 2.43213 -4.83486
206 1 -5.95057 3.73244 -4.29504
121 1 -10.1827 1.15751 -5.03776
198 1 -9.90264 2.51863 -4.77503
200 1 -8.59776 2.88596 -4.5586
201 1 -8.34806 4.04046 -3.75845
203 1 -6.99516 4.32321 -3.50516
204 1 -6.66986 4.77594 -2.23883
196 1 -10.9694 3.30518 -4.32812
197 1 -10.705 4.3412 -3.40409
199 1 -9.40094 4.54069 -2.99855
372 1 -9.07776 5.002 -1.68924
374 1 -7.71106 5.00393 -1.28201
195 1 -11.7426 4.80132 -2.63488
368 1 -11.4711 5.13076 -1.25953
370 1 -10.119 5.13847 -0.731592
123 1 -9.12043 0.221345 -4.99694
120 1 -11.5168 0.710032 -5.07315
126 1 -5.39275 0.219887 -5.11293
127 1 -5.13626 1.56171 -5.13674
207 1 -4.67658 4.23395 -3.9697
208 1 -4.34367 4.67933 -2.66109
377 1 -5.39444 4.84608 -1.77249
378 1 -5.09368 4.98306 -0.392257
138 1 3.56138 0.452351 -5.43178
220 1 3.91262 1.77005 -5.20768
135 1 1.08042 1.02426 -5.42736
217 1 1.23985 2.3603 -5.11135
219 1 2.96718 4.08672 -3.82271
132 1 -1.30461 1.61664 -5.37153
213 1 -1.05098 2.94164 -4.84038
215 1 0.290447 3.21868 -4.57944
216 1 0.579474 4.16045 -3.50754
218 1 1.886 4.45146 -3.05468
388 1 2.13099 4.81747 -1.73478
390 1 3.46185 4.80231 -1.19487
209 1 -3.80687 1.95965 -5.38776
211 1 -2.0961 3.64642 -4.28162
212 1 -1.90747 4.40032 -3.09423
214 1 -0.534837 4.54592 -2.68931
384 1 -0.311932 4.87731 -1.33042
386 1 1.03404 4.89469 -0.876462
210 1 -2.99423 4.71724 -2.27989
381 1 -2.69259 4.9164 -0.936239
382 1 -1.36427 4.84275 -0.418251
137 1 2.16726 0.0992709 -5.42794
134 1 -0.272695 0.632438 -5.48996
130 1 -2.65732 1.10943 -5.39366
223 1 5.19439 2.25368 -5.00339
224 1 5.38907 3.39602 -4.09299
221 1 4.35623 4.0969 -3.41906
222 1 4.58931 4.54202 -2.0565
146 1 9.99868 1.29026 -5.19832
232 1 10.2168 2.50681 -4.53036
234 1 11.5446 2.89098 -4.2975
235 1 11.7579 3.86106 -3.31222
140 1 5.99273 -0.0265997 -5.47612
141 1 6.24538 1.36412 -5.32051
227 1 7.60349 1.77999 -5.11416
228 1 7.83751 2.9169 -4.26519
230 1 9.15794 3.19263 -3.93679
231 1 9.38141 4.00635 -2.84251
233 1 10.6879 4.32787 -2.51355
400 1 10.9383 4.8204 -1.21869
225 1 6.73674 3.5722 -3.66003
226 1 6.97827 4.27673 -2.47624
229 1 8.31189 4.40619 -2.01162
397 1 8.60442 4.80657 -0.707164
398 1 9.90961 4.9827 -0.299057
393 1 5.93677 4.61399 -1.57759
394 1 6.15573 4.81772 -0.219776
148 1 11.0568 0.354883 -5.40626
144 1 8.658 0.869433 -5.42806
158 1 19.8626 0.968733 -5.31149
152 1 14.7843 0.390577 -5.41804
240 1 15.0354 1.78412 -5.10672
243 1 16.3578 2.24587 -4.85064
244 1 16.6227 3.34169 -3.98217
149 1 12.3787 0.803413 -5.33185
236 1 12.6234 2.15271 -4.85365
238 1 13.9928 2.55921 -4.66825
239 1 14.2275 3.55682 -3.67146
241 1 15.567 3.95771 -3.33385
242 1 15.7929 4.66965 -2.11612
237 1 13.107 4.09492 -2.91153
404 1 13.3446 4.73109 -1.69174
406 1 14.7044 4.92974 -1.2331
402 1 12.312 4.94136 -0.782533
151 1 13.4498 -0.0722122 -5.41528
154 1 17.1355 -0.0345829 -5.40683
155 1 17.4094 1.36197 -5.18177
247 1 18.7568 1.81594 -5.00744
248 1 19.0321 2.97723 -4.2591
245 1 17.9789 3.69264 -3.66797
246 1 18.278 4.42315 -2.50298
249 1 19.6173 4.58797 -2.07305
413 1 19.8546 4.99736 -0.738498
409 1 17.1631 4.92289 -1.68628
410 1 17.3881 5.16927 -0.331289
161 1 22.3439 0.490698 -5.56008
165 1 26.0677 0.457807 -5.16802
260 1 26.3156 1.79295 -4.91926
263 1 27.602 2.249 -4.67
264 1 27.87 3.41 -3.903
162 1 23.66 0.882849 -5.27579
256 1 23.8855 2.1064 -4.59536
258 1 25.2212 2.53931 -4.399
259 1 25.4877 3.72199 -3.6718
261 1 26.8327 4.05339 -3.28285
262 1 27.1354 4.76127 -2.11088
159 1 21.2528 1.3147 -5.18195
252 1 21.4126 2.56493 -4.49806
254 1 22.7846 2.86856 -4.10799
255 1 23.059 3.94743 -3.26366
257 1 24.4174 4.32037 -2.96155
420 1 24.7017 4.86982 -1.70374
422 1 26.0506 5.05183 -1.22513
250 1 20.3622 3.30631 -3.9261
251 1 20.6968 4.23984 -2.8791
253 1 22.0199 4.46046 -2.4997
416 1 22.2802 4.95301 -1.19466
418 1 23.6287 4.99753 -0.737167
414 1 21.1978 5.08994 -0.293557
164 1 24.7596 -0.0463162 -5.2573
529 1 -21.8804 -1.33276 4.99081
438 1 -20.5282 -1.83973 4.80396
439 1 -20.2701 -3.09222 4.25824
526 1 -24.6066 -0.464165 5.14305
431 1 -24.3628 -1.80709 4.84288
434 1 -23.0087 -2.21249 4.71575
435 1 -22.7662 -3.32131 3.85367
436 1 -21.3866 -3.741 3.66425
437 1 -21.1836 -4.62389 2.58505
523 1 -27.0002 -0.901404 5.27696
427 1 -26.8103 -2.19223 4.65464
429 1 -25.4267 -2.61218 4.43441
430 1 -25.1971 -3.724 3.57706
432 1 -23.8297 -3.94697 3.22196
433 1 -23.5138 -4.65686 2.03979
273 1 -22.1818 -4.83259 1.6534
274 1 -21.9121 -5.102 0.300459
425 1 -27.87 -3.047 4.193
426 1 -27.602 -4.052 3.232
428 1 -26.2915 -4.27175 2.87502
268 1 -25.9604 -4.77863 1.64272
270 1 -24.5912 -4.9692 1.19466
266 1 -27.0579 -4.95233 0.749639
536 1 -17.1208 -0.520698 5.19877
532 1 -19.5183 -0.957124 5.04979
534 1 -18.2158 -1.44781 5.03377
443 1 -17.9306 -2.74659 4.51636
441 1 -18.9636 -3.4924 3.94727
442 1 -18.7502 -4.47385 2.96571
444 1 -17.4111 -4.72565 2.59668
280 1 -17.1574 -5.16683 1.27669
440 1 -19.8344 -4.8811 2.1932
277 1 -19.5549 -5.19284 0.842887
278 1 -18.2355 -5.25026 0.342752
540 1 -13.3806 -0.557149 5.14812
450 1 -13.0293 -1.93776 5.08184
537 1 -15.8087 -1.00038 5.05001
447 1 -15.5618 -2.40873 4.83112
449 1 -13.8601 -4.26163 3.76713
451 1 -12.491 -4.26395 3.44896
452 1 -12.2136 -4.77923 2.1541
445 1 -16.6047 -3.2004 4.35181
446 1 -16.337 -4.31501 3.41444
448 1 -15.0008 -4.61321 3.02512
284 1 -14.7373 -5.06441 1.74337
286 1 -13.3349 -5.0773 1.34002
282 1 -15.812 -5.23281 0.82184
550 1 -5.99319 -0.580951 5.39782
546 1 -8.34962 -1.01312 5.25143
548 1 -7.03073 -1.50633 5.115
462 1 -6.71071 -2.75533 4.60529
543 1 -10.6992 -1.45818 5.04413
457 1 -9.33249 -1.86303 4.9616
458 1 -9.06159 -3.07657 4.23888
460 1 -7.75229 -3.46775 4.01533
461 1 -7.519 -4.46189 3.01116
463 1 -6.15329 -4.64328 2.64595
296 1 -5.81282 -5.03094 1.32349
453 1 -11.7383 -2.34846 4.88451
454 1 -11.4701 -3.54132 4.1348
455 1 -10.1288 -3.7802 3.70991
456 1 -9.85616 -4.53253 2.59179
459 1 -8.54479 -4.77187 2.15201
293 1 -8.24649 -5.11194 0.796144
294 1 -6.8801 -5.08161 0.373915
289 1 -10.8996 -4.92576 1.6811
290 1 -10.6561 -5.20356 0.310161
551 1 -4.6199 -0.989108 5.39567
466 1 -4.34355 -2.36018 4.98912
464 1 -5.38172 -3.16419 4.48956
465 1 -5.10626 -4.09846 3.48096
298 1 -4.47796 -4.96626 0.90068
560 1 2.95445 -0.984653 5.46829
557 1 0.545982 -1.44156 5.32401
477 1 1.88165 -1.83717 5.16272
478 1 2.15929 -3.03949 4.42762
480 1 3.50562 -3.32315 4.06312
481 1 3.78169 -4.17814 2.95222
554 1 -2.18213 -0.495499 5.38276
470 1 -1.89898 -1.88636 5.35168
473 1 -0.53088 -2.29345 5.02807
474 1 -0.254455 -3.3822 4.1905
475 1 1.07476 -3.67426 3.75877
476 1 1.34204 -4.33437 2.55253
479 1 2.70221 -4.56357 2.10819
309 1 2.93972 -4.90706 0.777942
468 1 -2.98195 -2.76525 4.95206
469 1 -2.69445 -3.76422 3.94131
471 1 -1.34101 -3.9065 3.48734
472 1 -1.04222 -4.42541 2.19951
305 1 0.288249 -4.58801 1.66825
306 1 0.550108 -4.84353 0.299423
467 1 -3.76841 -4.27097 3.15233
300 1 -3.47146 -4.74769 1.88884
302 1 -2.12519 -4.74237 1.37159
564 1 5.33115 -0.424316 5.47104
562 1 4.30461 -1.40024 5.35636
482 1 4.5683 -2.65664 4.67426
483 1 5.10338 -4.37783 2.51016
312 1 5.35907 -4.79399 1.20799
310 1 4.2597 -4.86333 0.307358
571 1 11.7615 -1.32009 5.18065
568 1 8.97682 -0.389909 5.34697
490 1 9.28129 -1.72543 4.95728
493 1 10.6592 -2.12592 4.74138
494 1 10.9342 -3.17217 3.89134
565 1 6.62977 -0.855309 5.34912
486 1 6.89408 -2.17697 4.87452
488 1 8.21463 -2.53431 4.61257
489 1 8.55126 -3.53711 3.62431
491 1 9.89029 -3.74971 3.21431
492 1 10.156 -4.40586 2.00247
321 1 11.4672 -4.56145 1.56505
322 1 11.7303 -4.84869 0.206599
484 1 5.87779 -3.01149 4.35329
485 1 6.17493 -3.98391 3.31151
487 1 7.52688 -4.10748 2.89876
316 1 7.75061 -4.50734 1.54722
318 1 9.09844 -4.63553 1.09121
314 1 6.68456 -4.8094 0.690779
578 1 16.5981 -0.404289 5.27087
574 1 14.2461 -0.881613 5.33422
576 1 15.5723 -1.32116 5.1874
502 1 15.8337 -2.59266 4.58624
497 1 13.1447 -1.74347 5.04401
498 1 13.4035 -2.91412 4.27534
500 1 14.7461 -3.30281 3.98689
501 1 14.9951 -4.06235 2.79109
503 1 16.3639 -4.29437 2.38345
328 1 16.6052 -4.87243 1.15564
495 1 12.2763 -3.45468 3.57651
496 1 12.5536 -4.19215 2.37083
499 1 13.913 -4.4116 1.96814
325 1 14.1638 -4.86871 0.656814
326 1 15.5194 -5.01485 0.255581
579 1 17.9353 -0.922757 5.28378
506 1 18.194 -2.24077 4.8373
508 1 19.4832 -2.73187 4.62094
509 1 19.7955 -3.65139 3.58216
504 1 17.1145 -2.93529 4.23796
505 1 17.4073 -3.77964 3.17055
507 1 18.7529 -4.06274 2.79333
332 1 19.0796 -4.70542 1.56708
330 1 17.9738 -4.92217 0.720582
592 1 27.87 -0.465 5.162
588 1 25.4679 -0.907588 5.14897
590 1 26.7888 -1.33281 5.03474
521 1 27.0356 -2.53008 4.44539
585 1 23.043 -1.31933 5.22652
516 1 24.3649 -1.74644 4.92678
517 1 24.6493 -2.96295 4.22871
519 1 26.0082 -3.33693 3.87163
520 1 26.2749 -4.26479 2.88246
522 1 27.602 -4.564 2.456
344 1 27.87 -5.053 1.153
582 1 20.3673 -0.30278 5.48417
512 1 22.0086 -2.23076 4.93165
513 1 22.2354 -3.34396 4.05414
514 1 23.5725 -3.59773 3.57941
515 1 23.8593 -4.37649 2.45563
518 1 25.2019 -4.58921 2.05961
341 1 25.441 -5.0305 0.748758
342 1 26.7832 -5.10771 0.293037
510 1 21.1552 -3.85686 3.26635
511 1 21.463 -4.46221 2.01462
337 1 22.7974 -4.7082 1.61071
338 1 23.0738 -4.95421 0.25165
334 1 20.4147 -4.74503 1.11121
355 1 -21.2409 4.93246 0.60301
351 1 -23.6428 4.8744 1.09327
353 1 -22.2699 4.7243 1.52387
604 1 -21.9769 4.26702 2.86315
606 1 -20.5734 4.07643 3.23101
607 1 -20.3235 3.10708 4.24821
347 1 -26.2949 5.10283 0.217029
348 1 -25.9934 4.88228 1.61441
599 1 -24.6509 4.64229 2.01712
600 1 -24.3267 3.95636 3.20858
602 1 -22.9799 3.7094 3.62625
603 1 -22.7097 2.6751 4.45802
605 1 -21.393 2.30616 4.74254
530 1 -21.1075 0.961365 5.12576
595 1 -27.0703 4.46705 2.38272
596 1 -26.7867 3.67216 3.53274
597 1 -25.4402 3.34472 3.88267
598 1 -25.1305 2.21439 4.62384
601 1 -23.7682 1.81287 4.76358
527 1 -23.5136 0.476396 5.06691
528 1 -22.1406 0.0527472 5.17865
593 1 -27.87 3.047 4.193
594 1 -27.602 1.821 4.853
524 1 -26.2285 1.36566 4.94687
525 1 -25.9353 0.0141018 5.17839
359 1 -18.788 5.02645 0.151405
360 1 -17.3946 4.94654 0.553455
612 1 -17.154 4.54909 1.9243
357 1 -19.8574 4.90162 1.0762
608 1 -19.5247 4.46642 2.3926
610 1 -18.1904 4.23807 2.80886
611 1 -17.917 3.33768 3.91756
609 1 -19.0113 2.61008 4.44656
533 1 -18.6974 1.30516 5.02097
535 1 -17.3541 0.810291 5.02634
531 1 -19.7864 0.435074 5.23143
367 1 -12.3194 4.86465 1.10828
363 1 -14.9707 5.19695 0.101971
364 1 -14.6706 4.8165 1.49541
619 1 -13.3462 4.54756 2.003
620 1 -13.0567 3.78986 3.0947
615 1 -15.7864 4.36135 2.29706
616 1 -15.4763 3.53768 3.40887
617 1 -14.1242 3.18355 3.70601
618 1 -13.911 2.06654 4.5382
621 1 -12.5959 1.68988 4.77258
541 1 -12.3168 0.361949 5.10711
613 1 -16.5477 2.91761 4.12075
614 1 -16.2873 1.73205 4.77604
538 1 -14.9606 1.248 4.88574
539 1 -14.7346 -0.120963 5.13293
375 1 -7.45442 4.9765 0.123908
376 1 -6.13028 4.86316 0.525239
632 1 -5.90783 4.39395 1.84934
371 1 -9.87481 5.02005 0.632062
373 1 -8.50721 4.88482 1.1107
628 1 -8.24566 4.38856 2.4018
630 1 -6.92158 4.05687 2.76893
631 1 -6.74642 3.19435 3.89157
369 1 -10.9734 4.76628 1.53951
624 1 -10.6932 4.15129 2.77847
626 1 -9.3473 3.89163 3.13975
627 1 -9.15386 2.90222 4.18554
629 1 -7.80589 2.51305 4.51434
547 1 -7.56215 1.28867 5.20591
549 1 -6.22248 0.841499 5.33543
622 1 -11.7183 3.50516 3.45833
623 1 -11.5384 2.50245 4.36762
625 1 -10.2566 2.14144 4.68478
544 1 -9.93468 0.838563 5.16319
545 1 -8.62929 0.370785 5.31399
542 1 -11.0092 -0.0699682 5.25313
635 1 -4.58429 4.22296 2.26241
636 1 -4.3446 3.46179 3.45218
633 1 -5.41273 2.88532 4.20413
634 1 -5.11696 1.73308 4.99771
391 1 3.71936 4.82044 0.197658
387 1 1.32466 4.71023 0.505456
389 1 2.6221 4.6947 1.03887
648 1 2.91487 4.29086 2.36016
383 1 -1.08622 4.58764 0.962101
385 1 0.277542 4.46446 1.39331
644 1 0.554776 3.91378 2.66203
646 1 1.85078 3.78962 3.13544
647 1 2.06332 2.90836 4.21258
649 1 3.37526 2.53062 4.55219
561 1 3.67183 1.29413 5.30422
379 1 -3.76947 4.87282 0.00433362
380 1 -3.51471 4.56455 1.37101
639 1 -2.14973 4.3163 1.80879
640 1 -1.8747 3.6669 3.05251
642 1 -0.532123 3.4238 3.41891
643 1 -0.293599 2.49501 4.43674
645 1 1.03722 2.10044 4.79614
558 1 1.29924 0.852706 5.43053
559 1 2.63232 0.368262 5.53092
637 1 -3.00134 3.1292 3.79225
638 1 -2.68805 2.08843 4.7542
641 1 -1.33988 1.70623 4.90952
555 1 -1.08867 0.439535 5.40401
556 1 0.252064 -0.0448995 5.51502
552 1 -3.77569 1.28561 5.20056
553 1 -3.52321 -0.0589516 5.48946
392 1 5.06395 4.8161 0.666328
652 1 5.31837 4.51309 2.03503
650 1 4.21445 4.08428 2.80176
651 1 4.42229 3.27952 3.92718
563 1 5.04799 0.924791 5.37384
399 1 10.145 4.90926 1.1058
401 1 11.4921 4.77575 1.50047
664 1 11.7343 4.20894 2.73706
395 1 7.50418 4.8614 0.2153
396 1 7.76662 4.78417 1.60589
659 1 9.07212 4.65736 2.0037
660 1 9.30968 4.0002 3.22929
662 1 10.6431 3.65086 3.48855
663 1 10.9499 2.58119 4.34669
655 1 6.65978 4.47589 2.48915
656 1 6.87222 3.69786 3.65018
657 1 8.2293 3.36833 3.94974
658 1 8.55889 2.29461 4.80785
661 1 9.85948 1.85123 4.87837
569 1 10.1089 0.510767 5.25565
570 1 11.4563 0.062164 5.28936
653 1 5.74759 3.03016 4.29898
654 1 6.09908 1.85169 5.04066
566 1 7.48 1.48425 5.17163
567 1 7.70618 0.120007 5.42406
407 1 14.9691 5.09825 0.129091
408 1 16.3056 5.09848 0.595218
672 1 16.5464 4.72271 1.96743
403 1 12.5576 5.00081 0.613742
405 1 13.8906 4.95116 1.04006
668 1 14.1733 4.43546 2.31338
670 1 15.4887 4.29662 2.78172
671 1 15.795 3.39234 3.86252
666 1 13.1092 3.98962 3.05592
667 1 13.3503 3.0276 4.05319
669 1 14.7086 2.65405 4.37428
575 1 14.9756 1.40089 4.97747
577 1 16.3386 0.944424 5.16849
665 1 12.2959 2.23698 4.57986
572 1 12.563 0.963443 5.10578
573 1 13.9038 0.519725 5.27093
411 1 18.7325 5.07912 0.117381
412 1 18.9759 4.84076 1.50229
675 1 17.8967 4.51791 2.41802
676 1 18.2543 3.72906 3.57119
677 1 19.5873 3.36358 3.84781
678 1 19.8645 2.18933 4.62269
673 1 17.1471 3.02426 4.16673
674 1 17.4265 1.81412 4.93586
580 1 18.7632 1.39051 5.09288
581 1 18.9876 0.0113286 5.44473
423 1 26.2757 5.11628 0.187974
424 1 27.602 5.136 0.696
692 1 27.87 4.766 2.037
419 1 23.891 4.94887 0.645031
421 1 25.2271 4.93129 1.07256
688 1 25.4544 4.4711 2.37463
690 1 26.7926 4.2895 2.80125
691 1 27.0405 3.51135 3.9595
415 1 21.493 4.9272 1.0813
417 1 22.8103 4.76903 1.50149
684 1 23.029 4.26785 2.78496
686 1 24.3702 4.07053 3.1972
687 1 24.689 3.09475 4.1922
689 1 25.9992 2.74954 4.53006
589 1 26.2877 1.41956 4.98622
591 1 27.602 0.925 5.1
679 1 20.3684 4.66472 1.93802
680 1 20.6286 4.03045 3.16982
682 1 21.9837 3.7545 3.5605
683 1 22.2382 2.7133 4.4772
685 1 23.5909 2.29206 4.68579
586 1 23.9078 0.984417 5.12374
587 1 25.2367 0.495408 5.12734
681 1 21.1867 1.83911 4.86491
583 1 21.5069 0.566487 5.37325
584 1 22.8281 0.0860088 5.33895
ITEM: TIMESTEP
700
ITEM: NUMBER OF ATOMS
692
ITEM: BOX BOUNDS ff ff ff
-6.0000000000000000e+01 6.0000000000000000e+01
-4.0000000000000000e+01 4.0000000000000000e+01
-4.0000000000000000e+01 4.0000000000000000e+01
ITEM: ATOMS id type x y z
275 1 -20.6153 -5.05053 -0.291927
276 1 -20.3177 -4.89781 -1.60803
271 1 -24.4069 -5.36811 -0.318869
272 1 -23.0378 -5.22569 -0.82473
8 1 -22.7336 -4.77413 -2.11025
11 1 -21.4001 -4.57101 -2.45205
12 1 -21.1047 -3.72498 -3.50603
267 1 -26.8587 -5.35126 -0.696991
269 1 -25.5566 -5.42772 -1.18032
6 1 -23.7419 -4.44968 -2.98733
7 1 -23.5232 -3.3218 -3.78166
9 1 -22.1634 -2.90773 -4.02056
10 1 -21.8814 -1.65631 -4.65628
108 1 -20.5559 -1.214 -4.85177
265 1 -27.87 -4.93 -1.602
1 1 -27.602 -4.326 -2.855
3 1 -26.3364 -4.1156 -3.44204
4 1 -25.9544 -2.96701 -4.17536
5 1 -24.5539 -2.52372 -4.306
103 1 -24.2872 -1.20705 -4.76355
105 1 -22.9591 -0.762407 -4.82353
2 1 -26.9825 -2.15425 -4.59976
100 1 -26.747 -0.829765 -5.08019
101 1 -25.382 -0.343908 -5.08326
279 1 -17.8642 -4.97267 -1.12905
15 1 -18.9495 -4.66734 -1.99256
16 1 -18.6996 -4.04981 -3.24224
18 1 -17.3553 -3.7665 -3.54702
19 1 -17.1153 -2.59807 -4.34199
13 1 -19.7825 -3.33823 -3.86881
14 1 -19.4988 -2.12529 -4.59554
17 1 -18.1691 -1.65937 -4.68104
111 1 -17.8722 -0.307507 -4.94796
287 1 -13.0244 -4.87005 -0.133959
283 1 -15.4062 -5.00653 -0.575739
285 1 -14.102 -4.83458 -0.97382
24 1 -13.8366 -4.37384 -2.28844
26 1 -12.5298 -4.06306 -2.67872
27 1 -12.2664 -3.1726 -3.74688
281 1 -16.4951 -4.88367 -1.49717
20 1 -16.2704 -4.28005 -2.7616
22 1 -14.9417 -3.95296 -3.11396
23 1 -14.6629 -2.98263 -4.08914
25 1 -13.3435 -2.53107 -4.36263
117 1 -13.1178 -1.28597 -4.96198
21 1 -15.7711 -2.20912 -4.54334
114 1 -15.5003 -0.876659 -4.98154
115 1 -14.1952 -0.43316 -5.10794
295 1 -6.71527 -4.63265 -1.06055
291 1 -9.35118 -4.83111 -0.129801
292 1 -9.07985 -4.52971 -1.47437
35 1 -7.75473 -4.31661 -1.9155
36 1 -7.4921 -3.69107 -3.13208
38 1 -6.17445 -3.38252 -3.56004
39 1 -5.95928 -2.30772 -4.44773
288 1 -11.7013 -4.85137 -0.561804
28 1 -11.4453 -4.46789 -1.88502
31 1 -10.1291 -4.20436 -2.32154
32 1 -9.89028 -3.47117 -3.43326
33 1 -8.60285 -3.17692 -3.82808
34 1 -8.37718 -2.07405 -4.68315
37 1 -7.05505 -1.58924 -4.94729
125 1 -6.80124 -0.246503 -5.27444
29 1 -10.9419 -2.78412 -3.97945
30 1 -10.7342 -1.6471 -4.77832
122 1 -9.4335 -1.2201 -5.0461
119 1 -11.8259 -0.833353 -5.06645
299 1 -4.30503 -4.77296 -0.672189
297 1 -5.39452 -4.54008 -1.52605
40 1 -5.15339 -3.95299 -2.79686
41 1 -4.59539 -1.97221 -4.67941
128 1 -4.32669 -0.71016 -5.17281
307 1 1.8203 -4.94108 -0.18309
308 1 2.08556 -4.70654 -1.56401
55 1 3.44355 -4.48773 -1.94556
56 1 3.6999 -3.83776 -3.15582
303 1 -1.93873 -4.86401 -0.187852
304 1 -0.627106 -4.8843 -0.658856
48 1 -0.328695 -4.4816 -1.96889
51 1 1.02382 -4.30887 -2.446
52 1 1.31656 -3.44599 -3.49546
53 1 2.62808 -3.13636 -3.81391
54 1 2.84531 -2.04288 -4.67773
301 1 -2.98381 -4.71221 -1.13048
44 1 -2.71781 -4.22426 -2.39454
46 1 -1.40449 -4.02605 -2.76073
47 1 -1.10439 -3.1431 -3.78734
49 1 0.249468 -2.77236 -4.05557
50 1 0.490996 -1.63271 -4.82072
136 1 1.80577 -1.20636 -5.01905
42 1 -3.82186 -3.74265 -3.14379
43 1 -3.5205 -2.7325 -4.09178
45 1 -2.17651 -2.3831 -4.22958
131 1 -1.94132 -1.13904 -4.90483
133 1 -0.649776 -0.759985 -5.05156
129 1 -3.0154 -0.279235 -5.23282
311 1 4.50345 -4.71358 -1.08794
58 1 5.02945 -3.54932 -3.5474
59 1 5.26765 -2.47294 -4.38797
57 1 4.19223 -1.67529 -4.85056
139 1 4.52561 -0.371901 -5.24604
319 1 9.32795 -5.00492 -0.19133
320 1 10.6607 -4.99089 -0.622527
68 1 10.8925 -4.62842 -1.99283
315 1 6.92866 -4.82909 -0.660464
317 1 8.28131 -4.84066 -1.12439
64 1 8.46773 -4.4136 -2.46405
66 1 9.84743 -4.27216 -2.93724
67 1 10.1058 -3.44343 -4.04178
69 1 11.4117 -3.18111 -4.51171
70 1 11.739 -1.87037 -4.82648
313 1 5.83292 -4.61227 -1.52885
60 1 6.06428 -4.11332 -2.78458
62 1 7.38503 -3.95566 -3.22582
63 1 7.67455 -3.00675 -4.19777
65 1 9.02464 -2.6502 -4.46488
145 1 9.27615 -1.36427 -5.00135
147 1 10.6537 -0.987446 -5.04593
61 1 6.63009 -2.19519 -4.64582
142 1 6.92231 -0.901615 -5.10866
143 1 8.26204 -0.448491 -5.15406
157 1 19.4344 -0.412392 -5.51605
156 1 18.1491 -0.930452 -5.27212
80 1 17.9083 -2.24817 -4.80041
327 1 15.7795 -4.72101 -1.11722
323 1 13.065 -4.93387 -0.173736
324 1 13.3411 -4.65258 -1.49304
74 1 14.688 -4.45599 -1.95975
75 1 14.9522 -3.88306 -3.21429
77 1 16.2584 -3.66941 -3.55609
78 1 16.5776 -2.64724 -4.50728
71 1 12.2293 -4.5104 -2.32777
72 1 13.9529 -3.44445 -4.01292
73 1 14.1356 -2.24864 -4.74379
76 1 15.4663 -1.82385 -4.92225
153 1 15.6985 -0.453389 -5.18929
150 1 13.0646 -1.39521 -4.92897
331 1 18.1982 -4.82772 -0.637234
333 1 19.5357 -4.75852 -1.06294
83 1 19.7727 -4.24301 -2.31971
329 1 17.1215 -4.59344 -1.52513
79 1 17.3826 -4.14838 -2.8297
81 1 18.7097 -3.86435 -3.20418
82 1 18.9997 -3.05164 -4.34834
160 1 21.9636 -0.494566 -6.33703
343 1 27.0155 -4.98017 -1.12287
339 1 24.336 -5.15478 -0.157238
340 1 24.612 -4.7722 -1.48851
93 1 25.9559 -4.67295 -1.99267
94 1 26.2726 -3.91827 -3.11449
96 1 27.602 -3.746 -3.582
97 1 27.87 -2.658 -4.45
335 1 20.5696 -4.89752 -0.133896
336 1 21.9381 -4.94249 -0.582215
87 1 22.2448 -4.52879 -1.9294
89 1 23.5534 -4.39684 -2.33329
90 1 23.8162 -3.61759 -3.4738
91 1 25.185 -3.31827 -3.82012
92 1 25.4875 -2.1786 -4.65306
95 1 26.8309 -1.8119 -4.86254
166 1 27.1284 -0.489699 -5.18789
85 1 21.1081 -4.09252 -2.7264
86 1 21.3854 -3.39604 -3.9169
88 1 22.7072 -3.16209 -4.28639
84 1 20.3674 -2.76942 -4.62294
163 1 24.4854 -1.39085 -5.16758
107 1 -21.4214 1.09124 -4.97678
178 1 -21.1625 2.41883 -4.55191
104 1 -23.844 1.51253 -4.89908
174 1 -23.6083 2.77122 -4.29754
176 1 -22.2764 3.21844 -4.12641
177 1 -21.9526 4.22727 -3.20703
179 1 -20.6161 4.48047 -2.88624
356 1 -20.3596 5.04885 -1.61695
98 1 -27.87 0 -5.183
99 1 -27.602 1.379 -4.996
169 1 -26.3255 1.88668 -4.80443
170 1 -26.0668 3.10281 -4.1354
172 1 -24.7356 3.45343 -3.8047
173 1 -24.389 4.38986 -2.81321
175 1 -23.0491 4.66468 -2.41356
352 1 -22.7791 5.10681 -1.11393
354 1 -21.4104 5.19664 -0.733196
167 1 -27.1744 3.70382 -3.45009
168 1 -26.8114 4.56468 -2.371
171 1 -25.4377 4.81418 -1.9933
349 1 -25.2291 5.18347 -0.665939
350 1 -23.8748 5.26113 -0.234664
345 1 -27.87 4.93 -1.602
346 1 -27.602 5.178 -0.233
109 1 -20.2882 0.204564 -4.9473
106 1 -22.7552 0.629097 -5.05628
102 1 -25.1996 1.06336 -5.05422
110 1 -18.9475 0.630409 -4.93317
182 1 -18.6922 1.96712 -4.7625
185 1 -17.3652 2.36887 -4.58104
186 1 -17.1137 3.54292 -3.90262
180 1 -19.8085 2.77208 -4.35227
181 1 -19.5326 3.88988 -3.56265
183 1 -18.1842 4.15253 -3.22786
184 1 -17.9264 4.87156 -2.03953
358 1 -19.0181 5.10774 -1.16217
118 1 -12.6267 1.47419 -5.02721
194 1 -12.3415 2.80213 -4.60667
112 1 -16.5458 0.0506997 -5.02717
113 1 -16.29 1.46635 -4.86139
189 1 -14.9691 1.84342 -4.70196
190 1 -14.7201 3.1199 -4.15691
192 1 -13.3799 3.51661 -3.95629
193 1 -13.0804 4.38828 -2.81358
187 1 -15.7996 3.78957 -3.52719
188 1 -15.497 4.63555 -2.41838
191 1 -14.1568 4.74906 -1.98295
365 1 -13.923 5.10595 -0.646033
366 1 -12.5317 5.11916 -0.202158
361 1 -16.5589 5.02208 -1.60119
362 1 -16.3798 5.17133 -0.190365
116 1 -13.9435 0.947057 -4.93383
124 1 -7.86622 0.656221 -5.29974
202 1 -7.55329 2.02845 -5.08221
205 1 -6.24429 2.41188 -4.92359
206 1 -5.96996 3.54305 -4.14145
121 1 -10.2639 1.06664 -5.24254
198 1 -9.97766 2.41347 -4.8839
200 1 -8.63896 2.8238 -4.65869
201 1 -8.34422 3.83826 -3.71054
203 1 -6.95249 4.05817 -3.31765
204 1 -6.66983 4.62523 -2.07397
196 1 -11.023 3.1802 -4.32735
197 1 -10.6909 4.08583 -3.27965
199 1 -9.40029 4.3364 -2.92397
372 1 -9.08173 4.82236 -1.63646
374 1 -7.73335 4.99018 -1.20953
195 1 -11.7417 4.53027 -2.41945
368 1 -11.4738 4.93097 -1.13625
370 1 -10.1209 4.97995 -0.745453
123 1 -9.19328 0.159876 -5.30147
120 1 -11.5788 0.55854 -5.24719
126 1 -5.43629 0.17585 -5.38712
127 1 -5.17535 1.55465 -5.32134
207 1 -4.66874 3.91896 -3.78521
208 1 -4.26044 4.42608 -2.50545
377 1 -5.31753 4.72311 -1.6606
378 1 -5.07339 4.96026 -0.305712
138 1 3.50573 0.535316 -5.43333
220 1 3.89571 1.88646 -5.23444
135 1 0.983926 1.00292 -5.34604
217 1 1.22844 2.33176 -5.11097
219 1 2.99379 3.94087 -3.84412
132 1 -1.40238 1.58126 -5.35488
213 1 -1.07761 2.88827 -4.93011
215 1 0.256947 3.18137 -4.55444
216 1 0.525721 3.92298 -3.37421
218 1 1.8641 4.16409 -2.91422
388 1 2.0991 4.57476 -1.56662
390 1 3.48022 4.80638 -1.23214
209 1 -3.83865 1.93673 -5.46377
211 1 -2.11085 3.52163 -4.25738
212 1 -1.88469 4.24738 -3.033
214 1 -0.540085 4.33513 -2.52105
384 1 -0.301689 4.73328 -1.19422
386 1 1.06612 4.74462 -0.715458
210 1 -2.93112 4.5035 -2.10724
381 1 -2.65575 4.81874 -0.769992
382 1 -1.32874 4.85419 -0.287327
137 1 2.09934 0.157862 -5.33963
134 1 -0.34513 0.6004 -5.25957
130 1 -2.72519 1.08024 -5.42304
223 1 5.1688 2.32065 -4.91998
224 1 5.4046 3.495 -4.17414
221 1 4.34243 4.09893 -3.43622
222 1 4.55732 4.66595 -2.17812
146 1 9.86233 1.32578 -4.8676
232 1 10.1541 2.61326 -4.39928
234 1 11.5122 2.96257 -4.18774
235 1 11.7333 3.99586 -3.26287
140 1 5.9 0.0569304 -5.30064
141 1 6.20525 1.41551 -5.0815
227 1 7.53056 1.79162 -4.85576
228 1 7.79373 3.05126 -4.29938
230 1 9.11953 3.42458 -3.98232
231 1 9.36672 4.32837 -2.92802
233 1 10.685 4.54163 -2.50235
400 1 10.9536 4.95336 -1.18557
225 1 6.71903 3.72766 -3.71189
226 1 6.98632 4.47936 -2.59454
229 1 8.32369 4.72525 -2.13415
397 1 8.5677 5.0358 -0.750999
398 1 9.89607 5.05817 -0.302037
393 1 5.90657 4.84779 -1.79382
394 1 6.17277 4.98053 -0.380259
148 1 10.9008 0.400465 -5.01339
144 1 8.54807 0.925267 -5.06543
158 1 19.7567 0.975334 -5.4693
152 1 14.6271 0.437957 -5.17199
240 1 14.9405 1.81586 -4.94686
243 1 16.2969 2.23998 -4.7589
244 1 16.577 3.42783 -4.02352
149 1 12.2452 0.879996 -4.97781
236 1 12.537 2.19564 -4.68471
238 1 13.8657 2.61301 -4.55475
239 1 14.1093 3.69239 -3.68266
241 1 15.4841 3.97071 -3.37355
242 1 15.7593 4.60162 -2.09009
237 1 13.0597 4.27262 -2.93342
404 1 13.3884 4.75755 -1.63585
406 1 14.7197 4.8548 -1.18132
402 1 12.2972 4.91338 -0.71329
151 1 13.279 -0.0317586 -5.16176
154 1 17.0384 -0.0353537 -5.25347
155 1 17.3484 1.37891 -5.11893
247 1 18.705 1.86386 -5.10022
248 1 19.0102 2.99129 -4.23644
245 1 17.9421 3.71757 -3.65965
246 1 18.1831 4.54047 -2.52815
249 1 19.5352 4.67456 -2.06924
413 1 19.7573 4.97009 -0.684278
409 1 17.117 4.83351 -1.63628
410 1 17.3618 5.02232 -0.206844
161 1 22.2174 0.650612 -5.58392
165 1 26.0387 0.437402 -5.24792
260 1 26.2752 1.78284 -4.9111
263 1 27.602 2.249 -4.67
264 1 27.87 3.41 -3.903
162 1 23.5851 0.92985 -5.23622
256 1 23.8292 2.21608 -4.7268
258 1 25.1656 2.56749 -4.45171
259 1 25.4322 3.62085 -3.50527
261 1 26.7953 3.99254 -3.1807
262 1 27.0447 4.63283 -1.99753
159 1 21.1104 1.4394 -5.2415
252 1 21.4137 2.61685 -4.53032
254 1 22.7376 2.97 -4.23516
255 1 22.9943 3.89367 -3.21178
257 1 24.3359 4.14536 -2.83059
420 1 24.6063 4.86782 -1.65853
422 1 25.9193 4.93521 -1.18764
250 1 20.3475 3.33378 -3.91916
251 1 20.5918 4.18799 -2.88529
253 1 21.9319 4.3559 -2.3992
416 1 22.2115 4.89542 -1.14739
418 1 23.5528 5.03056 -0.698915
414 1 21.1302 4.96262 -0.231258
164 1 24.6663 -0.0285018 -5.38459
529 1 -22.0041 -1.46328 4.90244
438 1 -20.7046 -1.94999 4.78325
439 1 -20.4153 -3.13225 4.07894
526 1 -24.6961 -0.542851 5.10052
431 1 -24.3988 -1.84442 4.74483
434 1 -23.065 -2.28182 4.49336
435 1 -22.7734 -3.37144 3.73012
436 1 -21.4582 -3.7705 3.39455
437 1 -21.2159 -4.45952 2.26049
523 1 -26.9975 -1.03207 5.14171
427 1 -26.7899 -2.29436 4.65638
429 1 -25.4683 -2.68998 4.40891
430 1 -25.225 -3.69473 3.45816
432 1 -23.8655 -3.99596 3.11024
433 1 -23.5968 -4.74671 1.93689
273 1 -22.2528 -4.82251 1.47104
274 1 -21.9811 -5.07252 0.122503
425 1 -27.87 -3.047 4.193
426 1 -27.602 -4.052 3.232
428 1 -26.2846 -4.31436 2.77655
268 1 -26.0618 -4.95729 1.52651
270 1 -24.6936 -5.04867 1.08127
266 1 -27.0946 -5.30514 0.681029
536 1 -17.253 -0.60675 5.16611
532 1 -19.7228 -1.07573 5.06275
534 1 -18.3735 -1.51264 4.98647
443 1 -18.1373 -2.7873 4.43266
441 1 -19.101 -3.48389 3.76313
442 1 -18.7824 -4.35387 2.67749
444 1 -17.4256 -4.52649 2.39064
280 1 -17.1046 -4.93212 1.10904
440 1 -19.8517 -4.68158 1.85599
277 1 -19.5348 -4.99663 0.559498
278 1 -18.1517 -5.0961 0.200396
540 1 -13.4768 -0.563272 5.249
450 1 -13.0891 -1.92732 5.16993
537 1 -15.9342 -1.04859 5.17916
447 1 -15.8071 -2.44016 4.94759
449 1 -13.9013 -4.16664 3.9097
451 1 -12.5859 -4.23332 3.49102
452 1 -12.3028 -4.62522 2.14727
445 1 -16.7882 -3.19973 4.31171
446 1 -16.3995 -4.16064 3.30815
448 1 -14.9929 -4.4189 2.99439
284 1 -14.7125 -4.74218 1.67885
286 1 -13.3564 -4.78688 1.26223
282 1 -15.771 -4.98548 0.76808
550 1 -5.85496 -0.426854 5.27702
546 1 -8.28541 -1.0197 5.20244
548 1 -6.93613 -1.39748 5.14098
462 1 -6.70867 -2.66679 4.57731
543 1 -10.6833 -1.5556 5.2995
457 1 -9.34353 -1.94421 5.11071
458 1 -9.0928 -3.16249 4.42094
460 1 -7.79107 -3.3751 3.99489
461 1 -7.4882 -4.20811 2.89442
463 1 -6.13636 -4.40707 2.45149
296 1 -5.86352 -4.76167 1.15382
453 1 -11.7603 -2.41968 4.99488
454 1 -11.5373 -3.56123 4.17008
455 1 -10.1812 -3.82785 3.81494
456 1 -9.88026 -4.48041 2.56556
459 1 -8.50039 -4.67267 2.1174
293 1 -8.27231 -4.84975 0.763913
294 1 -6.95167 -4.8454 0.289961
289 1 -10.9753 -4.70849 1.67182
290 1 -10.6369 -4.89586 0.30846
551 1 -4.48408 -0.887403 5.21247
466 1 -4.25603 -2.25005 4.78041
464 1 -5.35603 -2.99477 4.30125
465 1 -5.08569 -3.92217 3.27922
298 1 -4.56078 -4.75401 0.705143
560 1 2.98029 -0.867032 5.131
557 1 0.629394 -1.31508 5.10538
477 1 1.94351 -1.74342 4.91154
478 1 2.19667 -2.94478 4.23339
480 1 3.54201 -3.29685 3.96361
481 1 3.78711 -4.1515 2.8911
554 1 -2.02402 -0.456757 5.16395
470 1 -1.79634 -1.79331 4.91772
473 1 -0.432736 -2.22078 4.78939
474 1 -0.188871 -3.29948 3.95763
475 1 1.11399 -3.61096 3.56562
476 1 1.364 -4.46604 2.48266
479 1 2.69489 -4.59511 2.08531
309 1 2.91747 -4.85946 0.710522
468 1 -2.89522 -2.60507 4.54706
469 1 -2.67417 -3.62909 3.66972
471 1 -1.30435 -3.89832 3.34951
472 1 -1.03111 -4.54258 2.11896
305 1 0.263029 -4.73109 1.62168
306 1 0.453712 -4.90228 0.238306
467 1 -3.73545 -4.17929 2.91036
300 1 -3.53273 -4.62474 1.64717
302 1 -2.16517 -4.71253 1.24449
564 1 5.39814 -0.449515 5.20528
562 1 4.32053 -1.33281 5.05377
482 1 4.60702 -2.54287 4.46749
483 1 5.11103 -4.36489 2.44856
312 1 5.33814 -4.78268 1.14372
310 1 4.27867 -4.88289 0.251077
571 1 11.7998 -1.31109 4.98789
568 1 9.11033 -0.329754 5.14414
490 1 9.38924 -1.67841 4.72792
493 1 10.7047 -2.10634 4.61112
494 1 10.9854 -3.28827 3.90265
565 1 6.73962 -0.825901 5.13224
486 1 7.02398 -2.10358 4.67114
488 1 8.32608 -2.53538 4.39502
489 1 8.62249 -3.64521 3.51973
491 1 9.93143 -3.88718 3.22556
492 1 10.1858 -4.552 2.04294
321 1 11.4965 -4.72972 1.59977
322 1 11.7328 -5.03644 0.257232
484 1 5.94991 -2.95264 4.2024
485 1 6.20193 -3.93972 3.22877
487 1 7.54007 -4.20935 2.8557
316 1 7.78448 -4.77171 1.60497
318 1 9.1324 -4.87099 1.19383
314 1 6.7238 -4.88665 0.72659
578 1 16.5474 -0.465511 5.26231
574 1 14.1399 -0.884674 5.14601
576 1 15.458 -1.33539 5.0933
502 1 15.7435 -2.56019 4.42788
497 1 13.0986 -1.7724 4.86989
498 1 13.3576 -2.89678 4.15993
500 1 14.6929 -3.24391 3.86032
501 1 14.9451 -4.14461 2.83109
503 1 16.2663 -4.39133 2.47783
328 1 16.5794 -4.79458 1.19294
495 1 12.3154 -3.60869 3.62085
496 1 12.5808 -4.39485 2.44629
499 1 13.896 -4.57355 2.02342
325 1 14.1502 -4.96215 0.702204
326 1 15.498 -4.91016 0.242984
579 1 17.9055 -0.92266 5.20096
506 1 18.1567 -2.29018 4.80811
508 1 19.4426 -2.83206 4.66804
509 1 19.7707 -3.72325 3.61095
504 1 17.0359 -2.98667 4.22611
505 1 17.3207 -3.96539 3.28028
507 1 18.6925 -4.22429 2.8926
332 1 18.9927 -4.74948 1.63454
330 1 17.9148 -4.87715 0.743888
592 1 27.87 -0.465 5.162
588 1 25.4898 -0.899442 5.1252
590 1 26.8162 -1.32383 4.96241
521 1 27.1152 -2.60243 4.52233
585 1 23.0697 -1.41622 5.08061
516 1 24.4092 -1.79907 4.90853
517 1 24.6787 -3.03216 4.25046
519 1 26.0413 -3.3864 3.96848
520 1 26.274 -4.27216 2.89402
522 1 27.602 -4.564 2.456
344 1 27.87 -5.053 1.153
582 1 20.3104 -0.344422 5.50098
512 1 22.0132 -2.26704 4.71084
513 1 22.2714 -3.43402 4.00633
514 1 23.611 -3.78174 3.62894
515 1 23.8256 -4.64579 2.48686
518 1 25.1835 -4.74231 2.09962
341 1 25.4524 -5.0962 0.73515
342 1 26.795 -5.12805 0.276666
510 1 21.1457 -3.95589 3.29624
511 1 21.4131 -4.66505 2.1492
337 1 22.7233 -4.91128 1.67025
338 1 22.9914 -5.03762 0.302035
334 1 20.3574 -4.86036 1.24336
355 1 -21.2011 5.08244 0.646481
351 1 -23.6281 5.03762 1.12452
353 1 -22.2736 4.83753 1.54576
604 1 -21.9995 4.25165 2.81001
606 1 -20.6538 3.92629 3.17299
607 1 -20.402 2.9345 4.10207
347 1 -26.3015 5.12208 0.226394
348 1 -26.0212 4.89224 1.57879
599 1 -24.6814 4.68638 1.98254
600 1 -24.4623 3.97765 3.17312
602 1 -23.0749 3.69151 3.51025
603 1 -22.8058 2.57545 4.40087
605 1 -21.4703 2.13113 4.57986
530 1 -21.2759 0.792584 4.8753
595 1 -27.0766 4.48279 2.40879
596 1 -26.8045 3.64626 3.54679
597 1 -25.4724 3.30341 3.85108
598 1 -25.2055 2.15401 4.63002
601 1 -23.8652 1.72018 4.75366
527 1 -23.6279 0.368306 5.03293
528 1 -22.3274 -0.0979613 5.08609
593 1 -27.87 3.047 4.193
594 1 -27.602 1.821 4.853
524 1 -26.307 1.31838 4.96997
525 1 -26.01 -0.0744389 5.13659
359 1 -18.772 5.12696 0.202309
360 1 -17.4575 5.10366 0.697794
612 1 -17.2322 4.68205 2.04793
357 1 -19.8516 4.92368 1.07863
608 1 -19.6101 4.43434 2.36243
610 1 -18.2981 4.14407 2.76946
611 1 -18.007 3.25278 3.84162
609 1 -19.0682 2.50121 4.38873
533 1 -18.8547 1.2214 4.90947
535 1 -17.5072 0.769763 4.93096
531 1 -19.9488 0.313539 4.97611
367 1 -12.2576 5.01627 1.18765
363 1 -14.9883 5.10628 0.235833
364 1 -14.7477 4.78829 1.60993
619 1 -13.3821 4.67204 2.05775
620 1 -13.1287 3.99409 3.26822
615 1 -15.8496 4.43609 2.42412
616 1 -15.5495 3.63234 3.5289
617 1 -14.2203 3.28288 3.80965
618 1 -13.9465 2.11534 4.56998
621 1 -12.6322 1.6603 4.72845
541 1 -12.3731 0.349354 5.09865
613 1 -16.6408 2.88852 4.02062
614 1 -16.4126 1.67312 4.66352
538 1 -15.0675 1.24842 4.87679
539 1 -14.8607 -0.139137 5.21598
375 1 -7.43298 5.08227 0.186351
376 1 -6.10851 4.94878 0.611716
632 1 -5.8924 4.46159 1.88791
371 1 -9.87197 5.01132 0.634256
373 1 -8.54457 4.90627 1.10028
628 1 -8.29523 4.31891 2.33515
630 1 -6.96617 4.03648 2.7307
631 1 -6.7009 3.11081 3.79814
369 1 -10.916 4.87154 1.57779
624 1 -10.6945 4.22426 2.87389
626 1 -9.35554 3.83417 3.11044
627 1 -9.11534 2.81593 4.07385
629 1 -7.79248 2.45005 4.37132
547 1 -7.4847 1.28161 5.07137
549 1 -6.1106 0.93142 5.1783
622 1 -11.7982 3.61496 3.56244
623 1 -11.5486 2.5348 4.41808
625 1 -10.2158 2.1184 4.63728
544 1 -9.93124 0.780761 5.07911
545 1 -8.54419 0.330157 5.20341
542 1 -11.0056 -0.169291 5.2387
635 1 -4.5398 4.34234 2.34876
636 1 -4.22449 3.61336 3.51526
633 1 -5.30213 2.91627 4.08828
634 1 -5.02945 1.75438 4.86272
391 1 3.78579 5.03119 0.113061
387 1 1.41725 4.81993 0.610285
389 1 2.77277 4.86068 1.03084
648 1 2.9986 4.40358 2.31405
383 1 -1.06568 4.82358 1.08496
385 1 0.318225 4.67906 1.47716
644 1 0.574501 4.22808 2.79928
646 1 1.91756 3.96202 3.12215
647 1 2.25503 3.03994 4.13925
649 1 3.57492 2.64048 4.43018
561 1 3.82756 1.3457 4.92223
379 1 -3.75564 4.91104 0.144313
380 1 -3.46293 4.63331 1.49094
639 1 -2.12773 4.55311 1.94958
640 1 -1.80431 3.93284 3.1822
642 1 -0.480529 3.77157 3.61029
643 1 -0.240918 2.7659 4.61628
645 1 1.16101 2.32733 4.6998
558 1 1.40597 0.986479 5.09254
559 1 2.70315 0.495332 5.12763
637 1 -2.90544 3.38027 3.91618
638 1 -2.6441 2.26854 4.73247
641 1 -1.30828 1.87896 4.91702
555 1 -0.990456 0.507222 5.16287
556 1 0.342373 0.0914254 5.20398
552 1 -3.66859 1.38122 5.03713
553 1 -3.35529 -0.00718518 5.28719
392 1 5.10832 5.07174 0.559435
652 1 5.36919 4.68741 1.93255
650 1 4.34275 4.21393 2.75948
651 1 4.67494 3.32185 3.79188
563 1 5.12849 0.902161 5.0384
399 1 10.1541 4.98479 1.06661
401 1 11.5075 4.76337 1.51907
664 1 11.8289 4.22028 2.76034
395 1 7.47408 5.03858 0.106227
396 1 7.742 4.85734 1.46929
659 1 9.05804 4.72404 1.92433
660 1 9.37926 4.00499 3.08634
662 1 10.7075 3.73605 3.50739
663 1 10.983 2.7836 4.52183
655 1 6.69448 4.43188 2.30034
656 1 7.00515 3.69278 3.46437
657 1 8.3192 3.41592 3.81792
658 1 8.58606 2.32462 4.66156
661 1 9.91593 1.94851 4.89382
569 1 10.1911 0.559884 5.19788
570 1 11.5369 0.0450306 5.18881
653 1 5.98375 2.9783 4.01623
654 1 6.20241 1.79871 4.73782
566 1 7.54394 1.4784 4.99355
567 1 7.80553 0.09865 5.21119
407 1 14.9419 4.93894 0.194042
408 1 16.2653 4.91581 0.717621
672 1 16.5349 4.62061 2.05732
403 1 12.5838 4.92874 0.679198
405 1 13.8917 4.77688 1.12824
668 1 14.2116 4.42142 2.44427
670 1 15.5337 4.26377 2.92351
671 1 15.7872 3.45379 4.0103
666 1 13.1427 3.93217 3.1843
667 1 13.409 3.03899 4.21755
669 1 14.7142 2.75035 4.56796
575 1 14.939 1.45962 5.11031
577 1 16.2785 0.932838 5.20017
665 1 12.3116 2.31675 4.74766
572 1 12.5584 0.967098 5.14465
573 1 13.8516 0.505727 5.20459
411 1 18.7135 4.99908 0.222647
412 1 18.9645 4.75311 1.58077
675 1 17.8904 4.416 2.40848
676 1 18.1895 3.67602 3.54186
677 1 19.5241 3.33709 3.79327
678 1 19.7642 2.21535 4.59663
673 1 17.1338 3.02775 4.23929
674 1 17.3662 1.78242 4.91559
580 1 18.6963 1.35133 4.98391
581 1 18.9578 0.0380865 5.37821
423 1 26.263 4.98375 0.211254
424 1 27.602 5.136 0.696
692 1 27.87 4.766 2.037
419 1 23.8468 5.04615 0.674318
421 1 25.1905 5.02117 1.09931
688 1 25.4937 4.54149 2.37698
690 1 26.7983 4.32025 2.82012
691 1 27.0791 3.48678 3.84783
415 1 21.4237 4.90927 1.13778
417 1 22.7482 4.8689 1.58345
684 1 22.9854 4.22176 2.76483
686 1 24.3571 4.02183 3.11885
687 1 24.6609 3.04046 4.0493
689 1 26.0238 2.65961 4.30165
589 1 26.2972 1.41837 4.94714
591 1 27.602 0.925 5.1
679 1 20.3214 4.5952 1.95894
680 1 20.5863 3.93683 3.13639
682 1 21.8624 3.63996 3.42976
683 1 22.1774 2.57621 4.29819
685 1 23.5659 2.24794 4.50236
586 1 23.8386 0.913708 4.97923
587 1 25.2123 0.49302 5.11144
681 1 21.1224 1.7974 4.75749
583 1 21.3942 0.485108 5.208
584 1 22.7464 -0.0165893 5.14859
ITEM: TIMESTEP
800
ITEM: NUMBER OF ATOMS
692
ITEM: BOX BOUNDS ff ff ff
-6.0000000000000000e+01 6.0000000000000000e+01
-4.0000000000000000e+01 4.0000000000000000e+01
-4.0000000000000000e+01 4.0000000000000000e+01
ITEM: ATOMS id type x y z
275 1 -20.6406 -5.2589 -0.206717
276 1 -20.3583 -4.9808 -1.60474
271 1 -24.4445 -5.36276 -0.221382
272 1 -23.0849 -5.27373 -0.724913
8 1 -22.8058 -5.02086 -2.12333
11 1 -21.4486 -4.72477 -2.49456
12 1 -21.2202 -3.89346 -3.64151
267 1 -26.8703 -5.08447 -0.631499
269 1 -25.5943 -5.47336 -1.06718
6 1 -23.7934 -4.67805 -3.03695
7 1 -23.6046 -3.59633 -3.88189
9 1 -22.3186 -3.16512 -4.12735
10 1 -22.0389 -1.92388 -4.72463
108 1 -20.7417 -1.489 -4.8745
265 1 -27.87 -4.93 -1.602
1 1 -27.602 -4.326 -2.855
3 1 -26.3791 -4.33775 -3.56623
4 1 -26.0609 -3.19806 -4.36837
5 1 -24.6873 -2.80491 -4.37615
103 1 -24.4088 -1.48426 -4.83675
105 1 -23.0818 -1.06942 -4.94627
2 1 -27.1131 -2.32265 -4.8082
100 1 -26.8313 -0.98449 -5.08707
101 1 -25.4943 -0.521762 -5.04325
279 1 -17.8869 -4.93628 -1.10715
15 1 -18.9993 -4.71088 -2.00762
16 1 -18.7745 -4.03587 -3.22599
18 1 -17.4983 -3.75556 -3.59588
19 1 -17.254 -2.73394 -4.57626
13 1 -19.8771 -3.50728 -3.89721
14 1 -19.6384 -2.36177 -4.65903
17 1 -18.3094 -1.87346 -4.90168
111 1 -18.0689 -0.511686 -5.13695
287 1 -13.1366 -4.80994 -0.268339
283 1 -15.4932 -4.79984 -0.672985
285 1 -14.2151 -4.73457 -1.13479
24 1 -13.9184 -4.31483 -2.44971
26 1 -12.5856 -4.12298 -2.89689
27 1 -12.3483 -3.34319 -4.07956
281 1 -16.5789 -4.69719 -1.50614
20 1 -16.3941 -4.19593 -2.79403
22 1 -15.0554 -3.87229 -3.18401
23 1 -14.8024 -2.98815 -4.23093
25 1 -13.4592 -2.60494 -4.53902
117 1 -13.1958 -1.32539 -5.1031
21 1 -15.9103 -2.29735 -4.80017
114 1 -15.6226 -0.957192 -5.21526
115 1 -14.3131 -0.503612 -5.33029
295 1 -6.76164 -4.72275 -1.24329
291 1 -9.37244 -4.90446 -0.228354
292 1 -9.09482 -4.62923 -1.61641
35 1 -7.81566 -4.45874 -2.05153
36 1 -7.53802 -3.79715 -3.24457
38 1 -6.20822 -3.4831 -3.58087
39 1 -5.90628 -2.50775 -4.55705
288 1 -11.7933 -4.78253 -0.744927
28 1 -11.5059 -4.4817 -2.07639
31 1 -10.1479 -4.28152 -2.4699
32 1 -9.93473 -3.52976 -3.65869
33 1 -8.62955 -3.2492 -3.95764
34 1 -8.35556 -2.10073 -4.74577
37 1 -7.01 -1.72735 -5.02369
125 1 -6.786 -0.371234 -5.29124
29 1 -11.0192 -2.94124 -4.32507
30 1 -10.7983 -1.75162 -5.02556
122 1 -9.46992 -1.28943 -5.12665
119 1 -11.8668 -0.906398 -5.225
299 1 -4.36161 -4.88746 -0.753549
297 1 -5.41081 -4.63329 -1.65147
40 1 -5.14424 -4.04402 -2.88323
41 1 -4.56603 -2.1021 -4.81509
128 1 -4.34134 -0.827554 -5.31523
307 1 1.82196 -5.06393 -0.25541
308 1 2.12101 -4.81377 -1.59606
55 1 3.45103 -4.58902 -1.99721
56 1 3.73828 -3.81363 -3.17332
303 1 -1.95622 -4.96802 -0.202872
304 1 -0.609315 -4.98692 -0.68036
48 1 -0.302218 -4.578 -2.01253
51 1 1.06136 -4.34995 -2.40852
52 1 1.30286 -3.50466 -3.5352
53 1 2.64233 -3.20556 -3.82462
54 1 2.95036 -1.98688 -4.48228
301 1 -2.99158 -4.83625 -1.17109
44 1 -2.71278 -4.32624 -2.43949
46 1 -1.38599 -4.02772 -2.77068
47 1 -1.10844 -3.1192 -3.84944
49 1 0.201322 -2.79379 -4.10432
50 1 0.555919 -1.60219 -4.79651
136 1 1.87947 -1.11855 -4.85463
42 1 -3.79058 -3.81341 -3.23861
43 1 -3.51073 -2.84153 -4.19105
45 1 -2.15236 -2.43576 -4.44192
131 1 -1.88753 -1.19191 -5.10094
133 1 -0.55407 -0.719684 -5.14074
129 1 -2.98978 -0.350963 -5.38468
311 1 4.53087 -4.96749 -1.17816
58 1 5.09555 -3.47464 -3.41727
59 1 5.3741 -2.36346 -4.23835
57 1 4.29751 -1.5852 -4.64096
139 1 4.60026 -0.283019 -5.01826
319 1 9.41551 -5.17444 -0.237136
320 1 10.7434 -5.18003 -0.66259
68 1 11.0127 -4.87148 -2.0614
315 1 6.99129 -5.12102 -0.691047
317 1 8.35796 -5.06421 -1.17096
64 1 8.5676 -4.50544 -2.47152
66 1 9.96759 -4.33845 -2.89293
67 1 10.1775 -3.37391 -3.96109
69 1 11.5068 -2.97777 -4.27579
70 1 11.8099 -1.75714 -4.87754
313 1 5.91654 -4.86899 -1.56776
60 1 6.1545 -4.12858 -2.78669
62 1 7.54585 -3.88767 -3.18207
63 1 7.79785 -2.81868 -4.09343
65 1 9.1629 -2.45389 -4.36125
145 1 9.42144 -1.14764 -4.90544
147 1 10.7797 -0.812691 -5.11764
61 1 6.73296 -2.00755 -4.52344
142 1 6.98982 -0.697707 -4.94019
143 1 8.34877 -0.235883 -5.02903
157 1 19.589 -0.535672 -5.33644
156 1 18.2663 -0.967326 -5.21161
80 1 17.9531 -2.28525 -4.74403
327 1 15.7899 -4.97105 -1.14365
323 1 13.1404 -5.05317 -0.213245
324 1 13.3858 -5.0262 -1.60803
74 1 14.6998 -4.75537 -2.05162
75 1 14.9557 -4.11473 -3.33463
77 1 16.2938 -3.75998 -3.72677
78 1 16.6044 -2.64991 -4.52189
71 1 12.3238 -4.90873 -2.45875
72 1 13.9297 -3.44564 -3.99429
73 1 14.205 -2.26651 -4.79593
76 1 15.5619 -1.80951 -4.85167
153 1 15.8399 -0.49539 -5.13077
150 1 13.1214 -1.36253 -5.0914
331 1 18.2482 -4.81008 -0.580796
333 1 19.5769 -4.73979 -1.0131
83 1 19.791 -4.36686 -2.35779
329 1 17.1505 -4.75775 -1.55062
79 1 17.3986 -4.23976 -2.90535
81 1 18.7407 -4.00059 -3.28419
82 1 18.9907 -3.17784 -4.37953
160 1 22.2159 -0.553475 -6.46963
343 1 27.0836 -4.88101 -1.14319
339 1 24.3883 -4.93172 -0.198913
340 1 24.6799 -4.73854 -1.56492
93 1 26.0334 -4.64341 -2.06651
94 1 26.2786 -4.09419 -3.32471
96 1 27.602 -3.746 -3.582
97 1 27.87 -2.658 -4.45
335 1 20.6473 -4.8396 -0.118025
336 1 21.9801 -4.84167 -0.585754
87 1 22.27 -4.59912 -1.93981
89 1 23.6157 -4.55697 -2.4509
90 1 23.9043 -3.92384 -3.70604
91 1 25.2442 -3.48548 -4.05688
92 1 25.4688 -2.28061 -4.87359
95 1 26.8088 -1.8748 -4.98281
166 1 27.0809 -0.498936 -5.2484
85 1 21.1714 -4.30476 -2.7996
86 1 21.4322 -3.72962 -4.03796
88 1 22.7537 -3.60073 -4.50172
84 1 20.3817 -3.1255 -4.75007
163 1 24.4219 -1.37945 -5.26203
107 1 -21.4832 0.773356 -4.76814
178 1 -21.2624 2.111 -4.32911
104 1 -23.8508 1.27304 -4.73571
174 1 -23.5886 2.51489 -4.15707
176 1 -22.2929 2.92183 -3.86413
177 1 -22.0361 3.93991 -2.96126
179 1 -20.6634 4.23269 -2.67286
356 1 -20.3977 4.91579 -1.4329
98 1 -27.87 0 -5.183
99 1 -27.602 1.379 -4.996
169 1 -26.2935 1.81571 -4.72308
170 1 -25.9994 3.08742 -4.10089
172 1 -24.6327 3.35195 -3.74198
173 1 -24.3956 4.36745 -2.746
175 1 -23.0912 4.56867 -2.29153
352 1 -22.8178 5.20195 -1.09412
354 1 -21.4667 5.25502 -0.580041
167 1 -27.0863 3.78765 -3.61303
168 1 -26.8442 4.63321 -2.50378
171 1 -25.5001 4.90887 -2.03821
349 1 -25.2359 5.30579 -0.659135
350 1 -23.9172 5.37194 -0.169377
345 1 -27.87 4.93 -1.602
346 1 -27.602 5.178 -0.233
109 1 -20.4518 -0.132875 -5.00336
106 1 -22.7948 0.321019 -4.86855
102 1 -25.2093 0.875828 -4.90328
110 1 -19.1801 0.381233 -5.01336
182 1 -18.8972 1.7411 -4.64896
185 1 -17.5548 2.13969 -4.45037
186 1 -17.2474 3.3306 -3.74019
180 1 -19.9261 2.52885 -4.19553
181 1 -19.5968 3.62309 -3.3467
183 1 -18.2724 3.95926 -3.09103
184 1 -17.9632 4.81237 -1.97605
358 1 -19.0183 5.10005 -1.08721
118 1 -12.7262 1.37385 -4.97213
194 1 -12.4169 2.63081 -4.42893
112 1 -16.732 -0.0672391 -5.18133
113 1 -16.4655 1.32338 -4.9053
189 1 -15.1293 1.7544 -4.80696
190 1 -14.8558 2.95286 -4.13697
192 1 -13.5143 3.31354 -3.91616
193 1 -13.2144 4.30852 -2.89821
187 1 -15.8854 3.66493 -3.45355
188 1 -15.595 4.57611 -2.40024
191 1 -14.2182 4.77892 -2.10278
365 1 -13.9506 5.12006 -0.744717
366 1 -12.6157 5.0906 -0.28092
361 1 -16.6277 4.96227 -1.55044
362 1 -16.3326 5.29193 -0.193654
116 1 -14.0429 0.857126 -5.18093
124 1 -7.8827 0.49777 -5.20376
202 1 -7.58437 1.83571 -4.95776
205 1 -6.24684 2.31184 -4.85984
206 1 -6.05175 3.46031 -4.01918
121 1 -10.2862 0.922069 -5.13663
198 1 -10.0055 2.22902 -4.81122
200 1 -8.66239 2.64174 -4.55429
201 1 -8.41648 3.5977 -3.57602
203 1 -7.09005 3.92569 -3.17572
204 1 -6.77603 4.59385 -2.01006
196 1 -11.05 3.01203 -4.33504
197 1 -10.791 3.98324 -3.33213
199 1 -9.49203 4.11305 -2.85361
372 1 -9.19199 4.78329 -1.60492
374 1 -7.84609 4.93274 -1.17534
195 1 -11.8586 4.49975 -2.56048
368 1 -11.5734 4.96455 -1.23575
370 1 -10.2429 5.08915 -0.748422
123 1 -9.22459 0.036656 -5.26636
120 1 -11.6177 0.49244 -5.18253
126 1 -5.43861 0.0749912 -5.38035
127 1 -5.17426 1.44578 -5.24667
207 1 -4.72518 3.79107 -3.68529
208 1 -4.3818 4.45408 -2.49261
377 1 -5.43332 4.76465 -1.59612
378 1 -5.17612 5.008 -0.247714
138 1 3.50268 0.643971 -5.1614
220 1 3.84671 2.01513 -5.1136
135 1 1.01119 1.08945 -5.23387
217 1 1.22526 2.38226 -4.94288
219 1 2.99249 4.27912 -3.83952
132 1 -1.39405 1.51082 -5.23378
213 1 -1.08223 2.83688 -4.67449
215 1 0.262482 3.16824 -4.38167
216 1 0.536447 4.2084 -3.44235
218 1 1.84674 4.60328 -3.07728
388 1 2.08993 5.06312 -1.74036
390 1 3.43006 5.06256 -1.19883
209 1 -3.86532 1.92623 -5.4302
211 1 -2.10236 3.65524 -4.11202
212 1 -1.90761 4.41487 -2.99163
214 1 -0.579404 4.60857 -2.60406
384 1 -0.312384 5.11436 -1.33952
386 1 1.00348 5.15869 -0.80844
210 1 -3.00925 4.68554 -2.11858
381 1 -2.75704 4.99665 -0.804587
382 1 -1.38546 5.12421 -0.42034
137 1 2.16639 0.234538 -5.1517
134 1 -0.286812 0.620684 -5.29971
130 1 -2.74768 1.04604 -5.44468
223 1 5.16504 2.55797 -4.84599
224 1 5.39318 3.71814 -4.0296
221 1 4.33421 4.34986 -3.39276
222 1 4.51869 4.76634 -2.05474
146 1 10.0113 1.51808 -5.01
232 1 10.2805 2.80376 -4.53887
234 1 11.6477 3.13327 -4.24292
235 1 11.8956 4.09752 -3.18653
140 1 5.91812 0.224719 -5.07157
141 1 6.22633 1.64804 -4.9788
227 1 7.57406 2.07038 -4.89357
228 1 7.81994 3.29631 -4.25423
230 1 9.2078 3.51805 -3.93676
231 1 9.43938 4.36413 -2.83453
233 1 10.7818 4.64174 -2.48036
400 1 11.0502 5.13125 -1.19707
225 1 6.72932 4.004 -3.67755
226 1 6.98729 4.64077 -2.43877
229 1 8.33569 4.74135 -2.01748
397 1 8.58973 5.11019 -0.674083
398 1 9.91078 5.20846 -0.255643
393 1 5.89379 4.91516 -1.59359
394 1 6.13244 5.12725 -0.21914
148 1 11.0511 0.56892 -5.24818
144 1 8.61735 1.14849 -5.05223
158 1 19.8562 0.836516 -5.1728
152 1 14.7941 0.422178 -5.12105
240 1 15.0928 1.73939 -4.78622
243 1 16.4286 2.0927 -4.54995
244 1 16.7284 3.23902 -3.7955
149 1 12.4227 0.946608 -5.18674
236 1 12.7056 2.29592 -4.72185
238 1 14.0562 2.60057 -4.43386
239 1 14.3421 3.68327 -3.53842
241 1 15.6947 3.96685 -3.16129
242 1 15.9344 4.72644 -1.96959
237 1 13.285 4.30186 -2.81112
404 1 13.5374 5.01337 -1.60646
406 1 14.8572 5.07205 -1.13184
402 1 12.4218 5.27827 -0.734947
151 1 13.4397 -0.00838102 -5.22195
154 1 17.2199 -0.0635442 -5.19498
155 1 17.4973 1.25726 -4.93354
247 1 18.8098 1.67644 -4.78141
248 1 19.0616 2.83645 -4.05547
245 1 18.0565 3.56217 -3.45975
246 1 18.3148 4.34326 -2.29649
249 1 19.6423 4.55304 -1.89733
413 1 19.9378 5.04718 -0.632097
409 1 17.2926 4.84802 -1.52791
410 1 17.5375 5.1873 -0.199544
161 1 22.3301 0.60767 -5.67404
165 1 26.0168 0.440778 -5.26774
260 1 26.2767 1.76925 -4.7741
263 1 27.602 2.249 -4.67
264 1 27.87 3.41 -3.903
162 1 23.6673 0.973944 -5.29977
256 1 23.9607 2.21942 -4.6804
258 1 25.2421 2.60226 -4.30396
259 1 25.5096 3.71904 -3.5621
261 1 26.8361 4.08603 -3.24836
262 1 27.1381 4.76804 -2.04343
159 1 21.2237 1.37037 -5.18723
252 1 21.5111 2.51136 -4.37607
254 1 22.847 2.88937 -4.13853
255 1 23.1096 3.87847 -3.16556
257 1 24.4722 4.18869 -2.79099
420 1 24.7653 4.81517 -1.55776
422 1 26.0913 5.07538 -1.1365
250 1 20.4072 3.17156 -3.77207
251 1 20.6742 4.11272 -2.75473
253 1 22.0192 4.39748 -2.43443
416 1 22.3122 4.91118 -1.1544
418 1 23.6417 5.02865 -0.683564
414 1 21.2499 5.08533 -0.245475
164 1 24.7141 -0.00721328 -5.36742
529 1 -21.9911 -1.41628 5.00823
438 1 -20.6211 -1.83891 4.84423
439 1 -20.3286 -3.1047 4.22474
526 1 -24.6067 -0.453633 5.11671
431 1 -24.3609 -1.82904 4.86148
434 1 -23.026 -2.32001 4.72966
435 1 -22.741 -3.46526 3.93902
436 1 -21.4112 -3.80082 3.61944
437 1 -21.1768 -4.60288 2.47943
523 1 -27.0226 -0.825778 4.95373
427 1 -26.7938 -2.19832 4.62738
429 1 -25.467 -2.57501 4.40071
430 1 -25.1778 -3.67201 3.56837
432 1 -23.8358 -4.04171 3.20479
433 1 -23.5842 -4.77041 2.02075
273 1 -22.2574 -5.05925 1.66214
274 1 -22.0326 -5.29061 0.258429
425 1 -27.87 -3.047 4.193
426 1 -27.602 -4.052 3.232
428 1 -26.2585 -4.29971 2.86158
268 1 -26.0556 -4.90881 1.62005
270 1 -24.69 -5.08161 1.13441
266 1 -27.1189 -4.96575 0.709033
536 1 -17.1191 -0.509542 5.28107
532 1 -19.5769 -0.987407 5.13693
534 1 -18.2009 -1.44673 5.06703
443 1 -17.9408 -2.66764 4.51574
441 1 -18.97 -3.40641 3.95465
442 1 -18.7196 -4.33353 2.92309
444 1 -17.3839 -4.52143 2.47722
280 1 -17.0813 -4.93787 1.13221
440 1 -19.8143 -4.73952 2.05626
277 1 -19.5557 -5.09759 0.732058
278 1 -18.18 -5.09213 0.245554
540 1 -13.396 -0.482886 5.33503
450 1 -13.0791 -1.83613 5.24314
537 1 -15.8237 -0.991448 5.25655
447 1 -15.6159 -2.30208 4.86948
449 1 -13.8794 -3.93965 3.65799
451 1 -12.5721 -3.9687 3.2752
452 1 -12.2872 -4.4078 1.97344
445 1 -16.6331 -3.05204 4.2549
446 1 -16.3062 -3.97299 3.22736
448 1 -14.9466 -4.2289 2.83722
284 1 -14.6934 -4.63404 1.55644
286 1 -13.3851 -4.66765 1.09923
282 1 -15.7206 -4.89102 0.682486
550 1 -5.91933 -0.411915 5.19738
546 1 -8.30711 -0.890898 5.23996
548 1 -6.97187 -1.35248 5.13681
462 1 -6.7183 -2.59585 4.51432
543 1 -10.6714 -1.38745 5.20137
457 1 -9.33597 -1.82954 5.00326
458 1 -9.09449 -3.00124 4.26889
460 1 -7.74659 -3.31114 3.89879
461 1 -7.53628 -4.15724 2.81563
463 1 -6.21197 -4.46448 2.43769
296 1 -5.93693 -4.91375 1.10773
453 1 -11.7579 -2.25113 4.90268
454 1 -11.5322 -3.36743 4.07209
455 1 -10.1924 -3.69701 3.68697
456 1 -9.94908 -4.34835 2.4716
459 1 -8.63446 -4.60027 2.05742
293 1 -8.32753 -4.87082 0.706636
294 1 -7.00642 -4.90149 0.149715
289 1 -10.9755 -4.54161 1.51311
290 1 -10.7074 -4.80994 0.150468
551 1 -4.57237 -0.854696 4.99783
466 1 -4.36254 -2.18744 4.62183
464 1 -5.40264 -2.96817 4.1797
465 1 -5.13616 -3.95584 3.18294
298 1 -4.59657 -4.99903 0.660597
560 1 2.90418 -0.801323 5.00276
557 1 0.461928 -1.25232 4.93552
477 1 1.79541 -1.67773 4.72734
478 1 2.06376 -2.90732 4.0669
480 1 3.42571 -3.28488 3.7581
481 1 3.67365 -4.157 2.75881
554 1 -2.19027 -0.425727 5.1604
470 1 -1.96573 -1.79437 4.80746
473 1 -0.6207 -2.14894 4.61788
474 1 -0.35158 -3.35463 3.93669
475 1 0.971663 -3.71566 3.5396
476 1 1.27057 -4.47253 2.40106
479 1 2.62151 -4.58629 1.95609
309 1 2.89863 -5.00981 0.650252
468 1 -3.04524 -2.61114 4.40777
469 1 -2.77376 -3.72562 3.5971
471 1 -1.39716 -4.02407 3.31399
472 1 -1.17323 -4.68293 2.07163
305 1 0.1693 -4.87453 1.61237
306 1 0.455308 -5.06026 0.234535
467 1 -3.81326 -4.23349 2.79786
300 1 -3.50517 -4.81659 1.56692
302 1 -2.20109 -4.96478 1.18883
564 1 5.38644 -0.411519 5.04462
562 1 4.26276 -1.28865 4.91294
482 1 4.52068 -2.56826 4.24094
483 1 5.02294 -4.43565 2.39879
312 1 5.34886 -4.94327 1.11864
310 1 4.27127 -5.18915 0.184772
571 1 11.7517 -1.38883 5.04742
568 1 9.11063 -0.474796 5.13427
490 1 9.37003 -1.81858 4.8698
493 1 10.6828 -2.21608 4.73626
494 1 10.9285 -3.35555 3.93798
565 1 6.72378 -0.888598 5.02626
486 1 6.99005 -2.19077 4.54189
488 1 8.33735 -2.61094 4.40321
489 1 8.52834 -3.65392 3.53545
491 1 9.89472 -3.94814 3.18837
492 1 10.154 -4.66764 2.03332
321 1 11.4899 -4.74852 1.55999
322 1 11.8126 -5.09636 0.224359
484 1 5.89015 -2.92305 4.04325
485 1 6.1323 -3.94077 3.11652
487 1 7.46692 -4.18502 2.775
316 1 7.7792 -4.79314 1.5684
318 1 9.13447 -4.96881 1.12491
314 1 6.71192 -4.9846 0.684906
578 1 16.5432 -0.55841 5.22503
574 1 14.1268 -0.920565 5.0886
576 1 15.4333 -1.40395 5.05052
502 1 15.7161 -2.64974 4.50261
497 1 13.0423 -1.83141 4.92585
498 1 13.3126 -3.05199 4.18439
500 1 14.6707 -3.33489 3.88444
501 1 14.9462 -4.17894 2.79047
503 1 16.2799 -4.4105 2.5023
328 1 16.5964 -4.7665 1.17698
495 1 12.2305 -3.69347 3.56596
496 1 12.534 -4.34148 2.35749
499 1 13.8357 -4.54849 1.94626
325 1 14.1766 -4.95728 0.677498
326 1 15.5093 -4.97752 0.256185
579 1 17.9299 -1.0302 5.28968
506 1 18.1342 -2.34516 4.89719
508 1 19.4558 -2.82682 4.78466
509 1 19.8191 -3.7445 3.76197
504 1 17.0807 -3.08893 4.30015
505 1 17.3798 -4.03252 3.29323
507 1 18.7894 -4.2349 2.95345
332 1 19.0442 -4.67842 1.67216
330 1 17.9547 -4.81966 0.792822
592 1 27.87 -0.465 5.162
588 1 25.4899 -0.969285 5.30625
590 1 26.7966 -1.36643 5.01933
521 1 27.0879 -2.64539 4.55392
585 1 23.1714 -1.4024 5.25327
516 1 24.4828 -1.82181 5.0508
517 1 24.7283 -3.0157 4.33919
519 1 26.0661 -3.39157 4.02192
520 1 26.2884 -4.18359 2.89272
522 1 27.602 -4.564 2.456
344 1 27.87 -5.053 1.153
582 1 20.3408 -0.425079 5.72384
512 1 22.0953 -2.28105 4.9422
513 1 22.2813 -3.40365 4.15496
514 1 23.6231 -3.62803 3.78436
515 1 23.8705 -4.34229 2.57265
518 1 25.1797 -4.49603 2.09314
341 1 25.4636 -4.81155 0.709196
342 1 26.8021 -4.94131 0.218728
510 1 21.2032 -4.05607 3.47161
511 1 21.4778 -4.56052 2.18321
337 1 22.8087 -4.61337 1.69148
338 1 23.0689 -4.83943 0.292957
334 1 20.3672 -4.71763 1.2487
355 1 -21.1958 5.25089 0.808114
351 1 -23.6153 5.18475 1.21976
353 1 -22.2733 4.96336 1.65616
604 1 -21.9033 4.30367 2.88243
606 1 -20.5896 3.9855 3.2139
607 1 -20.3691 2.9328 4.08326
347 1 -26.2747 5.25885 0.266159
348 1 -26.0127 5.00439 1.62665
599 1 -24.6625 4.80473 2.07507
600 1 -24.3414 4.03437 3.22467
602 1 -22.9689 3.75742 3.54503
603 1 -22.7521 2.64694 4.3706
605 1 -21.4322 2.15795 4.53375
530 1 -21.1694 0.859901 4.98048
595 1 -27.0553 4.49649 2.47721
596 1 -26.7585 3.73749 3.62163
597 1 -25.4158 3.35557 3.92416
598 1 -25.1641 2.24414 4.6562
601 1 -23.8175 1.80242 4.76722
527 1 -23.5363 0.440133 5.01533
528 1 -22.2243 -0.0213428 5.16743
593 1 -27.87 3.047 4.193
594 1 -27.602 1.821 4.853
524 1 -26.2298 1.43378 4.95078
525 1 -25.953 0.0757497 5.05272
359 1 -18.7127 5.32507 0.287228
360 1 -17.3479 5.30025 0.753785
612 1 -17.1522 4.76234 2.01941
357 1 -19.7975 5.22306 1.23032
608 1 -19.5736 4.59191 2.48697
610 1 -18.2072 4.33009 2.80238
611 1 -17.9414 3.34245 3.81284
609 1 -19.0407 2.56971 4.30788
533 1 -18.7927 1.30047 4.88431
535 1 -17.4354 0.907602 5.11516
531 1 -19.8454 0.36214 5.04899
367 1 -12.3325 4.92822 1.13612
363 1 -15.0025 5.25568 0.245692
364 1 -14.7319 4.88693 1.59159
619 1 -13.4332 4.63453 2.01184
620 1 -13.2141 3.88174 3.2035
615 1 -15.7868 4.44797 2.43956
616 1 -15.5577 3.5868 3.50704
617 1 -14.2741 3.23506 3.79925
618 1 -14.0044 2.13006 4.65691
621 1 -12.6181 1.7712 4.81779
541 1 -12.3639 0.466333 5.23669
613 1 -16.5856 2.91362 4.10084
614 1 -16.3794 1.75072 4.81533
538 1 -15.0958 1.25856 5.00763
539 1 -14.758 -0.0806754 5.28159
375 1 -7.54359 5.08155 0.242158
376 1 -6.21682 5.03502 0.681572
632 1 -5.90388 4.6588 2.01602
371 1 -9.95246 5.04818 0.69935
373 1 -8.63055 5.02022 1.15706
628 1 -8.32962 4.53388 2.43695
630 1 -7.02166 4.32366 2.8705
631 1 -6.71486 3.43289 3.94316
369 1 -10.9898 4.78268 1.59416
624 1 -10.7384 4.18468 2.85821
626 1 -9.38082 3.92923 3.21137
627 1 -9.11294 2.95751 4.19871
629 1 -7.78942 2.6589 4.51914
547 1 -7.52746 1.40606 5.12011
549 1 -6.16338 0.984239 5.18582
622 1 -11.8259 3.61799 3.55927
623 1 -11.5247 2.56178 4.43832
625 1 -10.2155 2.18634 4.68689
544 1 -9.97494 0.930102 5.22655
545 1 -8.62618 0.485244 5.25331
542 1 -11.0165 0.0196433 5.33898
635 1 -4.52572 4.52633 2.37081
636 1 -4.32356 3.77775 3.58125
633 1 -5.38475 3.12495 4.24727
634 1 -5.10921 1.90192 4.94335
391 1 3.6728 5.16037 0.165957
387 1 1.25205 5.08569 0.596103
389 1 2.56035 5.04649 1.01529
648 1 2.78727 4.58847 2.36576
383 1 -1.1279 5.04479 1.00152
385 1 0.184172 4.85726 1.52076
644 1 0.450629 4.2502 2.7882
646 1 1.76696 4.07431 3.19665
647 1 2.09946 3.09592 4.19457
649 1 3.46612 2.69466 4.38862
561 1 3.807 1.42969 4.92117
379 1 -3.78115 5.05542 0.132134
380 1 -3.51322 4.81654 1.48553
639 1 -2.18204 4.72907 1.93341
640 1 -1.93163 3.99624 3.15251
642 1 -0.604701 3.72476 3.54264
643 1 -0.350318 2.67448 4.48584
645 1 1.02129 2.32882 4.64177
558 1 1.3028 1.03285 5.04614
559 1 2.65072 0.601145 5.10785
637 1 -2.9916 3.4359 3.86556
638 1 -2.72143 2.30623 4.71297
641 1 -1.39962 1.85472 4.89148
555 1 -1.10099 0.505769 5.13843
556 1 0.207971 0.120697 5.17679
552 1 -3.76824 1.41786 5.0631
553 1 -3.52058 0.0305608 5.12462
392 1 5.02268 5.08302 0.65442
652 1 5.28688 4.70937 1.97856
650 1 4.18545 4.40136 2.80921
651 1 4.49843 3.46458 3.85742
563 1 5.08382 0.968459 5.08491
399 1 10.1818 5.0798 1.13028
401 1 11.5695 4.99487 1.59333
664 1 11.8049 4.3758 2.85514
395 1 7.48999 5.09369 0.236502
396 1 7.73873 4.8715 1.57807
659 1 9.0831 4.71058 1.97089
660 1 9.39984 4.08541 3.1863
662 1 10.7283 3.724 3.53156
663 1 11.0036 2.59188 4.38286
655 1 6.66122 4.58386 2.43286
656 1 6.94936 3.77909 3.54895
657 1 8.30987 3.48332 3.87745
658 1 8.58981 2.31768 4.6769
661 1 9.89626 1.77514 4.78827
569 1 10.1705 0.424073 5.12532
570 1 11.4916 -0.00332107 5.17913
653 1 5.85737 3.05851 4.09186
654 1 6.14477 1.84675 4.86016
566 1 7.49278 1.43895 5.03757
567 1 7.78994 0.0547452 5.13614
407 1 15.1199 5.19742 0.258491
408 1 16.4797 5.1417 0.713743
672 1 16.7272 4.67416 2.02419
403 1 12.646 5.22095 0.694781
405 1 14.0042 5.12793 1.1081
668 1 14.2638 4.59414 2.38032
670 1 15.5848 4.22424 2.78747
671 1 15.7859 3.27279 3.76119
666 1 13.1466 4.02422 3.10693
667 1 13.3458 2.92165 3.99099
669 1 14.6754 2.55696 4.23499
575 1 14.9405 1.34516 4.83049
577 1 16.2855 0.854347 4.99477
665 1 12.2916 2.18437 4.58038
572 1 12.5319 0.876301 4.99755
573 1 13.8602 0.441071 5.02437
411 1 18.8516 5.06486 0.272101
412 1 19.1236 4.77299 1.55775
675 1 18.0607 4.44642 2.4022
676 1 18.2364 3.62138 3.50477
677 1 19.578 3.23852 3.86952
678 1 19.8112 2.11395 4.65163
673 1 17.1269 2.95467 4.05212
674 1 17.3833 1.70086 4.70334
580 1 18.7055 1.26757 4.94807
581 1 18.995 -0.0636662 5.4031
423 1 26.3191 5.2154 0.213889
424 1 27.602 5.136 0.696
692 1 27.87 4.766 2.037
419 1 23.9258 5.0707 0.682822
421 1 25.2679 5.01134 1.11401
688 1 25.5513 4.42782 2.39392
690 1 26.856 4.14552 2.74935
691 1 27.1385 3.32886 3.86646
415 1 21.4998 4.92336 1.10689
417 1 22.8744 4.79841 1.54649
684 1 23.1172 4.13227 2.79913
686 1 24.4755 3.95393 3.19633
687 1 24.7202 2.89281 4.08025
689 1 26.0528 2.57059 4.40408
589 1 26.2917 1.3309 4.96699
591 1 27.602 0.925 5.1
679 1 20.4415 4.54041 1.96534
680 1 20.6876 3.81928 3.16344
682 1 22.0097 3.57903 3.55441
683 1 22.2454 2.51567 4.45691
685 1 23.6165 2.17225 4.63463
586 1 23.8614 0.88367 5.19892
587 1 25.2148 0.446905 5.23365
681 1 21.1626 1.68025 4.87896
583 1 21.4446 0.421565 5.40653
584 1 22.7943 -0.0439578 5.38571
ITEM: TIMESTEP
900
ITEM: NUMBER OF ATOMS
692
ITEM: BOX BOUNDS ff ff ff
-6.0000000000000000e+01 6.0000000000000000e+01
-4.0000000000000000e+01 4.0000000000000000e+01
-4.0000000000000000e+01 4.0000000000000000e+01
ITEM: ATOMS id type x y z
275 1 -20.6586 -5.04948 -0.215022
276 1 -20.3612 -4.84441 -1.56958
271 1 -24.4142 -5.23513 -0.160272
272 1 -23.0789 -5.2316 -0.66767
8 1 -22.7348 -4.87817 -2.02644
11 1 -21.4168 -4.57384 -2.4548
12 1 -21.1384 -3.82332 -3.63773
267 1 -26.8114 -5.13914 -0.687963
269 1 -25.4898 -5.38929 -1.02436
6 1 -23.6999 -4.40238 -2.96216
7 1 -23.4967 -3.38898 -3.91544
9 1 -22.1957 -3.08298 -4.23121
10 1 -21.9598 -1.85877 -4.86033
108 1 -20.6209 -1.44386 -4.99888
265 1 -27.87 -4.93 -1.602
1 1 -27.602 -4.326 -2.855
3 1 -26.2605 -4.14605 -3.30125
4 1 -25.9726 -3.0097 -4.12371
5 1 -24.6559 -2.64614 -4.43071
103 1 -24.3775 -1.36811 -4.96304
105 1 -23.0102 -0.981875 -5.09
2 1 -27.0619 -2.13249 -4.45064
100 1 -26.8007 -0.865959 -5.00647
101 1 -25.4483 -0.457448 -5.14526
279 1 -17.9422 -4.93119 -1.1132
15 1 -19.0162 -4.67577 -1.96621
16 1 -18.767 -4.04156 -3.2346
18 1 -17.4126 -3.72442 -3.52093
19 1 -17.1256 -2.6307 -4.44171
13 1 -19.8268 -3.43794 -3.9525
14 1 -19.523 -2.30417 -4.73645
17 1 -18.2156 -1.83294 -4.89664
111 1 -17.9924 -0.436372 -5.17441
287 1 -13.1365 -5.09904 -0.239321
283 1 -15.5276 -5.14807 -0.672084
285 1 -14.197 -5.01616 -1.13721
24 1 -13.9342 -4.57767 -2.43219
26 1 -12.5953 -4.38985 -2.87375
27 1 -12.2433 -3.47428 -3.9624
281 1 -16.6229 -4.82764 -1.50989
20 1 -16.3732 -4.23427 -2.73164
22 1 -14.9966 -4.02949 -3.15528
23 1 -14.708 -3.07514 -4.15691
25 1 -13.3888 -2.73611 -4.49598
117 1 -13.0769 -1.46868 -5.08968
21 1 -15.801 -2.26739 -4.64542
114 1 -15.5632 -0.949181 -5.12274
115 1 -14.1922 -0.555783 -5.16413
295 1 -6.7185 -4.98933 -1.27136
291 1 -9.38511 -5.00391 -0.307007
292 1 -9.10169 -4.75372 -1.64331
35 1 -7.79192 -4.61262 -2.10906
36 1 -7.45865 -3.96005 -3.30392
38 1 -6.13964 -3.64258 -3.68768
39 1 -5.88937 -2.48608 -4.52005
288 1 -11.7715 -4.99462 -0.714569
28 1 -11.4659 -4.77672 -2.09
31 1 -10.1362 -4.51484 -2.53272
32 1 -9.83614 -3.78752 -3.69526
33 1 -8.51758 -3.37097 -3.9179
34 1 -8.28328 -2.20654 -4.67791
37 1 -6.98073 -1.66882 -4.78351
125 1 -6.69252 -0.326994 -5.06102
29 1 -10.9188 -3.13441 -4.30967
30 1 -10.6707 -1.90445 -4.92858
122 1 -9.34298 -1.3771 -5.05369
119 1 -11.7262 -1.04963 -5.21888
299 1 -4.33777 -5.04195 -0.878335
297 1 -5.41461 -4.98693 -1.77398
40 1 -5.10847 -4.27978 -3.02003
41 1 -4.56466 -2.029 -4.68596
128 1 -4.32366 -0.664208 -4.97504
307 1 1.86878 -5.06124 -0.296912
308 1 2.15863 -4.8432 -1.682
55 1 3.48314 -4.59255 -2.09489
56 1 3.72742 -3.82602 -3.23404
303 1 -1.89854 -5.08178 -0.392945
304 1 -0.562256 -4.97552 -0.779015
48 1 -0.283905 -4.6874 -2.08536
51 1 1.08229 -4.42308 -2.4821
52 1 1.33181 -3.53633 -3.49279
53 1 2.64224 -3.18007 -3.80643
54 1 2.91252 -2.02557 -4.5822
301 1 -2.9689 -4.98539 -1.33008
44 1 -2.66635 -4.48125 -2.59067
46 1 -1.34375 -4.19491 -2.87908
47 1 -1.05416 -3.18704 -3.84124
49 1 0.279731 -2.77053 -4.00575
50 1 0.556943 -1.53187 -4.60638
136 1 1.90477 -1.11576 -4.79411
42 1 -3.75505 -3.93645 -3.31965
43 1 -3.50356 -2.85704 -4.20819
45 1 -2.16693 -2.45743 -4.38435
131 1 -1.90879 -1.15478 -4.75661
133 1 -0.568781 -0.669172 -4.84193
129 1 -3.00116 -0.200621 -4.94642
311 1 4.51478 -4.90137 -1.17672
58 1 5.00054 -3.53042 -3.60444
59 1 5.31116 -2.54324 -4.52301
57 1 4.27706 -1.65138 -4.87397
139 1 4.54545 -0.248545 -5.09922
319 1 9.3219 -5.01094 -0.224822
320 1 10.6642 -4.96793 -0.655747
68 1 10.9522 -4.8163 -2.02772
315 1 6.88637 -5.06214 -0.747865
317 1 8.25725 -4.93437 -1.14116
64 1 8.50653 -4.50688 -2.48222
66 1 9.88724 -4.31648 -2.90792
67 1 10.0759 -3.51423 -4.06191
69 1 11.3876 -3.16189 -4.38538
70 1 11.6683 -1.83638 -4.78188
313 1 5.84806 -4.76465 -1.62706
60 1 6.07127 -4.1398 -2.8983
62 1 7.40743 -3.99211 -3.27896
63 1 7.71003 -3.04974 -4.29258
65 1 9.04131 -2.69472 -4.53565
145 1 9.32776 -1.32166 -4.93528
147 1 10.6683 -0.880731 -4.94119
61 1 6.66006 -2.21697 -4.76698
142 1 6.90651 -0.803169 -5.09993
143 1 8.29339 -0.389697 -4.98933
157 1 19.3471 -0.457453 -5.43479
156 1 18.0792 -1.01887 -5.252
80 1 17.8634 -2.3803 -4.82884
327 1 15.7929 -5.04342 -1.24455
323 1 13.1083 -5.04051 -0.220951
324 1 13.3644 -4.85252 -1.61796
74 1 14.7087 -4.80594 -2.11163
75 1 15.0191 -4.19323 -3.33908
77 1 16.3752 -3.87063 -3.72953
78 1 16.5433 -2.81063 -4.59568
71 1 12.2754 -4.78899 -2.48018
72 1 13.9921 -3.52468 -4.02014
73 1 14.1219 -2.29457 -4.67107
76 1 15.4858 -1.90112 -4.81267
153 1 15.7364 -0.553859 -5.0986
150 1 13.031 -1.43072 -4.85782
331 1 18.2106 -4.89615 -0.777362
333 1 19.5636 -4.75901 -1.21042
83 1 19.7732 -4.45081 -2.55532
329 1 17.0841 -4.82627 -1.67188
79 1 17.3848 -4.35206 -2.94798
81 1 18.6792 -4.09607 -3.35356
82 1 18.9472 -3.22933 -4.43194
160 1 22.0071 -0.82374 -5.85077
343 1 27.0279 -5.01166 -1.23004
339 1 24.3709 -4.95382 -0.257484
340 1 24.6809 -4.78427 -1.65047
93 1 25.9887 -4.65724 -2.1133
94 1 26.2409 -3.98639 -3.33581
96 1 27.602 -3.746 -3.582
97 1 27.87 -2.658 -4.45
335 1 20.6332 -4.73317 -0.323774
336 1 21.9853 -4.78175 -0.746583
87 1 22.247 -4.63335 -2.11601
89 1 23.6066 -4.5324 -2.54792
90 1 23.8397 -3.80065 -3.76518
91 1 25.1976 -3.39619 -4.12149
92 1 25.551 -2.26711 -4.90585
95 1 26.877 -1.84515 -4.96069
166 1 27.1473 -0.499704 -5.31317
85 1 21.1251 -4.32368 -2.95918
86 1 21.4208 -3.58159 -4.12049
88 1 22.749 -3.35522 -4.53795
84 1 20.3172 -3.02341 -4.87922
163 1 24.5521 -1.3493 -5.24245
107 1 -21.388 0.888232 -5.15838
178 1 -21.171 2.25074 -4.78024
104 1 -23.8178 1.28591 -5.12935
174 1 -23.5726 2.49193 -4.4165
176 1 -22.2437 2.92662 -4.22462
177 1 -21.9945 3.83205 -3.16334
179 1 -20.6722 4.12593 -2.80622
356 1 -20.4601 4.56364 -1.50478
98 1 -27.87 0 -5.183
99 1 -27.602 1.379 -4.996
169 1 -26.2597 1.82308 -4.90929
170 1 -25.9687 2.94709 -4.16932
172 1 -24.6406 3.27042 -3.86404
173 1 -24.3921 4.07947 -2.76077
175 1 -23.0475 4.28112 -2.38217
352 1 -22.8021 4.75928 -1.08805
354 1 -21.4902 4.83566 -0.627403
167 1 -27.074 3.60088 -3.56552
168 1 -26.8242 4.42264 -2.42136
171 1 -25.4739 4.56537 -1.95381
349 1 -25.2174 5.01496 -0.661836
350 1 -23.8715 4.93344 -0.21104
345 1 -27.87 4.93 -1.602
346 1 -27.602 5.178 -0.233
109 1 -20.3338 -0.0426021 -5.1568
106 1 -22.7109 0.388456 -5.23916
102 1 -25.1661 0.912883 -5.17875
110 1 -19.0656 0.476576 -5.17534
182 1 -18.819 1.83225 -4.92786
185 1 -17.4846 2.20695 -4.69837
186 1 -17.1864 3.37106 -3.89901
180 1 -19.841 2.701 -4.5379
181 1 -19.5949 3.72514 -3.59954
183 1 -18.2465 3.98518 -3.19728
184 1 -18.0059 4.53878 -1.93251
358 1 -19.1035 4.78574 -1.07013
118 1 -12.5676 1.24351 -5.09378
194 1 -12.3453 2.48264 -4.47341
112 1 -16.659 -0.0491177 -5.20559
113 1 -16.4069 1.32668 -5.02437
189 1 -15.03 1.67325 -4.87804
190 1 -14.8237 2.84545 -4.12204
192 1 -13.4777 3.17878 -3.86158
193 1 -13.2 4.0801 -2.75353
187 1 -15.8689 3.59171 -3.53051
188 1 -15.5981 4.32044 -2.38456
191 1 -14.281 4.51266 -1.97191
365 1 -14.003 4.87094 -0.62087
366 1 -12.657 4.98141 -0.234038
361 1 -16.6591 4.68886 -1.50946
362 1 -16.4125 4.9475 -0.122626
116 1 -13.9311 0.826657 -5.16288
124 1 -7.74574 0.524342 -5.15876
202 1 -7.58256 1.87413 -4.89118
205 1 -6.2651 2.41413 -4.81359
206 1 -6.04294 3.63143 -4.15918
121 1 -10.1876 0.837832 -5.16835
198 1 -9.97092 2.15943 -4.67056
200 1 -8.64779 2.60974 -4.47001
201 1 -8.3964 3.78667 -3.69567
203 1 -7.05627 4.10382 -3.36647
204 1 -6.7053 4.68726 -2.09726
196 1 -11.0252 2.95711 -4.20127
197 1 -10.7751 3.91251 -3.21832
199 1 -9.44544 4.2503 -2.90722
372 1 -9.21187 4.84523 -1.65597
374 1 -7.8041 4.9016 -1.20193
195 1 -11.8653 4.33173 -2.43499
368 1 -11.574 4.75631 -1.1323
370 1 -10.2468 4.9816 -0.715446
123 1 -9.05959 0.0271931 -5.18804
120 1 -11.4778 0.365375 -5.24932
126 1 -5.40862 0.247703 -5.08273
127 1 -5.17532 1.60703 -5.05178
207 1 -4.74476 4.13858 -3.9083
208 1 -4.35407 4.73026 -2.65886
377 1 -5.38486 4.9271 -1.73311
378 1 -5.10864 5.08788 -0.368719
138 1 3.50229 0.679952 -5.19865
220 1 3.87529 2.06762 -5.08239
135 1 1.03753 1.1005 -5.17534
217 1 1.25185 2.51056 -5.05132
219 1 3.03137 4.35589 -3.80206
132 1 -1.37916 1.59043 -4.95476
213 1 -1.07405 2.95082 -4.65892
215 1 0.276825 3.33512 -4.46795
216 1 0.546409 4.35502 -3.41968
218 1 1.90887 4.6218 -2.9566
388 1 2.16003 5.15667 -1.64473
390 1 3.50229 5.21702 -1.20946
209 1 -3.82597 2.05102 -5.0872
211 1 -2.07643 3.79005 -4.10126
212 1 -1.86302 4.58698 -2.95044
214 1 -0.508681 4.72709 -2.53185
384 1 -0.258755 5.19385 -1.23011
386 1 1.08308 5.2558 -0.742504
210 1 -3.01994 4.93357 -2.19279
381 1 -2.71004 5.15418 -0.827919
382 1 -1.3692 5.21759 -0.371335
137 1 2.16111 0.233283 -5.14072
134 1 -0.324026 0.64022 -5.06372
130 1 -2.7224 1.1706 -5.01993
223 1 5.21826 2.53505 -4.81258
224 1 5.42992 3.71199 -4.00721
221 1 4.36796 4.45234 -3.34715
222 1 4.63235 4.96003 -2.04492
146 1 9.88471 1.39747 -4.74763
232 1 10.2051 2.69457 -4.30466
234 1 11.5125 3.07484 -4.01444
235 1 11.8564 4.1561 -3.14153
140 1 5.8631 0.170287 -5.12468
141 1 6.21671 1.58917 -4.97853
227 1 7.54039 1.94357 -4.7921
228 1 7.79844 3.11407 -4.13427
230 1 9.11397 3.50817 -3.88451
231 1 9.39414 4.48749 -2.87665
233 1 10.7834 4.6499 -2.43597
400 1 11.0038 5.20062 -1.14636
225 1 6.75116 3.91075 -3.53132
226 1 6.98838 4.76272 -2.43864
229 1 8.31424 5.00276 -2.09766
397 1 8.51787 5.36724 -0.689276
398 1 9.918 5.31791 -0.26455
393 1 5.95207 5.16672 -1.58267
394 1 6.19639 5.37523 -0.20181
148 1 10.9157 0.492176 -4.96074
144 1 8.55519 0.99051 -4.84062
158 1 19.7299 0.878969 -5.12315
152 1 14.657 0.387639 -5.03493
240 1 14.9015 1.77178 -4.71767
243 1 16.288 2.13559 -4.5871
244 1 16.5912 3.30883 -3.84282
149 1 12.2699 0.860523 -4.81151
236 1 12.5483 2.18617 -4.39024
238 1 13.887 2.65026 -4.24977
239 1 14.2409 3.7639 -3.46608
241 1 15.5842 4.05431 -3.19648
242 1 15.8577 4.78341 -2.05095
237 1 13.2355 4.42521 -2.80411
404 1 13.4723 5.0522 -1.56686
406 1 14.7955 5.10527 -1.12567
402 1 12.3771 5.20944 -0.653193
151 1 13.2884 -0.0760775 -4.96578
154 1 17.0707 -0.0931626 -5.19637
155 1 17.3221 1.26096 -4.94788
247 1 18.6522 1.74572 -4.78242
248 1 19.0032 2.95412 -4.07555
245 1 17.9351 3.71017 -3.52658
246 1 18.2555 4.58505 -2.41749
249 1 19.5731 4.75847 -1.9386
413 1 19.8155 5.13253 -0.605954
409 1 17.1722 4.89966 -1.55527
410 1 17.4203 5.10742 -0.168788
161 1 22.2438 0.394703 -5.30261
165 1 26.0735 0.436866 -5.21597
260 1 26.261 1.79847 -4.85035
263 1 27.602 2.249 -4.67
264 1 27.87 3.41 -3.903
162 1 23.5994 0.811859 -5.05078
256 1 23.8608 2.11555 -4.54494
258 1 25.2001 2.55565 -4.38917
259 1 25.4743 3.57282 -3.44007
261 1 26.7727 3.94725 -3.15998
262 1 27.0328 4.73319 -2.0373
159 1 21.1484 1.23067 -4.96538
252 1 21.4141 2.42916 -4.22638
254 1 22.7509 2.87014 -3.97869
255 1 23.0253 3.88629 -2.9906
257 1 24.3719 4.0903 -2.64864
420 1 24.5778 4.82344 -1.45384
422 1 25.9769 4.92008 -1.1203
250 1 20.382 3.2536 -3.69224
251 1 20.6516 4.20874 -2.67405
253 1 21.9595 4.41181 -2.30871
416 1 22.1758 4.94544 -1.01654
418 1 23.5157 4.99364 -0.522917
414 1 21.0971 5.17385 -0.118036
164 1 24.7424 -0.00984891 -5.26104
529 1 -22.0099 -1.28845 4.96823
438 1 -20.6493 -1.70414 4.80972
439 1 -20.4057 -2.89122 4.1543
526 1 -24.6919 -0.394763 5.23303
431 1 -24.4479 -1.70325 4.83271
434 1 -23.1098 -2.16197 4.62359
435 1 -22.8657 -3.28656 3.859
436 1 -21.4801 -3.55238 3.48695
437 1 -21.2062 -4.40889 2.38214
523 1 -26.98 -0.920078 5.02966
427 1 -26.8084 -2.20852 4.54981
429 1 -25.4968 -2.54242 4.41984
430 1 -25.2929 -3.61709 3.52974
432 1 -23.9268 -3.92779 3.20521
433 1 -23.6309 -4.60911 2.02724
273 1 -22.3087 -4.74307 1.59312
274 1 -21.9926 -5.08889 0.259392
425 1 -27.87 -3.047 4.193
426 1 -27.602 -4.052 3.232
428 1 -26.3145 -4.23666 2.82606
268 1 -26.065 -4.87115 1.61069
270 1 -24.7186 -4.98268 1.20907
266 1 -27.1351 -5.04369 0.714861
536 1 -17.2137 -0.374915 5.25364
532 1 -19.5818 -0.814792 5.0648
534 1 -18.2811 -1.26923 4.9675
443 1 -17.9872 -2.57099 4.42781
441 1 -19.0828 -3.32515 3.90127
442 1 -18.7927 -4.24132 2.83965
444 1 -17.3979 -4.48473 2.45417
280 1 -17.128 -4.95984 1.1544
440 1 -19.8694 -4.66221 1.98195
277 1 -19.5628 -5.01373 0.68802
278 1 -18.2099 -5.07074 0.228545
540 1 -13.3859 -0.36457 5.05719
450 1 -13.0541 -1.70531 4.83598
537 1 -15.8802 -0.884871 5.18123
447 1 -15.6911 -2.25126 4.8426
449 1 -13.8267 -3.93052 3.66427
451 1 -12.4761 -4.04754 3.18577
452 1 -12.2509 -4.63409 1.9547
445 1 -16.674 -3.04569 4.21198
446 1 -16.3093 -4.04695 3.26174
448 1 -14.9511 -4.35037 2.87696
284 1 -14.7176 -4.89326 1.60388
286 1 -13.3708 -5.01188 1.14385
282 1 -15.7831 -5.09573 0.708936
550 1 -5.94882 -0.369984 5.12428
546 1 -8.34698 -0.761386 5.05992
548 1 -7.02307 -1.23936 4.95005
462 1 -6.72431 -2.48423 4.42033
543 1 -10.6815 -1.22211 4.89451
457 1 -9.38751 -1.71304 4.79065
458 1 -9.11649 -2.88838 4.13898
460 1 -7.76737 -3.23149 3.84297
461 1 -7.528 -4.09315 2.75231
463 1 -6.22177 -4.28339 2.25632
296 1 -5.90243 -4.78149 0.937932
453 1 -11.7244 -2.13253 4.56698
454 1 -11.4427 -3.30264 3.78121
455 1 -10.1211 -3.55143 3.4747
456 1 -9.90988 -4.31379 2.26217
459 1 -8.58207 -4.50801 1.90057
293 1 -8.33338 -4.93832 0.575756
294 1 -6.97268 -4.97611 0.101601
289 1 -10.9644 -4.74139 1.46448
290 1 -10.6899 -5.02253 0.168663
551 1 -4.56388 -0.790731 5.0178
466 1 -4.29512 -2.08799 4.56412
464 1 -5.40625 -2.8185 4.07298
465 1 -5.1636 -3.73694 3.00145
298 1 -4.58885 -4.90633 0.503221
560 1 2.99281 -0.911544 4.98401
557 1 0.564468 -1.35759 4.94663
477 1 1.92353 -1.73963 4.77357
478 1 2.13929 -2.97197 4.13403
480 1 3.45367 -3.43187 3.94022
481 1 3.69867 -4.31253 2.86007
554 1 -2.13797 -0.374008 5.05983
470 1 -1.88979 -1.76254 4.79488
473 1 -0.547191 -2.20059 4.53423
474 1 -0.29807 -3.37844 3.79742
475 1 1.03116 -3.70455 3.57734
476 1 1.27557 -4.44246 2.38152
479 1 2.62187 -4.68088 2.03567
309 1 2.89696 -5.0758 0.667965
468 1 -3.00404 -2.5478 4.37419
469 1 -2.76708 -3.59184 3.47424
471 1 -1.38847 -3.93086 3.10519
472 1 -1.14077 -4.56093 1.86635
305 1 0.223234 -4.70848 1.48781
306 1 0.514764 -4.94193 0.119457
467 1 -3.8173 -4.05826 2.66236
300 1 -3.56296 -4.68329 1.42524
302 1 -2.20661 -4.92846 0.976346
564 1 5.38664 -0.473102 4.99569
562 1 4.28818 -1.37212 4.87846
482 1 4.56209 -2.6714 4.4306
483 1 5.06621 -4.58076 2.4547
312 1 5.29114 -5.07481 1.16144
310 1 4.2434 -5.10336 0.213326
571 1 11.732 -1.33273 4.87778
568 1 9.11445 -0.472177 4.95154
490 1 9.3717 -1.83455 4.70932
493 1 10.6786 -2.22661 4.57885
494 1 10.9176 -3.39062 3.86166
565 1 6.7362 -0.93008 4.9064
486 1 7.02722 -2.2666 4.61899
488 1 8.30694 -2.6835 4.35483
489 1 8.56471 -3.81234 3.52734
491 1 9.885 -4.03827 3.18961
492 1 10.1575 -4.69121 1.98318
321 1 11.518 -4.81793 1.58126
322 1 11.7457 -5.03883 0.23239
484 1 5.92696 -3.07883 4.21212
485 1 6.12718 -4.08847 3.22247
487 1 7.44143 -4.32332 2.79404
316 1 7.65002 -4.86565 1.52574
318 1 9.03462 -4.87398 1.11539
314 1 6.6215 -5.1385 0.646494
578 1 16.5525 -0.477692 5.22594
574 1 14.1053 -0.919388 5.16904
576 1 15.4668 -1.42169 5.10917
502 1 15.7549 -2.72324 4.4387
497 1 13.0585 -1.82833 4.84829
498 1 13.3274 -3.03999 4.16691
500 1 14.689 -3.40804 3.84797
501 1 15.0124 -4.33604 2.82129
503 1 16.3402 -4.46999 2.39921
328 1 16.6165 -4.84367 1.05869
495 1 12.2697 -3.67189 3.54582
496 1 12.5995 -4.49245 2.43427
499 1 13.9467 -4.71983 2.00314
325 1 14.2083 -4.96013 0.663798
326 1 15.5563 -5.02573 0.169612
579 1 17.9123 -0.96749 5.19619
506 1 18.1569 -2.32129 4.79916
508 1 19.3821 -2.76058 4.52884
509 1 19.758 -3.73289 3.57616
504 1 17.0998 -3.11597 4.24398
505 1 17.4102 -3.95833 3.1348
507 1 18.7049 -4.18213 2.7379
332 1 19.0208 -4.6694 1.45449
330 1 17.9354 -4.86215 0.586387
592 1 27.87 -0.465 5.162
588 1 25.4501 -0.90054 5.04365
590 1 26.777 -1.33947 4.93307
521 1 27.1019 -2.59643 4.44999
585 1 23.0936 -1.41615 5.14395
516 1 24.4108 -1.79147 4.8497
517 1 24.7248 -3.05146 4.27324
519 1 26.0567 -3.37468 3.91797
520 1 26.2833 -4.23692 2.87796
522 1 27.602 -4.564 2.456
344 1 27.87 -5.053 1.153
582 1 20.317 -0.398659 5.57179
512 1 22.06 -2.32415 4.82676
513 1 22.2667 -3.36689 3.94652
514 1 23.5934 -3.64247 3.60408
515 1 23.804 -4.33686 2.42693
518 1 25.1626 -4.56493 2.03573
341 1 25.4121 -4.91083 0.678953
342 1 26.7894 -5.017 0.186331
510 1 21.1285 -3.85246 3.20153
511 1 21.3987 -4.46348 1.94415
337 1 22.755 -4.67628 1.55397
338 1 23.0497 -4.91144 0.207716
334 1 20.354 -4.69944 1.03621
355 1 -21.2316 4.88612 0.762899
351 1 -23.6478 4.96053 1.16577
353 1 -22.3336 4.79755 1.63524
604 1 -22.046 4.40973 2.95099
606 1 -20.6792 4.14099 3.36663
607 1 -20.4624 3.14028 4.341
347 1 -26.3106 5.18488 0.240819
348 1 -26.0041 4.986 1.60834
599 1 -24.6766 4.75488 2.02219
600 1 -24.4492 4.08707 3.27487
602 1 -23.1292 3.78224 3.65504
603 1 -22.8823 2.72903 4.49673
605 1 -21.5211 2.33311 4.73886
530 1 -21.2138 1.0027 5.14493
595 1 -27.0772 4.61635 2.48087
596 1 -26.8546 3.86001 3.70345
597 1 -25.5498 3.49611 4.00511
598 1 -25.2351 2.26632 4.66979
601 1 -23.9057 1.89898 4.91994
527 1 -23.6608 0.541362 5.23838
528 1 -22.3042 0.0992287 5.16674
593 1 -27.87 3.047 4.193
594 1 -27.602 1.821 4.853
524 1 -26.2979 1.42512 5.04185
525 1 -26.0134 0.0650491 5.24028
359 1 -18.8332 4.92693 0.316185
360 1 -17.4825 4.98113 0.763622
612 1 -17.2109 4.80531 2.13889
357 1 -19.8937 4.94478 1.2366
608 1 -19.5998 4.60282 2.58291
610 1 -18.2747 4.47083 2.98237
611 1 -18.0168 3.50888 4.01413
609 1 -19.0891 2.79539 4.60407
533 1 -18.8233 1.51248 5.10369
535 1 -17.442 1.0589 5.19724
531 1 -19.8593 0.542645 5.21306
367 1 -12.3815 4.9111 1.16538
363 1 -15.0734 4.99027 0.287475
364 1 -14.799 4.88575 1.65066
619 1 -13.4458 4.67482 2.05824
620 1 -13.1782 3.98119 3.27866
615 1 -15.8307 4.64451 2.53213
616 1 -15.543 3.80467 3.66892
617 1 -14.2236 3.48337 4.04557
618 1 -13.9344 2.31995 4.77404
621 1 -12.5794 1.90767 4.80545
541 1 -12.335 0.569633 5.01157
613 1 -16.6368 3.11407 4.28456
614 1 -16.3779 1.87044 4.90428
538 1 -14.9923 1.37636 5.06495
539 1 -14.7736 0.0010808 5.16314
375 1 -7.54979 5.10886 0.172149
376 1 -6.19587 5.12677 0.561659
632 1 -5.87092 4.79976 1.92571
371 1 -9.96057 5.06664 0.658824
373 1 -8.62025 5.03804 1.0665
628 1 -8.31382 4.55353 2.38991
630 1 -6.94675 4.39194 2.81132
631 1 -6.71495 3.47994 3.88743
369 1 -11.0346 4.88378 1.58837
624 1 -10.7466 4.3309 2.87862
626 1 -9.37376 4.11004 3.18256
627 1 -9.14848 3.15718 4.20233
629 1 -7.79655 2.76509 4.42255
547 1 -7.52668 1.49669 5.02163
549 1 -6.1905 1.02724 5.01773
622 1 -11.852 3.77319 3.62198
623 1 -11.5415 2.7713 4.44766
625 1 -10.2287 2.34405 4.6121
544 1 -9.97787 1.08096 5.06734
545 1 -8.63985 0.641626 5.15116
542 1 -11.0099 0.155647 5.08433
635 1 -4.51263 4.58105 2.35406
636 1 -4.27666 3.80816 3.49284
633 1 -5.35563 3.09879 4.10213
634 1 -5.06721 1.88643 4.73117
391 1 3.75255 5.2567 0.193064
387 1 1.32716 5.25711 0.648164
389 1 2.6967 5.2079 1.10884
648 1 2.9541 4.65055 2.40519
383 1 -1.08708 5.05566 1.00781
385 1 0.266688 4.99733 1.49113
644 1 0.534082 4.41338 2.75033
646 1 1.89302 4.04205 3.08413
647 1 2.18371 3.02361 4.05518
649 1 3.52067 2.62585 4.28787
561 1 3.77128 1.35417 4.88044
379 1 -3.77146 5.10247 0.0723729
380 1 -3.47245 4.89517 1.43037
639 1 -2.15828 4.72304 1.83092
640 1 -1.86428 3.99502 3.03469
642 1 -0.497155 3.74674 3.42454
643 1 -0.193555 2.64667 4.25988
645 1 1.10571 2.25443 4.54432
558 1 1.41321 0.940391 5.00919
559 1 2.73977 0.46945 5.08121
637 1 -2.92578 3.42148 3.7713
638 1 -2.58711 2.27597 4.50632
641 1 -1.2698 1.84711 4.71217
555 1 -1.04064 0.498559 5.09657
556 1 0.347792 0.0614871 5.18224
552 1 -3.6954 1.49319 4.89941
553 1 -3.4609 0.140162 5.11427
392 1 5.0858 5.22394 0.689651
652 1 5.38627 4.82943 2.00874
650 1 4.27456 4.39961 2.79497
651 1 4.58473 3.42217 3.74974
563 1 5.13085 0.912265 4.93846
399 1 10.1868 5.08663 1.11178
401 1 11.5171 4.93519 1.57392
664 1 11.8082 4.30748 2.81118
395 1 7.52953 5.38187 0.280589
396 1 7.81175 4.98593 1.56692
659 1 9.13683 4.73951 1.97021
660 1 9.4095 4.04802 3.1707
662 1 10.7344 3.76326 3.50977
663 1 10.9618 2.74403 4.44342
655 1 6.72184 4.588 2.3722
656 1 6.97444 3.72798 3.44257
657 1 8.31225 3.40507 3.73674
658 1 8.54888 2.25476 4.5243
661 1 9.87432 1.86438 4.72474
569 1 10.1321 0.514501 5.0191
570 1 11.4426 0.0290951 5.11186
653 1 5.89131 3.07748 4.05278
654 1 6.186 1.82858 4.67073
566 1 7.50831 1.36975 4.80545
567 1 7.80955 0.00332385 4.9102
407 1 15.066 5.0776 0.265426
408 1 16.3796 4.9869 0.698651
672 1 16.6272 4.62589 2.0363
403 1 12.6129 5.0369 0.719641
405 1 13.9583 5.02015 1.16105
668 1 14.234 4.4923 2.43171
670 1 15.5257 4.19421 2.83031
671 1 15.7619 3.32895 3.90717
666 1 13.1409 4.05267 3.18128
667 1 13.3767 3.10538 4.25635
669 1 14.6925 2.69814 4.53388
575 1 14.9447 1.41381 5.06775
577 1 16.2681 0.930381 5.16799
665 1 12.2851 2.2957 4.69272
572 1 12.523 0.941967 5.08366
573 1 13.8612 0.495888 5.22132
411 1 18.7575 5.12709 0.308779
412 1 19.022 4.82329 1.6378
675 1 17.9522 4.43971 2.4577
676 1 18.1742 3.6757 3.57414
677 1 19.5209 3.31451 3.87133
678 1 19.8027 2.19577 4.71537
673 1 17.1098 2.98519 4.2154
674 1 17.3756 1.79808 4.92036
580 1 18.7043 1.37191 5.12753
581 1 18.9561 0.0128248 5.41222
423 1 26.2481 5.03691 0.253178
424 1 27.602 5.136 0.696
692 1 27.87 4.766 2.037
419 1 23.804 4.96034 0.811606
421 1 25.1738 4.96971 1.19473
688 1 25.478 4.48197 2.51126
690 1 26.8154 4.3183 2.88241
691 1 27.0245 3.38112 3.89123
415 1 21.4001 4.96996 1.23342
417 1 22.7512 4.71442 1.63355
684 1 22.9905 4.15644 2.83005
686 1 24.3591 4.02541 3.28551
687 1 24.635 3.07521 4.27993
689 1 25.9748 2.66359 4.50164
589 1 26.233 1.3685 4.95007
591 1 27.602 0.925 5.1
679 1 20.3501 4.7306 2.0747
680 1 20.643 3.97573 3.20324
682 1 21.9351 3.6969 3.56846
683 1 22.236 2.65044 4.42058
685 1 23.5987 2.20804 4.65861
586 1 23.874 0.872684 5.16008
587 1 25.2093 0.448989 5.19045
681 1 21.1836 1.80283 4.91806
583 1 21.4221 0.42789 5.33301
584 1 22.7821 -0.0427207 5.29472
ITEM: TIMESTEP
1000
ITEM: NUMBER OF ATOMS
692
ITEM: BOX BOUNDS ff ff ff
-6.0000000000000000e+01 6.0000000000000000e+01
-4.0000000000000000e+01 4.0000000000000000e+01
-4.0000000000000000e+01 4.0000000000000000e+01
ITEM: ATOMS id type x y z
275 1 -20.5945 -4.9578 -0.344437
276 1 -20.3053 -4.81084 -1.7065
271 1 -24.3999 -5.14437 -0.300175
272 1 -23.0694 -5.06499 -0.804535
8 1 -22.7556 -4.67136 -2.12236
11 1 -21.4033 -4.4715 -2.53711
12 1 -21.0949 -3.58992 -3.66191
267 1 -26.8542 -5.28489 -0.667643
269 1 -25.5355 -5.27797 -1.11417
6 1 -23.7472 -4.11463 -2.86728
7 1 -23.5338 -3.37227 -3.9922
9 1 -22.1899 -2.98025 -4.29589
10 1 -21.8998 -1.76509 -4.94368
108 1 -20.5936 -1.34765 -5.14921
265 1 -27.87 -4.93 -1.602
1 1 -27.602 -4.326 -2.855
3 1 -26.3495 -4.20816 -3.51884
4 1 -26.0544 -3.06672 -4.34079
5 1 -24.6779 -2.67639 -4.52077
103 1 -24.3717 -1.34716 -4.99417
105 1 -22.9923 -0.90169 -5.04647
2 1 -27.0913 -2.24119 -4.79644
100 1 -26.7888 -0.904531 -5.19947
101 1 -25.4358 -0.445506 -5.26392
279 1 -17.9124 -4.89229 -1.32521
15 1 -19.0029 -4.68234 -2.24435
16 1 -18.7085 -3.99338 -3.4444
18 1 -17.3859 -3.6973 -3.77875
19 1 -17.1012 -2.60383 -4.64455
13 1 -19.8049 -3.35396 -4.07145
14 1 -19.5272 -2.23777 -4.90755
17 1 -18.169 -1.78751 -5.09013
111 1 -17.9149 -0.394181 -5.37928
287 1 -13.0462 -5.10076 -0.33174
283 1 -15.541 -4.99593 -0.790299
285 1 -14.1693 -5.02363 -1.22062
24 1 -13.9084 -4.54393 -2.53365
26 1 -12.5293 -4.32463 -2.8431
27 1 -12.314 -3.38015 -3.84374
281 1 -16.5932 -4.77147 -1.74216
20 1 -16.3047 -4.25448 -2.9938
22 1 -14.9779 -4.03454 -3.30682
23 1 -14.7083 -3.00065 -4.22271
25 1 -13.3673 -2.60843 -4.42193
117 1 -13.0376 -1.31712 -4.96159
21 1 -15.751 -2.16832 -4.76038
114 1 -15.4884 -0.833207 -5.17906
115 1 -14.1303 -0.432419 -5.20229
295 1 -6.67238 -5.14472 -1.14524
291 1 -9.31265 -5.15693 -0.213767
292 1 -9.03725 -4.94559 -1.58445
35 1 -7.73805 -4.72359 -1.98161
36 1 -7.50432 -3.94081 -3.11033
38 1 -6.19081 -3.58046 -3.41332
39 1 -5.92757 -2.52931 -4.31564
288 1 -11.6817 -5.10618 -0.718891
28 1 -11.4264 -4.73986 -2.03674
31 1 -10.0899 -4.52325 -2.4127
32 1 -9.86844 -3.64203 -3.48969
33 1 -8.55333 -3.23899 -3.74956
34 1 -8.32126 -2.0685 -4.51623
37 1 -7.02436 -1.64787 -4.72627
125 1 -6.71806 -0.298605 -5.11721
29 1 -10.9675 -2.98615 -4.07185
30 1 -10.7037 -1.75883 -4.73014
122 1 -9.38696 -1.26298 -4.81348
119 1 -11.7281 -0.855624 -5.09235
299 1 -4.2804 -5.13687 -0.685362
297 1 -5.3712 -4.87576 -1.58035
40 1 -5.07803 -4.08816 -2.71359
41 1 -4.60713 -2.10857 -4.64386
128 1 -4.37385 -0.759754 -5.15216
307 1 1.77602 -5.01672 -0.240421
308 1 2.01121 -4.84566 -1.62642
55 1 3.41637 -4.71906 -1.99992
56 1 3.71695 -3.96057 -3.15873
303 1 -1.9409 -5.05229 -0.250875
304 1 -0.620194 -4.98117 -0.662791
48 1 -0.326129 -4.51785 -1.95673
51 1 0.991467 -4.33934 -2.41578
52 1 1.30921 -3.58419 -3.51667
53 1 2.65659 -3.28312 -3.7929
54 1 2.89418 -2.08137 -4.47265
301 1 -2.96017 -4.87501 -1.15851
44 1 -2.66324 -4.34582 -2.36816
46 1 -1.35419 -4.14416 -2.77
47 1 -1.06625 -3.23924 -3.78523
49 1 0.252648 -2.84993 -4.0826
50 1 0.501235 -1.63074 -4.75229
136 1 1.88431 -1.18199 -4.81396
42 1 -3.74428 -3.84157 -3.11066
43 1 -3.55374 -2.89925 -4.12221
45 1 -2.18836 -2.50087 -4.32861
131 1 -1.94939 -1.24329 -4.90987
133 1 -0.595708 -0.798254 -5.01542
129 1 -3.00933 -0.375042 -5.17119
311 1 4.5006 -5.03126 -1.14857
58 1 5.02529 -3.66834 -3.53151
59 1 5.29219 -2.5618 -4.32318
57 1 4.25631 -1.71254 -4.65889
139 1 4.5486 -0.365548 -4.89624
319 1 9.33729 -5.16459 -0.309879
320 1 10.6663 -5.16868 -0.804433
68 1 10.9161 -4.89702 -2.16173
315 1 6.92825 -5.11719 -0.728252
317 1 8.24253 -5.06934 -1.16206
64 1 8.5169 -4.64203 -2.49859
66 1 9.82675 -4.45088 -2.96621
67 1 10.0754 -3.47181 -4.00998
69 1 11.3676 -3.02371 -4.38179
70 1 11.7827 -1.75545 -4.82684
313 1 5.84722 -4.88004 -1.58624
60 1 6.13137 -4.27214 -2.85921
62 1 7.49338 -4.00767 -3.22573
63 1 7.71925 -2.9339 -4.14261
65 1 9.04808 -2.56916 -4.38576
145 1 9.39684 -1.29456 -4.89408
147 1 10.6772 -0.88033 -4.93373
61 1 6.64226 -2.11782 -4.56093
142 1 6.96394 -0.781541 -4.91703
143 1 8.32173 -0.357548 -5.04769
157 1 19.496 -0.500727 -5.39973
156 1 18.1937 -1.00016 -5.27069
80 1 17.9735 -2.29183 -4.8093
327 1 15.7885 -4.87031 -1.23151
323 1 13.0899 -5.03189 -0.415941
324 1 13.352 -4.93877 -1.80411
74 1 14.7188 -4.74737 -2.2069
75 1 15.0582 -4.08864 -3.42066
77 1 16.4043 -3.80044 -3.72995
78 1 16.6532 -2.69616 -4.56481
71 1 12.2445 -4.87918 -2.66852
72 1 14.0865 -3.44469 -4.18967
73 1 14.2806 -2.23802 -4.84768
76 1 15.6012 -1.80591 -4.92553
153 1 15.7885 -0.460497 -5.19599
150 1 13.149 -1.40071 -5.01511
331 1 18.2173 -4.92547 -0.733872
333 1 19.582 -4.98061 -1.20246
83 1 19.8468 -4.57965 -2.5478
329 1 17.1274 -4.78266 -1.66254
79 1 17.4079 -4.33203 -2.98758
81 1 18.7832 -4.01017 -3.29212
82 1 19.041 -3.14375 -4.39253
160 1 22.0901 -0.248268 -6.61924
343 1 27.0466 -5.03134 -1.13507
339 1 24.3294 -5.16639 -0.162552
340 1 24.6377 -4.97431 -1.54703
93 1 25.9754 -4.80572 -2.01677
94 1 26.2725 -4.08223 -3.21834
96 1 27.602 -3.746 -3.582
97 1 27.87 -2.658 -4.45
335 1 20.6123 -5.08985 -0.237791
336 1 21.9596 -5.16789 -0.697069
87 1 22.2703 -4.78613 -2.04504
89 1 23.6164 -4.59135 -2.42856
90 1 23.8787 -3.84205 -3.59337
91 1 25.1855 -3.40514 -3.87226
92 1 25.4167 -2.27254 -4.67845
95 1 26.7617 -1.86108 -4.81432
166 1 27.0782 -0.483368 -5.10488
85 1 21.1929 -4.41221 -2.91532
86 1 21.4313 -3.67503 -4.15394
88 1 22.8195 -3.42639 -4.45701
84 1 20.3609 -3.01932 -4.8611
163 1 24.4553 -1.36324 -5.14717
107 1 -21.4459 0.905561 -5.16043
178 1 -21.1438 2.27081 -4.71277
104 1 -23.8963 1.39146 -5.04677
174 1 -23.5883 2.63675 -4.42944
176 1 -22.2364 3.06748 -4.20881
177 1 -21.9736 4.00322 -3.18267
179 1 -20.6174 4.25352 -2.87926
356 1 -20.3545 4.70583 -1.62797
98 1 -27.87 0 -5.183
99 1 -27.602 1.379 -4.996
169 1 -26.2945 1.80847 -4.84911
170 1 -26.0639 3.01014 -4.16077
172 1 -24.6798 3.34878 -3.85736
173 1 -24.422 4.25691 -2.81949
175 1 -23.0717 4.47493 -2.40723
352 1 -22.802 4.9388 -1.12291
354 1 -21.4344 4.87968 -0.730182
167 1 -27.0945 3.69658 -3.54051
168 1 -26.8138 4.61881 -2.48117
171 1 -25.4653 4.76181 -2.04723
349 1 -25.2138 5.09959 -0.681299
350 1 -23.8763 5.01903 -0.222901
345 1 -27.87 4.93 -1.602
346 1 -27.602 5.178 -0.233
109 1 -20.3303 0.0365474 -5.27467
106 1 -22.8043 0.446023 -5.1768
102 1 -25.2079 0.930615 -5.06491
110 1 -18.9737 0.543239 -5.25346
182 1 -18.6841 1.87029 -4.86137
185 1 -17.3604 2.26362 -4.72046
186 1 -17.1059 3.36876 -3.89976
180 1 -19.7714 2.63614 -4.46611
181 1 -19.4912 3.6884 -3.60924
183 1 -18.1386 3.9456 -3.22773
184 1 -17.8873 4.55109 -1.94415
358 1 -19.0195 4.7865 -1.11266
118 1 -12.5465 1.45928 -5.0546
194 1 -12.3447 2.71143 -4.44979
112 1 -16.556 0.0401568 -5.30934
113 1 -16.2645 1.39364 -5.0973
189 1 -14.929 1.78438 -4.87075
190 1 -14.7 2.97987 -4.15632
192 1 -13.3987 3.42684 -3.91596
193 1 -13.1748 4.35462 -2.82639
187 1 -15.7831 3.63683 -3.54989
188 1 -15.5408 4.3649 -2.37401
191 1 -14.2175 4.59192 -1.92598
365 1 -13.9076 5.01055 -0.651117
366 1 -12.5727 5.31269 -0.276207
361 1 -16.5728 4.73691 -1.54421
362 1 -16.347 5.01903 -0.161888
116 1 -13.8529 0.998437 -5.16755
124 1 -7.83621 0.557865 -5.02525
202 1 -7.61053 1.94399 -4.77178
205 1 -6.29968 2.39243 -4.681
206 1 -6.00967 3.56933 -3.92082
121 1 -10.1847 0.996508 -5.01158
198 1 -9.94677 2.33329 -4.58048
200 1 -8.64411 2.78369 -4.39164
201 1 -8.38363 3.89459 -3.55314
203 1 -7.08207 4.16164 -3.19437
204 1 -6.78014 4.87823 -2.0213
196 1 -11.0475 3.06061 -4.14411
197 1 -10.7952 4.12538 -3.20251
199 1 -9.45075 4.45929 -2.87489
372 1 -9.13375 5.10795 -1.67896
374 1 -7.80153 5.17091 -1.15874
195 1 -11.8369 4.66533 -2.46226
368 1 -11.5524 5.2685 -1.22644
370 1 -10.2137 5.302 -0.796819
123 1 -9.14306 0.095867 -4.985
120 1 -11.4897 0.521535 -5.13163
126 1 -5.43517 0.14044 -5.22616
127 1 -5.27431 1.54088 -5.20784
207 1 -4.71868 4.03344 -3.67628
208 1 -4.39357 4.73769 -2.50719
377 1 -5.45651 4.9877 -1.61516
378 1 -5.11328 5.26289 -0.282897
138 1 3.51384 0.599126 -5.02703
220 1 3.83384 1.94218 -4.86231
135 1 1.02791 1.03544 -5.02374
217 1 1.19389 2.39879 -4.87642
219 1 2.98073 4.23982 -3.86776
132 1 -1.43151 1.49256 -5.06721
213 1 -1.13437 2.83479 -4.62363
215 1 0.179012 3.26855 -4.4033
216 1 0.497327 4.25999 -3.40925
218 1 1.86845 4.50739 -3.01203
388 1 2.09863 4.88971 -1.71782
390 1 3.44998 5.06865 -1.31269
209 1 -3.89783 1.92419 -5.21352
211 1 -2.12586 3.69325 -4.17036
212 1 -1.92403 4.53801 -3.07124
214 1 -0.578767 4.72521 -2.65104
384 1 -0.283504 5.14268 -1.33136
386 1 1.01978 5.05546 -0.831717
210 1 -2.98023 4.85221 -2.17769
381 1 -2.66249 5.22642 -0.845354
382 1 -1.33717 5.26727 -0.39006
137 1 2.14514 0.17227 -5.07318
134 1 -0.327953 0.563374 -5.07905
130 1 -2.78167 1.04364 -5.2114
223 1 5.15849 2.37381 -4.65796
224 1 5.39688 3.59149 -3.96828
221 1 4.33344 4.35396 -3.43991
222 1 4.56875 4.82552 -2.13825
146 1 9.97574 1.39676 -4.86061
232 1 10.2479 2.64032 -4.29839
234 1 11.5902 2.96703 -4.0567
235 1 11.7844 3.91899 -3.05609
140 1 5.86487 0.0760575 -4.96491
141 1 6.19158 1.46433 -4.87139
227 1 7.51556 1.93845 -4.79858
228 1 7.75251 3.13222 -4.12951
230 1 9.17205 3.37587 -3.78651
231 1 9.42527 4.29213 -2.73092
233 1 10.7156 4.48662 -2.28491
400 1 11.0045 5.0293 -1.02192
225 1 6.73826 3.8786 -3.60359
226 1 7.03312 4.60376 -2.42792
229 1 8.34599 4.77793 -2.00262
397 1 8.60015 5.1562 -0.667851
398 1 9.91672 5.19936 -0.168375
393 1 5.91521 4.95748 -1.6641
394 1 6.14791 5.26285 -0.292742
148 1 10.9517 0.470353 -5.07342
144 1 8.61673 1.03209 -5.01068
158 1 19.8041 0.858517 -5.21787
152 1 14.7156 0.421183 -5.13082
240 1 15.002 1.69558 -4.69545
243 1 16.3288 2.13956 -4.54053
244 1 16.6063 3.25185 -3.71834
149 1 12.3592 0.841743 -5.08458
236 1 12.6269 2.09295 -4.55797
238 1 13.9821 2.48908 -4.26366
239 1 14.2021 3.58228 -3.41041
241 1 15.5371 3.88634 -3.05584
242 1 15.8194 4.65702 -1.89629
237 1 13.1437 4.1514 -2.68735
404 1 13.4155 4.80165 -1.43058
406 1 14.7534 5.00833 -1.02503
402 1 12.3529 5.11137 -0.548375
151 1 13.3916 -0.065284 -5.19079
154 1 17.1514 -0.0492186 -5.2783
155 1 17.4153 1.31722 -4.96294
247 1 18.779 1.73188 -4.79964
248 1 19.0336 2.89035 -4.07963
245 1 17.9457 3.58197 -3.4335
246 1 18.2281 4.3785 -2.30916
249 1 19.5825 4.5969 -1.8748
413 1 19.8445 5.13199 -0.59656
409 1 17.1446 4.76226 -1.48499
410 1 17.4112 5.09725 -0.135989
161 1 22.3072 0.639318 -5.59052
165 1 26.0417 0.437422 -5.22014
260 1 26.3158 1.84204 -4.89786
263 1 27.602 2.249 -4.67
264 1 27.87 3.41 -3.903
162 1 23.6579 0.960385 -5.28336
256 1 23.8894 2.18502 -4.59609
258 1 25.227 2.62032 -4.38671
259 1 25.4004 3.69881 -3.53048
261 1 26.7336 4.03382 -3.25722
262 1 26.9937 4.84836 -2.08224
159 1 21.1384 1.34565 -5.14113
252 1 21.457 2.49764 -4.34199
254 1 22.794 2.86314 -4.09186
255 1 22.9968 3.89869 -3.1563
257 1 24.3163 4.20505 -2.78904
420 1 24.591 4.8662 -1.58434
422 1 25.9269 5.05664 -1.15505
250 1 20.3796 3.2391 -3.80476
251 1 20.6357 4.12143 -2.76373
253 1 21.9706 4.36372 -2.36897
416 1 22.2196 4.88366 -1.07448
418 1 23.5667 5.05103 -0.677931
414 1 21.1565 5.18922 -0.181005
164 1 24.7074 -0.0056195 -5.33634
529 1 -21.9479 -1.29444 4.97821
438 1 -20.5611 -1.72582 4.72371
439 1 -20.3273 -2.87263 3.98296
526 1 -24.6686 -0.419661 5.27297
431 1 -24.4025 -1.75486 4.81252
434 1 -23.0453 -2.12506 4.57941
435 1 -22.768 -3.25537 3.74975
436 1 -21.4381 -3.49683 3.36044
437 1 -21.1046 -4.35967 2.27098
523 1 -27.0316 -0.989721 5.15133
427 1 -26.7834 -2.28153 4.65014
429 1 -25.475 -2.58741 4.41004
430 1 -25.1462 -3.57925 3.50826
432 1 -23.8098 -3.91802 3.114
433 1 -23.5024 -4.62203 1.94494
273 1 -22.1843 -4.79958 1.47378
274 1 -21.9598 -5.03731 0.110877
425 1 -27.87 -3.047 4.193
426 1 -27.602 -4.052 3.232
428 1 -26.259 -4.21566 2.82538
268 1 -26.0208 -4.91196 1.59421
270 1 -24.6372 -5.00622 1.10868
266 1 -27.0998 -5.12387 0.699302
536 1 -17.0769 -0.39924 5.12102
532 1 -19.521 -0.860666 5.04793
534 1 -18.1509 -1.27581 4.8877
443 1 -17.9362 -2.48869 4.26618
441 1 -18.9817 -3.19462 3.67624
442 1 -18.7156 -4.05234 2.64463
444 1 -17.39 -4.37341 2.29348
280 1 -17.1623 -4.86945 0.983411
440 1 -19.7678 -4.54045 1.86658
277 1 -19.5276 -4.9492 0.560001
278 1 -18.2411 -4.96535 0.0725381
540 1 -13.2447 -0.377027 5.24099
450 1 -12.9471 -1.75545 5.07139
537 1 -15.722 -0.85344 5.14371
447 1 -15.5589 -2.10443 4.61382
449 1 -13.9038 -3.87037 3.53869
451 1 -12.5581 -4.00592 3.1788
452 1 -12.3434 -4.61903 1.95062
445 1 -16.5927 -2.94051 4.1358
446 1 -16.3019 -3.92813 3.16017
448 1 -14.9704 -4.22997 2.73414
284 1 -14.738 -4.72281 1.41507
286 1 -13.3813 -4.87463 1.00833
282 1 -15.8292 -4.91384 0.547047
550 1 -5.83475 -0.405709 4.9785
546 1 -8.21001 -0.784233 4.88695
548 1 -6.89658 -1.29147 4.77653
462 1 -6.63664 -2.58649 4.25495
543 1 -10.6361 -1.27136 4.89835
457 1 -9.29823 -1.66814 4.6398
458 1 -9.05078 -2.93466 4.02324
460 1 -7.69041 -3.34195 3.72107
461 1 -7.41102 -4.316 2.74497
463 1 -6.13716 -4.58671 2.44088
296 1 -5.94815 -5.22496 1.16508
453 1 -11.6943 -2.18015 4.66204
454 1 -11.496 -3.30062 3.82704
455 1 -10.136 -3.68991 3.57995
456 1 -9.83235 -4.56918 2.45535
459 1 -8.50113 -4.80793 1.99687
293 1 -8.27065 -5.21359 0.671234
294 1 -6.95278 -5.34169 0.181339
289 1 -10.951 -4.85343 1.59713
290 1 -10.6447 -5.13983 0.263321
551 1 -4.47565 -0.834066 4.83662
466 1 -4.2054 -2.18336 4.51449
464 1 -5.3238 -3.01338 4.02945
465 1 -5.0644 -4.05309 3.12711
298 1 -4.58099 -5.3178 0.681625
560 1 2.92482 -0.869681 4.94695
557 1 0.538155 -1.31608 4.75758
477 1 1.89343 -1.7609 4.65403
478 1 2.15984 -2.94749 4.01025
480 1 3.48606 -3.28039 3.77425
481 1 3.76738 -4.24749 2.75986
554 1 -2.11597 -0.359772 4.98882
470 1 -1.85189 -1.72736 4.64172
473 1 -0.545755 -2.19719 4.4851
474 1 -0.271501 -3.35527 3.79485
475 1 1.09744 -3.63227 3.47689
476 1 1.34191 -4.48156 2.38169
479 1 2.71029 -4.73576 1.99296
309 1 2.92199 -5.03889 0.634891
468 1 -2.89198 -2.58926 4.2666
469 1 -2.65259 -3.72615 3.47593
471 1 -1.32855 -4.01679 3.19022
472 1 -1.12084 -4.7977 2.04564
305 1 0.221179 -4.8978 1.62399
306 1 0.450831 -5.12586 0.263391
467 1 -3.73539 -4.32548 2.82571
300 1 -3.5201 -4.99573 1.58647
302 1 -2.19301 -5.0231 1.16804
564 1 5.37423 -0.365924 5.08657
562 1 4.29191 -1.29778 4.90938
482 1 4.54996 -2.61426 4.39742
483 1 5.09829 -4.49887 2.41816
312 1 5.37849 -4.99952 1.11574
310 1 4.27603 -5.14502 0.21597
571 1 11.7689 -1.2802 4.83953
568 1 9.09264 -0.37051 5.07486
490 1 9.35184 -1.72397 4.78781
493 1 10.6935 -2.09847 4.51152
494 1 10.9332 -3.22274 3.69896
565 1 6.70458 -0.841338 5.12918
486 1 6.93427 -2.1967 4.64988
488 1 8.30272 -2.56278 4.37908
489 1 8.54882 -3.5073 3.37753
491 1 9.86626 -3.77389 2.96214
492 1 10.1348 -4.56841 1.84717
321 1 11.453 -4.69714 1.40489
322 1 11.7288 -5.08379 0.0820572
484 1 5.88155 -2.93955 4.10943
485 1 6.14265 -3.90381 3.14286
487 1 7.4727 -4.13528 2.72001
316 1 7.77978 -4.84001 1.54223
318 1 9.10246 -4.94711 1.03804
314 1 6.67664 -5.03819 0.672423
578 1 16.5658 -0.447805 5.1506
574 1 14.1592 -0.906261 5.03325
576 1 15.4714 -1.35786 4.99404
502 1 15.7218 -2.52624 4.31406
497 1 13.0606 -1.75671 4.75101
498 1 13.3352 -2.91561 4.03812
500 1 14.6641 -3.2452 3.73251
501 1 14.921 -4.11143 2.66387
503 1 16.2835 -4.29479 2.31485
328 1 16.5728 -4.84533 1.04837
495 1 12.2568 -3.59295 3.44187
496 1 12.5002 -4.29643 2.26535
499 1 13.8398 -4.50562 1.84438
325 1 14.1171 -4.85846 0.531142
326 1 15.5017 -5.00758 0.152483
579 1 17.8996 -0.928172 5.16513
506 1 18.0633 -2.21387 4.60049
508 1 19.373 -2.5697 4.36159
509 1 19.7561 -3.60897 3.52786
504 1 17.0082 -2.904 4.0427
505 1 17.3579 -3.82601 3.09626
507 1 18.7007 -4.09771 2.76401
332 1 18.9667 -4.73325 1.56762
330 1 17.9269 -4.87852 0.617414
592 1 27.87 -0.465 5.162
588 1 25.431 -0.829156 5.08064
590 1 26.756 -1.32742 4.96983
521 1 26.9691 -2.59714 4.45337
585 1 23.0633 -1.28335 5.01586
516 1 24.3866 -1.72826 4.83361
517 1 24.578 -2.98381 4.206
519 1 25.9094 -3.35465 3.89289
520 1 26.2396 -4.33124 2.90234
522 1 27.602 -4.564 2.456
344 1 27.87 -5.053 1.153
582 1 20.3432 -0.31038 5.39442
512 1 22.018 -2.14195 4.70489
513 1 22.1955 -3.2646 3.90239
514 1 23.4971 -3.67413 3.60032
515 1 23.7951 -4.55555 2.53558
518 1 25.1473 -4.71572 2.07906
341 1 25.4003 -5.14183 0.731525
342 1 26.7669 -5.17959 0.245391
510 1 21.1137 -3.88885 3.25724
511 1 21.3856 -4.62012 2.06084
337 1 22.7161 -4.75004 1.59159
338 1 23.0274 -5.09171 0.28218
334 1 20.2937 -4.88496 1.1881
355 1 -21.1722 4.86784 0.670328
351 1 -23.6143 4.80703 1.13874
353 1 -22.2454 4.65221 1.5567
604 1 -21.9869 4.12496 2.80634
606 1 -20.6096 3.93479 3.27717
607 1 -20.343 2.93105 4.23986
347 1 -26.3017 5.08892 0.263512
348 1 -26.0182 4.78592 1.60967
599 1 -24.6812 4.53803 1.93866
600 1 -24.4192 3.85343 3.12138
602 1 -23.0724 3.55067 3.49385
603 1 -22.7748 2.58619 4.47617
605 1 -21.4152 2.19206 4.72046
530 1 -21.1298 0.865157 5.21804
595 1 -27.0877 4.50646 2.46073
596 1 -26.8038 3.6912 3.55421
597 1 -25.4616 3.27698 3.77411
598 1 -25.2098 2.22153 4.67491
601 1 -23.8438 1.8445 4.9414
527 1 -23.5946 0.522151 5.26322
528 1 -22.2548 0.0473925 5.21392
593 1 -27.87 3.047 4.193
594 1 -27.602 1.821 4.853
524 1 -26.2935 1.37812 5.15436
525 1 -26.0059 -0.00241342 5.33959
359 1 -18.765 4.93644 0.29841
360 1 -17.4386 4.98976 0.760537
612 1 -17.1021 4.58727 2.10363
357 1 -19.8155 4.77816 1.19866
608 1 -19.5169 4.38989 2.5329
610 1 -18.1649 4.21248 2.96107
611 1 -17.8758 3.37562 3.98668
609 1 -18.994 2.63559 4.5155
533 1 -18.6829 1.39942 5.06836
535 1 -17.3172 0.976489 5.17538
531 1 -19.7528 0.465605 5.19994
367 1 -12.3355 5.1792 1.14437
363 1 -15.0112 5.08463 0.277857
364 1 -14.7195 4.92631 1.63216
619 1 -13.3732 4.88034 2.05957
620 1 -13.0691 4.1652 3.30532
615 1 -15.7296 4.53128 2.50089
616 1 -15.4451 3.70126 3.61533
617 1 -14.1065 3.48956 3.93186
618 1 -13.8512 2.33537 4.65804
621 1 -12.5172 1.94178 4.84126
541 1 -12.236 0.570472 5.08387
613 1 -16.5196 3.04509 4.24802
614 1 -16.2511 1.84385 4.8871
538 1 -14.8858 1.45508 5.0165
539 1 -14.6078 0.0664757 5.28668
375 1 -7.51174 5.31097 0.235443
376 1 -6.15202 5.20216 0.64077
632 1 -5.92589 4.82557 1.96954
371 1 -9.91454 5.18113 0.620406
373 1 -8.60309 5.12135 1.11632
628 1 -8.36724 4.71914 2.43089
630 1 -7.00721 4.40345 2.74531
631 1 -6.65169 3.55907 3.78559
369 1 -10.9825 5.03287 1.58137
624 1 -10.734 4.4331 2.84681
626 1 -9.40328 4.1526 3.19256
627 1 -9.09767 3.16884 4.18317
629 1 -7.72303 2.75505 4.30858
547 1 -7.42792 1.50319 4.85821
549 1 -6.12486 0.995061 4.90781
622 1 -11.728 3.90412 3.65965
623 1 -11.4774 2.80655 4.53171
625 1 -10.1359 2.38603 4.68236
544 1 -9.87871 1.08312 5.00125
545 1 -8.52529 0.630225 4.98729
542 1 -10.9058 0.137514 5.0606
635 1 -4.60627 4.62675 2.37826
636 1 -4.27595 3.79016 3.45461
633 1 -5.3268 3.12961 4.07464
634 1 -5.063 1.90336 4.67415
391 1 3.67598 5.24089 0.0768626
387 1 1.32658 5.21644 0.540557
389 1 2.62129 5.10486 0.991334
648 1 2.88805 4.51155 2.23376
383 1 -1.07345 5.12563 1.02534
385 1 0.234198 4.95631 1.40883
644 1 0.501885 4.30375 2.65026
646 1 1.83436 4.00582 2.98956
647 1 2.14019 3.04454 3.94547
649 1 3.4847 2.70979 4.28986
561 1 3.74568 1.44626 4.86617
379 1 -3.71447 5.31853 0.101421
380 1 -3.49852 4.98043 1.50054
639 1 -2.16817 4.82832 1.88981
640 1 -1.93183 4.08176 3.07103
642 1 -0.580087 3.76678 3.41561
643 1 -0.295414 2.71445 4.24712
645 1 1.04926 2.28846 4.44417
558 1 1.30647 0.997578 4.88884
559 1 2.63559 0.553834 4.98636
637 1 -2.95058 3.48123 3.78247
638 1 -2.68289 2.35795 4.60722
641 1 -1.35584 1.90449 4.68492
555 1 -1.08317 0.567375 5.01922
556 1 0.2769 0.0569047 4.93465
552 1 -3.75497 1.5077 4.85406
553 1 -3.43926 0.118023 4.97904
392 1 5.02063 5.21166 0.568569
652 1 5.32098 4.70194 1.84863
650 1 4.24824 4.22525 2.57351
651 1 4.55069 3.39333 3.69833
563 1 5.06689 0.963003 4.96501
399 1 10.1537 5.08153 1.17716
401 1 11.4896 4.94098 1.61362
664 1 11.7565 4.29029 2.835
395 1 7.49283 5.26778 0.197094
396 1 7.76218 4.99941 1.5288
659 1 9.0608 4.76669 1.95749
660 1 9.34126 4.01375 3.11713
662 1 10.6841 3.69639 3.50409
663 1 10.9354 2.6266 4.37532
655 1 6.69263 4.56162 2.30821
656 1 6.93749 3.69875 3.43056
657 1 8.28257 3.35225 3.74311
658 1 8.55647 2.19848 4.52512
661 1 9.8652 1.82829 4.72313
569 1 10.1495 0.538708 5.0317
570 1 11.4788 0.0739011 5.04179
653 1 5.88201 3.03133 4.04874
654 1 6.11026 1.84917 4.73778
566 1 7.42797 1.38051 4.84051
567 1 7.76526 0.0482605 5.13977
407 1 14.9877 5.14686 0.366774
408 1 16.3308 5.14179 0.811575
672 1 16.5967 4.86756 2.18514
403 1 12.5747 5.19822 0.809544
405 1 13.915 5.11235 1.25905
668 1 14.1726 4.66874 2.56821
670 1 15.4986 4.39977 2.99287
671 1 15.7246 3.43761 3.92985
666 1 13.0832 4.13365 3.30785
667 1 13.3548 3.08383 4.18489
669 1 14.6878 2.68619 4.42182
575 1 15.0073 1.39598 4.95269
577 1 16.3092 0.960627 5.09734
665 1 12.2972 2.2472 4.58188
572 1 12.5662 0.958626 5.02885
573 1 13.9092 0.50284 5.10088
411 1 18.7641 5.14874 0.318841
412 1 19.0052 5.01254 1.70696
675 1 17.9078 4.67696 2.59476
676 1 18.1713 3.85129 3.73274
677 1 19.5336 3.45996 3.94618
678 1 19.8072 2.28805 4.70623
673 1 17.0527 3.08965 4.22021
674 1 17.3611 1.8639 4.8816
580 1 18.7023 1.46222 5.05866
581 1 18.9772 0.0440764 5.29114
423 1 26.2491 5.07987 0.16667
424 1 27.602 5.136 0.696
692 1 27.87 4.766 2.037
419 1 23.852 5.02355 0.687829
421 1 25.1811 4.96363 1.07211
688 1 25.4768 4.61938 2.43869
690 1 26.8229 4.3967 2.82717
691 1 27.1361 3.49709 3.86579
415 1 21.4076 5.10369 1.21236
417 1 22.7671 4.88162 1.61822
684 1 23.0433 4.25404 2.86625
686 1 24.4431 4.03383 3.23964
687 1 24.7045 3.04922 4.18581
689 1 26.0526 2.73412 4.40337
589 1 26.2558 1.45107 4.91682
591 1 27.602 0.925 5.1
679 1 20.3368 4.86849 2.11249
680 1 20.5886 4.09186 3.2965
682 1 21.9511 3.7507 3.62989
683 1 22.2152 2.6704 4.45314
685 1 23.5883 2.27101 4.65855
586 1 23.8106 1.00034 5.10614
587 1 25.1267 0.557378 5.08203
681 1 21.1514 1.86118 4.88574
583 1 21.4505 0.556695 5.30938
584 1 22.7946 0.0214025 5.28307
ITEM: TIMESTEP
1100
ITEM: NUMBER OF ATOMS
692
ITEM: BOX BOUNDS ff ff ff
-6.0000000000000000e+01 6.0000000000000000e+01
-4.0000000000000000e+01 4.0000000000000000e+01
-4.0000000000000000e+01 4.0000000000000000e+01
ITEM: ATOMS id type x y z
275 1 -20.6737 -5.10707 -0.363237
276 1 -20.3712 -4.86163 -1.70125
271 1 -24.3241 -5.07655 -0.336736
272 1 -23.0265 -5.10503 -0.837429
8 1 -22.7176 -4.99548 -2.2786
11 1 -21.391 -4.69126 -2.66003
12 1 -21.1119 -3.7766 -3.74922
267 1 -26.7985 -5.25611 -0.738165
269 1 -25.4387 -5.34638 -1.12498
6 1 -23.7436 -4.64976 -3.23442
7 1 -23.5537 -3.48983 -3.97966
9 1 -22.2077 -3.02511 -4.23029
10 1 -21.9727 -1.75261 -4.81189
108 1 -20.6569 -1.26753 -4.96763
265 1 -27.87 -4.93 -1.602
1 1 -27.602 -4.326 -2.855
3 1 -26.3283 -4.22832 -3.48365
4 1 -25.9869 -3.06242 -4.22235
5 1 -24.6431 -2.72373 -4.44243
103 1 -24.3778 -1.41796 -4.97506
105 1 -23.0488 -0.904914 -5.12497
2 1 -27.0725 -2.30455 -4.71858
100 1 -26.8317 -0.94151 -5.06774
101 1 -25.4656 -0.494721 -5.1519
279 1 -17.946 -4.80886 -1.26178
15 1 -19.0333 -4.60345 -2.14531
16 1 -18.6885 -3.9216 -3.35464
18 1 -17.3771 -3.56662 -3.60098
19 1 -17.0997 -2.50872 -4.48454
13 1 -19.7594 -3.39378 -4.10329
14 1 -19.5493 -2.18833 -4.78658
17 1 -18.2365 -1.73107 -4.93542
111 1 -17.9459 -0.373185 -5.18129
287 1 -13.1764 -4.88331 -0.277954
283 1 -15.5607 -4.8224 -0.724226
285 1 -14.2298 -4.776 -1.15949
24 1 -13.9044 -4.39305 -2.44176
26 1 -12.56 -4.20169 -2.9105
27 1 -12.312 -3.20522 -3.90774
281 1 -16.6393 -4.73608 -1.64418
20 1 -16.3253 -4.17983 -2.89846
22 1 -14.9907 -3.93504 -3.2682
23 1 -14.7307 -2.86874 -4.17279
25 1 -13.4151 -2.45038 -4.35532
117 1 -13.1202 -1.16911 -4.94676
21 1 -15.7334 -2.07454 -4.67045
114 1 -15.5119 -0.754146 -5.01397
115 1 -14.1906 -0.315405 -5.1539
295 1 -6.74798 -4.94656 -1.1496
291 1 -9.39788 -4.95593 -0.305452
292 1 -9.07618 -4.72996 -1.63627
35 1 -7.77057 -4.54697 -2.05809
36 1 -7.52207 -3.90917 -3.21245
38 1 -6.19006 -3.56955 -3.48251
39 1 -5.86829 -2.4234 -4.21096
288 1 -11.8413 -4.79829 -0.757106
28 1 -11.4849 -4.57062 -2.08347
31 1 -10.1348 -4.2841 -2.43734
32 1 -9.93542 -3.54502 -3.63033
33 1 -8.55502 -3.26386 -3.90686
34 1 -8.2629 -2.05666 -4.63034
37 1 -6.94404 -1.54715 -4.64646
125 1 -6.68388 -0.202422 -5.01374
29 1 -10.9934 -2.87919 -4.28001
30 1 -10.7194 -1.64017 -4.88565
122 1 -9.39222 -1.19668 -4.98157
119 1 -11.7588 -0.740088 -5.1385
299 1 -4.2772 -5.14373 -0.669819
297 1 -5.39064 -4.86026 -1.52428
40 1 -5.12884 -4.15448 -2.76426
41 1 -4.53089 -1.95158 -4.35114
128 1 -4.27373 -0.652165 -4.82596
307 1 1.86384 -5.31486 -0.218555
308 1 2.12681 -4.93688 -1.5661
55 1 3.50067 -4.8083 -1.99263
56 1 3.79234 -3.98736 -3.16573
303 1 -1.90336 -5.25251 -0.195073
304 1 -0.527041 -5.17906 -0.651719
48 1 -0.290072 -4.7547 -1.9849
51 1 1.06239 -4.5633 -2.35795
52 1 1.35225 -3.72899 -3.46059
53 1 2.72122 -3.32912 -3.8024
54 1 2.98384 -2.13128 -4.53881
301 1 -2.9336 -5.01241 -1.10178
44 1 -2.69746 -4.41909 -2.34874
46 1 -1.32319 -4.2376 -2.75414
47 1 -1.05795 -3.18845 -3.675
49 1 0.342651 -2.89789 -3.96015
50 1 0.61084 -1.64153 -4.66576
136 1 1.95573 -1.25532 -4.93584
42 1 -3.77418 -3.89687 -3.06813
43 1 -3.46975 -2.76638 -3.89212
45 1 -2.10441 -2.36223 -4.1379
131 1 -1.8496 -1.12063 -4.68163
133 1 -0.499805 -0.763207 -4.89763
129 1 -2.90858 -0.234767 -4.92365
311 1 4.60846 -5.00818 -1.15405
58 1 5.08992 -3.68054 -3.55203
59 1 5.39666 -2.60093 -4.41512
57 1 4.33157 -1.71925 -4.77668
139 1 4.6237 -0.409106 -5.19784
319 1 9.40055 -5.09624 -0.302134
320 1 10.712 -5.15067 -0.795971
68 1 10.977 -4.89106 -2.17052
315 1 6.96387 -5.02654 -0.776578
317 1 8.3074 -4.97335 -1.25522
64 1 8.6283 -4.55515 -2.62153
66 1 9.95282 -4.38019 -3.04205
67 1 10.1201 -3.60605 -4.22483
69 1 11.3636 -3.34154 -4.74316
70 1 11.7129 -1.98193 -5.0939
313 1 5.89354 -4.87936 -1.66692
60 1 6.20108 -4.32519 -2.91321
62 1 7.52781 -4.0245 -3.33026
63 1 7.77293 -3.04443 -4.27402
65 1 9.11674 -2.75072 -4.669
145 1 9.4335 -1.44092 -5.11338
147 1 10.7355 -0.950166 -5.17648
61 1 6.72032 -2.23009 -4.69731
142 1 7.00549 -0.880047 -5.11576
143 1 8.42547 -0.460346 -5.17023
157 1 19.5205 -0.522707 -5.39909
156 1 18.1965 -1.02273 -5.29137
80 1 17.9385 -2.33175 -4.90085
327 1 15.8382 -4.91339 -1.1875
323 1 13.1411 -5.13248 -0.33123
324 1 13.4606 -5.10208 -1.69355
74 1 14.8055 -4.81487 -2.1573
75 1 15.091 -4.1745 -3.39272
77 1 16.418 -3.76489 -3.61707
78 1 16.6377 -2.72838 -4.59291
71 1 12.3394 -4.93231 -2.53987
72 1 14.0817 -3.73639 -4.26168
73 1 14.157 -2.43675 -4.80998
76 1 15.5111 -1.94 -4.96656
153 1 15.8286 -0.589845 -5.2335
150 1 13.0742 -1.56454 -5.12373
331 1 18.2595 -5.01271 -0.750989
333 1 19.6132 -4.83599 -1.17163
83 1 19.8867 -4.42291 -2.46716
329 1 17.1993 -4.81402 -1.63896
79 1 17.4645 -4.25545 -2.8752
81 1 18.7807 -4.00015 -3.27601
82 1 19.0187 -3.19435 -4.42051
160 1 22.1122 -0.781402 -6.18897
343 1 26.9622 -4.89903 -1.15864
339 1 24.3238 -4.84497 -0.313364
340 1 24.6233 -4.67138 -1.71673
93 1 25.9393 -4.57434 -2.10861
94 1 26.264 -3.98954 -3.31185
96 1 27.602 -3.746 -3.582
97 1 27.87 -2.658 -4.45
335 1 20.6564 -4.92353 -0.258574
336 1 21.9832 -4.8107 -0.727741
87 1 22.2708 -4.53564 -2.08651
89 1 23.5628 -4.40578 -2.57392
90 1 23.8473 -3.76336 -3.79741
91 1 25.2156 -3.44259 -4.11317
92 1 25.5879 -2.2425 -4.82102
95 1 26.9023 -1.78107 -4.87328
166 1 27.192 -0.408353 -5.13864
85 1 21.2103 -4.19177 -2.89655
86 1 21.4746 -3.52581 -4.10634
88 1 22.7704 -3.30861 -4.54703
84 1 20.3882 -3.11754 -4.8626
163 1 24.5693 -1.47914 -5.3147
107 1 -21.4861 0.985548 -5.02995
178 1 -21.2518 2.30608 -4.4607
104 1 -23.8974 1.34412 -4.95397
174 1 -23.6463 2.64226 -4.39505
176 1 -22.3436 3.05638 -4.03509
177 1 -22.0503 4.11879 -3.12756
179 1 -20.702 4.40401 -2.71397
356 1 -20.4611 5.1075 -1.50347
98 1 -27.87 0 -5.183
99 1 -27.602 1.379 -4.996
169 1 -26.2442 1.78687 -4.87223
170 1 -26.0302 3.08306 -4.25931
172 1 -24.7161 3.47418 -3.91518
173 1 -24.4606 4.31281 -2.79308
175 1 -23.1551 4.56648 -2.37164
352 1 -22.852 5.10566 -1.09376
354 1 -21.5289 5.22485 -0.615613
167 1 -27.0538 3.75051 -3.63968
168 1 -26.8673 4.53997 -2.4639
171 1 -25.5313 4.7814 -2.02686
349 1 -25.2705 5.22119 -0.744001
350 1 -23.9211 5.17017 -0.237477
345 1 -27.87 4.93 -1.602
346 1 -27.602 5.178 -0.233
109 1 -20.3957 0.125442 -5.18648
106 1 -22.819 0.477186 -5.05963
102 1 -25.2113 0.885434 -5.10952
110 1 -19.0493 0.572789 -5.11092
182 1 -18.7869 1.9569 -4.77894
185 1 -17.4515 2.30352 -4.51594
186 1 -17.2072 3.51647 -3.79802
180 1 -19.8721 2.7637 -4.32978
181 1 -19.6251 3.84271 -3.45545
183 1 -18.301 4.19746 -3.18131
184 1 -18.0639 5.03224 -2.07416
358 1 -19.1113 5.3233 -1.14185
118 1 -12.6138 1.52978 -4.97331
194 1 -12.3759 2.78249 -4.41444
112 1 -16.6243 0.126706 -5.05749
113 1 -16.3667 1.45005 -4.84839
189 1 -15.0199 1.9168 -4.81124
190 1 -14.7694 3.16052 -4.16684
192 1 -13.4399 3.48075 -3.85657
193 1 -13.1072 4.47341 -2.89697
187 1 -15.8357 3.84721 -3.52587
188 1 -15.5511 4.78392 -2.49477
191 1 -14.1952 4.92327 -2.11371
365 1 -13.9513 5.36102 -0.772451
366 1 -12.5883 5.31327 -0.33918
361 1 -16.6916 5.15199 -1.6975
362 1 -16.4113 5.29953 -0.299444
116 1 -13.9498 1.06267 -5.09362
124 1 -7.82269 0.637455 -5.07654
202 1 -7.49849 1.97774 -4.7869
205 1 -6.15983 2.46782 -4.79146
206 1 -5.91849 3.68447 -4.04267
121 1 -10.1826 1.0887 -5.07483
198 1 -9.95145 2.39177 -4.63783
200 1 -8.62329 2.73743 -4.35866
201 1 -8.29557 3.84279 -3.57626
203 1 -6.96806 4.14356 -3.23086
204 1 -6.68154 4.90061 -2.0484
196 1 -11.0385 3.21058 -4.21597
197 1 -10.7131 4.19802 -3.23076
199 1 -9.35245 4.4766 -2.90287
372 1 -9.10014 5.05795 -1.6388
374 1 -7.75683 5.14009 -1.17987
195 1 -11.7799 4.66809 -2.49445
368 1 -11.5383 5.2173 -1.22313
370 1 -10.1979 5.19522 -0.762471
123 1 -9.13156 0.214922 -5.11423
120 1 -11.5142 0.660375 -5.14647
126 1 -5.33472 0.274594 -5.06516
127 1 -5.0279 1.65693 -5.16215
207 1 -4.61304 4.13697 -3.67037
208 1 -4.28183 4.75228 -2.45935
377 1 -5.35914 5.01398 -1.60647
378 1 -5.11572 5.26805 -0.250681
138 1 3.56935 0.534045 -5.35413
220 1 3.93708 1.85865 -5.22752
135 1 1.10695 0.990374 -5.1919
217 1 1.32904 2.33242 -5.04834
219 1 3.11172 4.06804 -3.88012
132 1 -1.28293 1.53604 -5.0383
213 1 -1.00276 2.84473 -4.68655
215 1 0.334603 3.19111 -4.47959
216 1 0.624603 4.13306 -3.39225
218 1 1.98443 4.41048 -3.069
388 1 2.29186 4.869 -1.75102
390 1 3.61431 4.92587 -1.23758
209 1 -3.6567 1.95748 -5.13233
211 1 -1.94366 3.71383 -4.13778
212 1 -1.79852 4.51164 -2.96203
214 1 -0.453323 4.60544 -2.57656
384 1 -0.140593 4.9969 -1.24005
386 1 1.2178 5.03972 -0.854899
210 1 -2.93744 4.90243 -2.09095
381 1 -2.621 5.19194 -0.746369
382 1 -1.25298 5.19424 -0.312947
137 1 2.18471 0.0923125 -5.26319
134 1 -0.22236 0.635057 -5.05988
130 1 -2.61664 1.09075 -5.16029
223 1 5.22944 2.31837 -4.94097
224 1 5.48685 3.4791 -4.12518
221 1 4.43433 4.17329 -3.43753
222 1 4.69741 4.68462 -2.08522
146 1 9.97668 1.36566 -5.02895
232 1 10.2505 2.67705 -4.50049
234 1 11.5901 2.95246 -4.18694
235 1 11.843 4.02413 -3.30511
140 1 5.96847 0.0428852 -5.31109
141 1 6.27692 1.40684 -5.15213
227 1 7.6119 1.8224 -4.91122
228 1 7.85675 3.03136 -4.24389
230 1 9.20771 3.4298 -3.95645
231 1 9.45464 4.21426 -2.81342
233 1 10.7998 4.47205 -2.47971
400 1 11.0368 5.00236 -1.16109
225 1 6.80248 3.7805 -3.74524
226 1 7.04786 4.49289 -2.51254
229 1 8.36952 4.60147 -2.04278
397 1 8.61575 4.96521 -0.720916
398 1 9.99032 5.03149 -0.241868
393 1 6.017 4.84902 -1.63587
394 1 6.21444 5.09522 -0.247177
148 1 11.0315 0.446644 -5.192
144 1 8.67628 0.901276 -5.16325
158 1 19.8595 0.820125 -5.18774
152 1 14.7236 0.266275 -5.09784
240 1 15.0369 1.60454 -4.76756
243 1 16.3956 2.03251 -4.59903
244 1 16.6276 3.22991 -3.87335
149 1 12.3955 0.791723 -5.05615
236 1 12.6456 2.10172 -4.62036
238 1 13.9538 2.46808 -4.4262
239 1 14.2168 3.63786 -3.60891
241 1 15.5769 3.90747 -3.18851
242 1 15.8063 4.63231 -2.05607
237 1 13.1836 4.34654 -2.93513
404 1 13.4337 4.96893 -1.64491
406 1 14.7683 5.03368 -1.17878
402 1 12.3692 5.18279 -0.72054
151 1 13.4127 -0.193364 -5.14241
154 1 17.1881 -0.142435 -5.21186
155 1 17.4908 1.17797 -4.88884
247 1 18.8327 1.66188 -4.8324
248 1 19.0593 2.91219 -4.14843
245 1 17.9786 3.60323 -3.53888
246 1 18.2171 4.33388 -2.36808
249 1 19.5731 4.50858 -1.94059
413 1 19.856 4.9349 -0.594796
409 1 17.1573 4.74907 -1.57725
410 1 17.4528 5.0603 -0.212263
161 1 22.3514 0.367473 -5.45212
165 1 26.0708 0.485661 -5.21659
260 1 26.311 1.8132 -4.84104
263 1 27.602 2.249 -4.67
264 1 27.87 3.41 -3.903
162 1 23.6615 0.816575 -5.24166
256 1 23.8735 2.05016 -4.69765
258 1 25.2051 2.52858 -4.36698
259 1 25.5047 3.6132 -3.48828
261 1 26.8251 4.05551 -3.18392
262 1 27.1055 4.71699 -2.02185
159 1 21.2305 1.2072 -5.07081
252 1 21.4493 2.44772 -4.3634
254 1 22.8203 2.86078 -4.15229
255 1 23.1108 3.86325 -3.17656
257 1 24.4197 4.16178 -2.79964
420 1 24.6911 4.74632 -1.52897
422 1 26.0774 4.9224 -1.12922
250 1 20.4086 3.20798 -3.84255
251 1 20.6753 4.14293 -2.81641
253 1 22.0049 4.41552 -2.41847
416 1 22.2571 4.87845 -1.12273
418 1 23.6021 4.94143 -0.683234
414 1 21.1943 4.97745 -0.200312
164 1 24.7601 -0.0607995 -5.40345
529 1 -21.9782 -1.33204 4.97861
438 1 -20.6647 -1.85937 4.92127
439 1 -20.4587 -3.0736 4.27535
526 1 -24.689 -0.420689 4.97731
431 1 -24.4161 -1.76101 4.78718
434 1 -23.0927 -2.18843 4.70955
435 1 -22.8481 -3.34895 3.92801
436 1 -21.5309 -3.71035 3.61603
437 1 -21.223 -4.3991 2.39979
523 1 -27.1093 -0.86805 5.03007
427 1 -26.8718 -2.16616 4.6037
429 1 -25.4972 -2.56 4.39759
430 1 -25.2126 -3.65214 3.51765
432 1 -23.8668 -3.91827 3.1578
433 1 -23.5165 -4.51736 1.92702
273 1 -22.2201 -4.69774 1.48338
274 1 -21.9645 -5.07309 0.131217
425 1 -27.87 -3.047 4.193
426 1 -27.602 -4.052 3.232
428 1 -26.2578 -4.30131 2.77508
268 1 -25.9316 -4.76573 1.49032
270 1 -24.5878 -4.83722 1.04176
266 1 -27.0021 -4.92134 0.583698
536 1 -17.2609 -0.511834 5.23507
532 1 -19.613 -0.95508 5.21786
534 1 -18.3177 -1.43297 5.17488
443 1 -18.0719 -2.72763 4.60294
441 1 -19.1273 -3.4293 3.99205
442 1 -18.8701 -4.31887 2.87994
444 1 -17.5016 -4.44106 2.44355
280 1 -17.1855 -4.77962 1.10995
440 1 -19.8944 -4.64307 1.97416
277 1 -19.5954 -4.91976 0.584395
278 1 -18.2447 -4.84958 0.138227
540 1 -13.3908 -0.463068 5.1411
450 1 -13.0345 -1.82858 5.12823
537 1 -15.9069 -0.975018 5.07822
447 1 -15.7101 -2.34237 4.77805
449 1 -13.9909 -4.05068 3.73418
451 1 -12.6512 -4.25155 3.3491
452 1 -12.4207 -4.6929 2.02695
445 1 -16.7468 -3.15614 4.35271
446 1 -16.4385 -4.02548 3.27951
448 1 -15.1001 -4.31471 2.89026
284 1 -14.7745 -4.68682 1.56957
286 1 -13.462 -4.8084 1.12724
282 1 -15.8201 -4.85944 0.635612
550 1 -6.02438 -0.527823 4.95574
546 1 -8.37317 -0.955754 4.8914
548 1 -7.09098 -1.42042 4.88086
462 1 -6.74613 -2.68075 4.34812
543 1 -10.764 -1.39187 4.92736
457 1 -9.42772 -1.89177 4.78274
458 1 -9.13742 -3.15095 4.19373
460 1 -7.77392 -3.4941 3.91704
461 1 -7.48204 -4.32857 2.83205
463 1 -6.15212 -4.51658 2.42701
296 1 -5.9122 -4.9616 1.12186
453 1 -11.787 -2.36336 4.78811
454 1 -11.5792 -3.59294 4.05575
455 1 -10.246 -3.85843 3.65198
456 1 -9.99857 -4.46171 2.38618
459 1 -8.62909 -4.68667 1.96877
293 1 -8.37245 -4.98065 0.635911
294 1 -7.02296 -5.04049 0.232757
289 1 -11.0862 -4.73997 1.53889
290 1 -10.7657 -4.82254 0.163814
551 1 -4.64644 -0.975679 4.94043
466 1 -4.31367 -2.27105 4.63432
464 1 -5.381 -3.0155 4.16071
465 1 -5.10112 -4.04181 3.23946
298 1 -4.61054 -5.22937 0.683639
560 1 2.89409 -0.849245 4.84084
557 1 0.505339 -1.3942 4.80972
477 1 1.87569 -1.79168 4.62975
478 1 2.16753 -3.04451 4.06231
480 1 3.54101 -3.31527 3.74248
481 1 3.82685 -4.24514 2.74
554 1 -2.15644 -0.425374 4.99261
470 1 -1.87647 -1.81767 4.82771
473 1 -0.564414 -2.27151 4.61994
474 1 -0.288236 -3.4712 3.91612
475 1 1.07627 -3.77653 3.53549
476 1 1.36762 -4.67468 2.45279
479 1 2.72759 -4.83079 2.0034
309 1 2.9749 -5.26472 0.671892
468 1 -2.92909 -2.6553 4.4534
469 1 -2.66297 -3.81884 3.65164
471 1 -1.36023 -4.18099 3.30043
472 1 -1.08641 -4.87187 2.06045
305 1 0.282976 -5.09447 1.61906
306 1 0.559246 -5.35068 0.277104
467 1 -3.74444 -4.36779 2.9212
300 1 -3.51658 -5.03527 1.66368
302 1 -2.19647 -5.13497 1.19228
564 1 5.32836 -0.306432 5.03656
562 1 4.30282 -1.28316 4.77443
482 1 4.60097 -2.52798 4.2272
483 1 5.17601 -4.44716 2.39465
312 1 5.43581 -4.93823 1.10447
310 1 4.34537 -5.15305 0.238788
571 1 11.7885 -1.18872 4.91656
568 1 9.10677 -0.226963 5.02757
490 1 9.40306 -1.52159 4.66134
493 1 10.7064 -2.02418 4.50081
494 1 10.964 -3.13716 3.67365
565 1 6.68451 -0.687758 4.92151
486 1 6.96587 -2.03975 4.48499
488 1 8.32768 -2.37651 4.29279
489 1 8.63051 -3.53936 3.49709
491 1 9.96891 -3.81309 3.03558
492 1 10.2752 -4.56231 1.87013
321 1 11.5636 -4.76785 1.43073
322 1 11.8096 -5.06676 0.0968932
484 1 5.92009 -2.8582 4.06608
485 1 6.21165 -3.86965 3.15516
487 1 7.54918 -4.15534 2.83656
316 1 7.78456 -4.76422 1.58714
318 1 9.13487 -4.85349 1.09409
314 1 6.74306 -4.98021 0.647218
578 1 16.6332 -0.30893 5.2005
574 1 14.2506 -0.701882 4.93629
576 1 15.5527 -1.1397 4.88534
502 1 15.7833 -2.33468 4.27755
497 1 13.1252 -1.56013 4.66362
498 1 13.3562 -2.77855 3.99421
500 1 14.7175 -3.12815 3.7192
501 1 15.0032 -4.02812 2.67247
503 1 16.3356 -4.24123 2.29164
328 1 16.6482 -4.86925 1.0517
495 1 12.2904 -3.50314 3.37958
496 1 12.6108 -4.29933 2.25017
499 1 13.9469 -4.51329 1.87614
325 1 14.179 -4.86313 0.579892
326 1 15.5507 -4.96353 0.18595
579 1 17.9561 -0.806583 5.16319
506 1 18.1415 -2.12331 4.70837
508 1 19.4194 -2.74182 4.57536
509 1 19.7414 -3.7231 3.56704
504 1 17.1071 -2.75897 4.03511
505 1 17.3816 -3.7554 3.04207
507 1 18.6969 -4.18473 2.72157
332 1 19.0377 -4.80835 1.53925
330 1 18.0053 -5.00785 0.598981
592 1 27.87 -0.465 5.162
588 1 25.5092 -0.896159 5.16813
590 1 26.8477 -1.37139 4.99327
521 1 27.0724 -2.65041 4.46536
585 1 23.0907 -1.37465 5.13945
516 1 24.4322 -1.82189 4.91517
517 1 24.7094 -3.03988 4.2306
519 1 26.0201 -3.3977 3.88821
520 1 26.271 -4.24243 2.80798
522 1 27.602 -4.564 2.456
344 1 27.87 -5.053 1.153
582 1 20.3282 -0.294941 5.39909
512 1 22.063 -2.26453 4.86614
513 1 22.2431 -3.32597 3.94258
514 1 23.59 -3.60573 3.52208
515 1 23.8549 -4.44159 2.41333
518 1 25.1658 -4.54694 1.96689
341 1 25.3658 -4.93624 0.617899
342 1 26.7152 -5.06759 0.234868
510 1 21.132 -3.9392 3.23574
511 1 21.4391 -4.61128 2.05529
337 1 22.7635 -4.77564 1.61241
338 1 23.0412 -4.86877 0.235246
334 1 20.3972 -4.87876 1.16003
355 1 -21.2404 5.31809 0.772826
351 1 -23.6938 5.14608 1.18229
353 1 -22.3494 5.04739 1.62232
604 1 -22.0983 4.40407 2.82844
606 1 -20.7283 4.13253 3.11325
607 1 -20.406 3.06371 4.04463
347 1 -26.3078 5.27066 0.214605
348 1 -26.0068 5.06594 1.60967
599 1 -24.6862 4.88084 2.13048
600 1 -24.4255 4.07457 3.25898
602 1 -23.1188 3.75165 3.54712
603 1 -22.8368 2.64787 4.35633
605 1 -21.4513 2.28146 4.52863
530 1 -21.1645 1.00167 5.00418
595 1 -27.1138 4.67772 2.47843
596 1 -26.8328 3.74466 3.54067
597 1 -25.4573 3.36557 3.84182
598 1 -25.2186 2.18592 4.61731
601 1 -23.8918 1.79007 4.7449
527 1 -23.6182 0.479827 5.01266
528 1 -22.2328 0.0659002 5.05329
593 1 -27.87 3.047 4.193
594 1 -27.602 1.821 4.853
524 1 -26.2856 1.33345 4.88694
525 1 -26.0346 -0.0365433 5.08272
359 1 -18.807 5.42389 0.207603
360 1 -17.4848 5.22945 0.602906
612 1 -17.2202 4.70873 1.86508
357 1 -19.8808 5.21187 1.12465
608 1 -19.6369 4.62693 2.38656
610 1 -18.3032 4.23967 2.68901
611 1 -18.0264 3.30588 3.69075
609 1 -19.056 2.59883 4.28813
533 1 -18.7668 1.33702 4.87188
535 1 -17.4232 0.90354 5.07611
531 1 -19.8494 0.447715 5.10486
367 1 -12.3416 5.07281 1.0235
363 1 -15.0332 5.36748 0.156789
364 1 -14.7643 4.97705 1.46441
619 1 -13.4159 4.78684 1.8751
620 1 -13.185 3.98316 3.00763
615 1 -15.8477 4.50953 2.25918
616 1 -15.6134 3.59637 3.2997
617 1 -14.2775 3.31029 3.63492
618 1 -14.0022 2.15947 4.38913
621 1 -12.6379 1.78274 4.61267
541 1 -12.3685 0.456041 4.97542
613 1 -16.6618 2.89494 3.90661
614 1 -16.3813 1.6918 4.6533
538 1 -15.0645 1.26514 4.76219
539 1 -14.7727 -0.107708 5.05558
375 1 -7.55774 5.22206 0.209148
376 1 -6.23572 5.16839 0.62982
632 1 -5.9093 4.83435 1.98524
371 1 -9.95951 5.14721 0.625247
373 1 -8.62598 4.99243 1.07953
628 1 -8.34933 4.52105 2.37111
630 1 -6.96521 4.28908 2.69987
631 1 -6.7142 3.3396 3.61824
369 1 -11.0073 4.91048 1.50891
624 1 -10.8107 4.36785 2.79203
626 1 -9.45643 4.02216 3.12666
627 1 -9.16394 3.01061 4.03094
629 1 -7.80529 2.6217 4.16357
547 1 -7.55817 1.29545 4.58566
549 1 -6.22458 0.848048 4.66313
622 1 -11.879 3.72175 3.44638
623 1 -11.5864 2.60625 4.26328
625 1 -10.2414 2.22417 4.41553
544 1 -9.9528 0.905669 4.77188
545 1 -8.63383 0.444194 4.79008
542 1 -11.0077 0.0250775 4.96471
635 1 -4.57849 4.697 2.41797
636 1 -4.31946 3.69643 3.42148
633 1 -5.40684 2.97511 3.90252
634 1 -5.17339 1.75031 4.49753
391 1 3.82733 5.08832 0.148965
387 1 1.41588 5.12031 0.543618
389 1 2.74211 5.01843 1.0481
648 1 2.96638 4.58968 2.36827
383 1 -1.04687 5.14439 1.07164
385 1 0.320696 4.98005 1.47947
644 1 0.542969 4.3402 2.75678
646 1 1.85123 4.04323 3.08547
647 1 2.09478 3.04711 4.06829
649 1 3.43781 2.72928 4.39467
561 1 3.70351 1.44621 4.89994
379 1 -3.73538 5.25184 0.191663
380 1 -3.47336 5.00259 1.55605
639 1 -2.12518 4.86236 1.9844
640 1 -1.90761 4.04797 3.15744
642 1 -0.545622 3.74819 3.51466
643 1 -0.308816 2.64543 4.37383
645 1 1.02302 2.25123 4.58569
558 1 1.29776 0.890087 4.95414
559 1 2.63406 0.497369 4.94473
637 1 -3.00262 3.36507 3.79567
638 1 -2.71655 2.19657 4.46153
641 1 -1.39427 1.78694 4.68982
555 1 -1.08548 0.454012 4.93212
556 1 0.225536 -0.0336749 4.92938
552 1 -3.83723 1.32242 4.72862
553 1 -3.54527 -0.0524609 4.95108
392 1 5.1042 5.14919 0.643743
652 1 5.33578 4.84684 2.01396
650 1 4.28193 4.44765 2.83823
651 1 4.50243 3.50714 3.88178
563 1 5.09058 1.07794 5.02429
399 1 10.2731 4.97317 1.12768
401 1 11.6128 4.9524 1.56547
664 1 11.8644 4.44289 2.82045
395 1 7.55295 5.05088 0.183315
396 1 7.82451 4.85122 1.5609
659 1 9.17976 4.76135 2.00811
660 1 9.43099 4.24228 3.25811
662 1 10.7952 3.98356 3.57671
663 1 11.0186 2.95974 4.4916
655 1 6.68461 4.62899 2.41896
656 1 6.92499 3.93535 3.63184
657 1 8.29276 3.66653 3.93628
658 1 8.55862 2.52287 4.69783
661 1 9.92921 2.10917 4.87816
569 1 10.1857 0.704131 5.11732
570 1 11.5469 0.237852 5.13707
653 1 5.84682 3.22208 4.22731
654 1 6.12888 1.99004 4.85821
566 1 7.51761 1.59927 5.01036
567 1 7.74301 0.172837 5.10752
407 1 15.0651 5.16879 0.19364
408 1 16.3971 5.12441 0.716423
672 1 16.6557 4.84023 2.11553
403 1 12.6777 5.14114 0.638258
405 1 13.9829 5.04156 1.11076
668 1 14.2532 4.62978 2.44348
670 1 15.5904 4.44244 2.88673
671 1 15.9074 3.53841 3.91335
666 1 13.1574 4.20249 3.20313
667 1 13.4381 3.26258 4.17465
669 1 14.7974 2.86448 4.44224
575 1 15.0638 1.567 4.98258
577 1 16.3495 1.07434 5.10784
665 1 12.3383 2.49902 4.59362
572 1 12.6527 1.18209 5.0103
573 1 13.9862 0.695078 5.12148
411 1 18.7859 5.03481 0.280968
412 1 19.0062 4.90654 1.65335
675 1 17.9698 4.58962 2.48967
676 1 18.2764 3.80186 3.56278
677 1 19.622 3.44896 3.82491
678 1 19.8746 2.31556 4.60743
673 1 17.2384 3.11425 4.13175
674 1 17.4444 1.90649 4.81722
580 1 18.7731 1.45836 4.97959
581 1 19.0231 0.105169 5.27774
423 1 26.3045 5.19744 0.247335
424 1 27.602 5.136 0.696
692 1 27.87 4.766 2.037
419 1 23.8891 5.1421 0.680552
421 1 25.2245 5.13592 1.15429
688 1 25.4393 4.59447 2.38519
690 1 26.8111 4.36459 2.81247
691 1 27.0398 3.49249 3.89157
415 1 21.4642 4.96782 1.13625
417 1 22.7897 4.9869 1.57651
684 1 23.0621 4.35571 2.79489
686 1 24.3862 3.99952 3.16146
687 1 24.7091 2.95167 4.09079
689 1 26.0445 2.59971 4.3427
589 1 26.3514 1.39525 4.97817
591 1 27.602 0.925 5.1
679 1 20.3732 4.72407 2.01281
680 1 20.7007 4.08588 3.20196
682 1 22.0238 3.76404 3.53703
683 1 22.3201 2.68665 4.41239
685 1 23.6508 2.24506 4.5902
586 1 23.9055 0.925717 5.0533
587 1 25.2746 0.50025 5.19104
681 1 21.1952 1.88993 4.82282
583 1 21.4476 0.550126 5.27088
584 1 22.8048 0.034512 5.24907
ITEM: TIMESTEP
1200
ITEM: NUMBER OF ATOMS
692
ITEM: BOX BOUNDS ff ff ff
-6.0000000000000000e+01 6.0000000000000000e+01
-4.0000000000000000e+01 4.0000000000000000e+01
-4.0000000000000000e+01 4.0000000000000000e+01
ITEM: ATOMS id type x y z
275 1 -20.5799 -5.20622 -0.18611
276 1 -20.2888 -4.82692 -1.50295
271 1 -24.3064 -5.37129 -0.202438
272 1 -22.9329 -5.31681 -0.67354
8 1 -22.6584 -4.8049 -1.99277
11 1 -21.3649 -4.43415 -2.31799
12 1 -21.1048 -3.49199 -3.31834
267 1 -26.8486 -5.2778 -0.612276
269 1 -25.4437 -5.38846 -1.00394
6 1 -23.7259 -4.35091 -2.82925
7 1 -23.4957 -3.2316 -3.62163
9 1 -22.1748 -2.8172 -3.92061
10 1 -21.9975 -1.61633 -4.64588
108 1 -20.6357 -1.14435 -4.92771
265 1 -27.87 -4.93 -1.602
1 1 -27.602 -4.326 -2.855
3 1 -26.353 -4.1197 -3.36511
4 1 -25.9145 -2.98075 -4.12135
5 1 -24.5921 -2.56482 -4.22227
103 1 -24.3819 -1.3003 -4.78528
105 1 -23.1081 -0.813362 -4.9164
2 1 -27.0075 -2.18295 -4.56123
100 1 -26.7698 -0.878667 -4.99236
101 1 -25.4387 -0.408654 -5.07411
279 1 -17.9671 -4.84297 -1.00458
15 1 -18.9688 -4.58153 -1.90469
16 1 -18.6988 -3.86189 -3.06104
18 1 -17.3643 -3.53603 -3.39801
19 1 -17.1708 -2.45607 -4.29053
13 1 -19.7997 -3.09564 -3.6114
14 1 -19.5595 -2.01126 -4.49609
17 1 -18.257 -1.59958 -4.6996
111 1 -17.9826 -0.246737 -5.08437
287 1 -13.0618 -5.04415 -0.0526308
283 1 -15.5302 -4.97269 -0.575143
285 1 -14.1487 -4.85506 -0.954281
24 1 -13.8936 -4.34562 -2.23302
26 1 -12.5723 -4.00815 -2.60243
27 1 -12.3664 -3.09367 -3.64485
281 1 -16.5992 -4.70229 -1.46844
20 1 -16.2755 -4.05794 -2.69173
22 1 -14.9327 -3.80304 -3.09843
23 1 -14.7583 -2.72189 -3.99979
25 1 -13.4159 -2.40031 -4.31412
117 1 -13.1179 -1.11846 -4.8588
21 1 -15.8349 -1.99105 -4.46833
114 1 -15.5768 -0.717161 -4.96347
115 1 -14.2488 -0.276251 -5.08087
295 1 -6.65476 -4.90346 -1.09942
291 1 -9.29585 -4.96545 -0.0740937
292 1 -9.08003 -4.66976 -1.44711
35 1 -7.75303 -4.5365 -1.8983
36 1 -7.55506 -3.7651 -3.09135
38 1 -6.22707 -3.51272 -3.45566
39 1 -5.96687 -2.45333 -4.37385
288 1 -11.7221 -4.9277 -0.48927
28 1 -11.4417 -4.44315 -1.8036
31 1 -10.1363 -4.20764 -2.2122
32 1 -9.93859 -3.50695 -3.41383
33 1 -8.61829 -3.18668 -3.79277
34 1 -8.35666 -2.02324 -4.57799
37 1 -6.99104 -1.55487 -4.75502
125 1 -6.77806 -0.206426 -5.21049
29 1 -11.073 -2.77952 -3.96642
30 1 -10.7662 -1.60647 -4.69567
122 1 -9.43805 -1.14141 -4.86441
119 1 -11.8076 -0.759284 -5.08436
299 1 -4.28095 -5.00322 -0.673786
297 1 -5.33272 -4.78717 -1.52412
40 1 -5.14978 -4.14703 -2.78344
41 1 -4.61401 -2.05964 -4.64554
128 1 -4.4174 -0.680602 -5.08542
307 1 1.90729 -5.05359 -0.266575
308 1 2.06055 -4.81632 -1.65839
55 1 3.39142 -4.61058 -2.09782
56 1 3.68245 -3.81784 -3.17705
303 1 -1.82872 -4.98457 -0.267687
304 1 -0.516941 -4.95013 -0.742511
48 1 -0.336225 -4.54595 -2.08716
51 1 0.937286 -4.34045 -2.44979
52 1 1.20035 -3.40544 -3.4595
53 1 2.60599 -3.11705 -3.75257
54 1 2.84929 -2.00019 -4.56866
301 1 -2.94392 -4.86261 -1.10456
44 1 -2.78359 -4.36884 -2.41152
46 1 -1.46834 -4.14734 -2.83913
47 1 -1.20816 -3.25493 -3.92219
49 1 0.131565 -2.82446 -4.13983
50 1 0.372484 -1.57787 -4.74943
136 1 1.76063 -1.18937 -4.90762
42 1 -3.82179 -3.89926 -3.21323
43 1 -3.58598 -2.86708 -4.1339
45 1 -2.2497 -2.50875 -4.46939
131 1 -2.02649 -1.21564 -5.00412
133 1 -0.712996 -0.73569 -5.00911
129 1 -3.11082 -0.261197 -5.19386
311 1 4.50926 -4.90695 -1.28407
58 1 5.05997 -3.61574 -3.61512
59 1 5.23996 -2.58857 -4.53319
57 1 4.19091 -1.72189 -4.89474
139 1 4.49598 -0.390496 -5.24374
319 1 9.39494 -5.0623 -0.36123
320 1 10.7006 -5.08608 -0.848777
68 1 10.9275 -4.97802 -2.20052
315 1 6.94003 -5.02857 -0.819215
317 1 8.28433 -4.95701 -1.26662
64 1 8.51826 -4.71741 -2.64243
66 1 9.83858 -4.50192 -3.05565
67 1 10.0979 -3.49283 -4.05453
69 1 11.3834 -3.08537 -4.39149
70 1 11.7024 -1.89657 -4.9779
313 1 5.8417 -4.85061 -1.73718
60 1 6.11634 -4.25613 -2.95787
62 1 7.46414 -4.14576 -3.40108
63 1 7.68862 -3.13109 -4.30277
65 1 8.98584 -2.74966 -4.57594
145 1 9.29355 -1.47416 -5.07015
147 1 10.6455 -1.01 -5.12645
61 1 6.5802 -2.27898 -4.73151
142 1 6.87901 -0.949592 -5.18294
143 1 8.2678 -0.56431 -5.25014
157 1 19.5645 -0.554907 -5.4695
156 1 18.262 -1.08306 -5.45795
80 1 18.0584 -2.43624 -5.07958
327 1 15.8403 -4.91036 -1.14963
323 1 13.1829 -5.05915 -0.320934
324 1 13.4553 -4.97438 -1.68754
74 1 14.8031 -4.7448 -2.1147
75 1 15.1586 -4.23893 -3.41564
77 1 16.489 -3.87975 -3.7487
78 1 16.7189 -2.83087 -4.74185
71 1 12.3413 -4.92664 -2.59344
72 1 14.1185 -3.66417 -4.20221
73 1 14.2284 -2.39618 -4.78725
76 1 15.5798 -2.02612 -5.07085
153 1 15.8332 -0.69371 -5.29411
150 1 13.0817 -1.56599 -5.05599
331 1 18.2571 -4.87821 -0.686973
333 1 19.5752 -4.86724 -1.19506
83 1 19.8881 -4.52649 -2.54975
329 1 17.2031 -4.76966 -1.63423
79 1 17.5653 -4.33074 -2.96794
81 1 18.8587 -4.1551 -3.44638
82 1 19.084 -3.31332 -4.55795
160 1 22.2511 -0.500868 -6.36542
343 1 27.015 -4.97861 -1.05048
339 1 24.3692 -4.95676 -0.254001
340 1 24.6314 -4.789 -1.65857
93 1 25.9847 -4.75872 -2.05494
94 1 26.2716 -4.09259 -3.21969
96 1 27.602 -3.746 -3.582
97 1 27.87 -2.658 -4.45
335 1 20.6322 -4.86996 -0.275919
336 1 21.9772 -4.79482 -0.735482
87 1 22.2739 -4.58223 -2.09203
89 1 23.5962 -4.50626 -2.57323
90 1 23.9023 -3.83562 -3.74082
91 1 25.2382 -3.46587 -3.96343
92 1 25.5271 -2.37323 -4.84315
95 1 26.8422 -1.83323 -4.91401
166 1 27.2167 -0.495219 -5.15961
85 1 21.2148 -4.34207 -2.98178
86 1 21.4647 -3.76234 -4.29007
88 1 22.851 -3.54134 -4.61991
84 1 20.4152 -3.19147 -5.04826
163 1 24.5781 -1.44094 -5.21855
107 1 -21.4549 1.0346 -4.9629
178 1 -21.1587 2.35122 -4.53671
104 1 -23.8525 1.48913 -4.84966
174 1 -23.5665 2.74326 -4.29197
176 1 -22.2523 3.14757 -4.06473
177 1 -21.9984 4.22648 -3.20168
179 1 -20.6548 4.51062 -2.84383
356 1 -20.3789 5.16047 -1.62342
98 1 -27.87 0 -5.183
99 1 -27.602 1.379 -4.996
169 1 -26.2616 1.86711 -4.83533
170 1 -25.9826 3.10461 -4.11526
172 1 -24.6569 3.48348 -3.79428
173 1 -24.411 4.48257 -2.84831
175 1 -23.0784 4.73082 -2.47286
352 1 -22.7988 5.25439 -1.15699
354 1 -21.4287 5.32396 -0.737671
167 1 -27.005 3.80319 -3.48993
168 1 -26.7821 4.65113 -2.42131
171 1 -25.4795 4.88817 -2.05262
349 1 -25.1967 5.26612 -0.681582
350 1 -23.8498 5.30006 -0.192251
345 1 -27.87 4.93 -1.602
346 1 -27.602 5.178 -0.233
109 1 -20.3736 0.208266 -5.14369
106 1 -22.8067 0.590638 -4.94673
102 1 -25.1732 0.970762 -5.01299
110 1 -19.0209 0.677701 -5.10113
182 1 -18.7713 2.01343 -4.74441
185 1 -17.4117 2.44621 -4.61431
186 1 -17.1261 3.65147 -3.92519
180 1 -19.834 2.8314 -4.36493
181 1 -19.5872 3.99261 -3.6056
183 1 -18.2331 4.29761 -3.30752
184 1 -17.9332 5.00096 -2.12114
358 1 -19.0201 5.30203 -1.2345
118 1 -12.6712 1.53941 -5.13463
194 1 -12.3652 2.82024 -4.56228
112 1 -16.657 0.20963 -5.09375
113 1 -16.3484 1.5955 -5.0005
189 1 -15.0035 1.95018 -4.86851
190 1 -14.7547 3.15504 -4.20024
192 1 -13.4024 3.52323 -3.95566
193 1 -13.1542 4.47464 -2.98445
187 1 -15.799 3.8791 -3.53495
188 1 -15.5289 4.74853 -2.48092
191 1 -14.1825 4.92997 -2.14322
365 1 -13.8945 5.26171 -0.824316
366 1 -12.544 5.3431 -0.410107
361 1 -16.6078 5.08607 -1.64812
362 1 -16.3434 5.30292 -0.290984
116 1 -13.974 1.08458 -5.13344
124 1 -7.84926 0.760198 -5.21936
202 1 -7.55867 2.10797 -4.88774
205 1 -6.24399 2.55572 -4.85167
206 1 -6.00353 3.81636 -4.23512
121 1 -10.2603 1.14826 -5.16879
198 1 -9.99916 2.45264 -4.67286
200 1 -8.67736 2.92649 -4.4936
201 1 -8.36905 4.08904 -3.75079
203 1 -7.01986 4.42375 -3.49169
204 1 -6.70451 5.05191 -2.27079
196 1 -11.0548 3.2388 -4.27091
197 1 -10.7397 4.32445 -3.37754
199 1 -9.42245 4.61294 -3.0392
372 1 -9.1336 5.22978 -1.8005
374 1 -7.79622 5.19709 -1.36182
195 1 -11.7907 4.7916 -2.61135
368 1 -11.4942 5.25482 -1.3447
370 1 -10.1895 5.26162 -0.90051
123 1 -9.22979 0.251111 -5.16573
120 1 -11.5463 0.628035 -5.22715
126 1 -5.45819 0.242745 -5.21195
127 1 -5.20378 1.65013 -5.24677
207 1 -4.70283 4.34078 -4.01409
208 1 -4.32749 4.77182 -2.73962
377 1 -5.36111 5.06436 -1.84047
378 1 -5.07593 5.0812 -0.463593
138 1 3.48229 0.53014 -5.2912
220 1 3.8797 1.85332 -5.15543
135 1 1.01411 1.02209 -5.16593
217 1 1.25886 2.40583 -4.95611
219 1 2.95451 4.055 -3.7268
132 1 -1.4535 1.61982 -5.04017
213 1 -1.08472 2.93226 -4.67659
215 1 0.263722 3.28296 -4.47064
216 1 0.492524 4.19603 -3.4512
218 1 1.81922 4.47121 -2.98528
388 1 2.12877 4.98907 -1.6641
390 1 3.47868 5.03638 -1.15751
209 1 -3.88407 2.09556 -5.31898
211 1 -2.09696 3.78671 -4.1636
212 1 -1.84586 4.56783 -3.03015
214 1 -0.517791 4.66769 -2.60689
384 1 -0.27284 5.04211 -1.31757
386 1 1.00487 5.10053 -0.857629
210 1 -2.98907 4.88876 -2.29234
381 1 -2.68183 5.06205 -0.895095
382 1 -1.35463 5.06315 -0.418715
137 1 2.11075 0.134374 -5.21203
134 1 -0.395669 0.636625 -5.10379
130 1 -2.81121 1.14931 -5.21082
223 1 5.19153 2.28977 -4.79896
224 1 5.36215 3.38234 -3.87875
221 1 4.29505 4.15203 -3.26881
222 1 4.56089 4.79055 -2.0293
146 1 9.94179 1.22706 -5.06435
232 1 10.1964 2.4305 -4.42869
234 1 11.5372 2.78555 -4.12734
235 1 11.8228 3.81966 -3.26584
140 1 5.85874 0.00618777 -5.28942
141 1 6.20559 1.35884 -5.11895
227 1 7.56296 1.68425 -4.84492
228 1 7.78877 2.85858 -4.05501
230 1 9.13759 3.13042 -3.78647
231 1 9.38028 4.0741 -2.82187
233 1 10.6934 4.34727 -2.49376
400 1 10.9727 4.88635 -1.18901
225 1 6.70674 3.57965 -3.44485
226 1 6.9925 4.37578 -2.33395
229 1 8.33693 4.55397 -1.93968
397 1 8.57365 4.96114 -0.635949
398 1 9.90711 5.09092 -0.254461
393 1 5.92704 4.85925 -1.54403
394 1 6.14995 5.10693 -0.221159
148 1 10.9385 0.323607 -5.19731
144 1 8.63684 0.775727 -5.10449
158 1 19.9017 0.787356 -5.22818
152 1 14.7305 0.205107 -5.17183
240 1 14.9915 1.60848 -4.94981
243 1 16.357 2.02511 -4.72621
244 1 16.6273 3.11141 -3.88902
149 1 12.3061 0.732703 -5.10856
236 1 12.6093 2.07598 -4.75742
238 1 13.9581 2.47604 -4.58531
239 1 14.2369 3.46941 -3.599
241 1 15.5604 3.71012 -3.23381
242 1 15.8246 4.47607 -2.05918
237 1 13.1867 4.08178 -2.93138
404 1 13.3987 4.74244 -1.68647
406 1 14.7551 4.88144 -1.21855
402 1 12.3353 5.00883 -0.745069
151 1 13.3691 -0.22269 -5.19504
154 1 17.1696 -0.19648 -5.38967
155 1 17.459 1.15717 -5.0389
247 1 18.7748 1.54572 -4.84982
248 1 19.0401 2.73607 -4.16766
245 1 17.9584 3.44609 -3.58653
246 1 18.2467 4.36212 -2.5308
249 1 19.5772 4.69979 -2.13473
413 1 19.8074 5.07834 -0.7928
409 1 17.182 4.73533 -1.67637
410 1 17.4284 5.12085 -0.315027
161 1 22.4128 0.523583 -5.48099
165 1 26.1329 0.409015 -5.30027
260 1 26.3259 1.70438 -4.84888
263 1 27.602 2.249 -4.67
264 1 27.87 3.41 -3.903
162 1 23.706 0.886409 -5.32145
256 1 23.8479 2.06904 -4.60973
258 1 25.1881 2.46347 -4.36381
259 1 25.4114 3.48967 -3.46304
261 1 26.7695 3.9152 -3.22135
262 1 27.0415 4.55131 -2.00025
159 1 21.2356 1.29728 -5.09806
252 1 21.4434 2.5063 -4.45718
254 1 22.7602 2.77898 -4.09161
255 1 22.9986 3.74782 -3.15492
257 1 24.311 4.07873 -2.77372
420 1 24.7012 4.81576 -1.62661
422 1 25.9877 4.93925 -1.13487
250 1 20.4033 3.23383 -3.93124
251 1 20.6534 4.24946 -2.93764
253 1 22.0069 4.4209 -2.50198
416 1 22.2582 4.89492 -1.25781
418 1 23.6189 5.01946 -0.75425
414 1 21.1864 5.06386 -0.342236
164 1 24.7894 -0.0192701 -5.41371
529 1 -21.9756 -1.30371 4.58099
438 1 -20.6226 -1.79001 4.56979
439 1 -20.3565 -3.09594 4.11112
526 1 -24.608 -0.440467 5.01403
431 1 -24.4137 -1.8085 4.70883
434 1 -23.034 -2.17782 4.3862
435 1 -22.7752 -3.40244 3.80257
436 1 -21.4513 -3.80782 3.57888
437 1 -21.1974 -4.69877 2.54352
523 1 -27.0073 -0.892846 5.08614
427 1 -26.7951 -2.20364 4.60862
429 1 -25.5005 -2.6732 4.40021
430 1 -25.2376 -3.7841 3.603
432 1 -23.8809 -4.12096 3.28838
433 1 -23.593 -4.83406 2.03863
273 1 -22.2561 -5.00599 1.63793
274 1 -21.9114 -5.22589 0.289245
425 1 -27.87 -3.047 4.193
426 1 -27.602 -4.052 3.232
428 1 -26.2747 -4.34006 2.85758
268 1 -25.9853 -5.02261 1.6346
270 1 -24.6371 -5.11427 1.15756
266 1 -27.0582 -5.32176 0.777202
536 1 -17.1251 -0.488777 4.90776
532 1 -19.525 -0.943585 4.77288
534 1 -18.2372 -1.37732 4.78494
443 1 -18.0069 -2.72506 4.43997
441 1 -19.0557 -3.46521 3.91611
442 1 -18.7822 -4.47165 2.96983
444 1 -17.4494 -4.64446 2.55535
280 1 -17.1673 -5.11712 1.22437
440 1 -19.8653 -4.93879 2.14467
277 1 -19.5496 -5.2556 0.791201
278 1 -18.2427 -5.23207 0.337579
540 1 -13.3116 -0.604233 4.98278
450 1 -12.9701 -1.98014 5.02025
537 1 -15.7853 -0.964485 4.87386
447 1 -15.6431 -2.33743 4.77411
449 1 -13.8978 -4.17679 3.79113
451 1 -12.5371 -4.24389 3.37831
452 1 -12.2332 -4.81911 2.21087
445 1 -16.6853 -3.1684 4.24493
446 1 -16.3542 -4.21197 3.34358
448 1 -15.018 -4.49501 3.00958
284 1 -14.711 -4.9029 1.69963
286 1 -13.3295 -5.04643 1.33228
282 1 -15.8231 -5.0628 0.794112
550 1 -5.8804 -0.456649 5.22945
546 1 -8.21778 -0.9832 5.19391
548 1 -6.8907 -1.41194 5.08582
462 1 -6.57475 -2.67841 4.53287
543 1 -10.599 -1.54853 5.09519
457 1 -9.23721 -1.91727 5.01142
458 1 -8.98658 -3.13061 4.33728
460 1 -7.63009 -3.46154 4.03838
461 1 -7.37234 -4.32694 2.98248
463 1 -6.0897 -4.56696 2.55483
296 1 -5.86623 -5.09911 1.23459
453 1 -11.6519 -2.44549 4.91664
454 1 -11.4467 -3.58468 4.06598
455 1 -10.0825 -3.88106 3.78885
456 1 -9.79995 -4.68819 2.64074
459 1 -8.44936 -4.81672 2.19134
293 1 -8.18654 -5.04283 0.818645
294 1 -6.90492 -5.15697 0.266165
289 1 -10.901 -4.99793 1.78566
290 1 -10.6164 -5.05019 0.416066
551 1 -4.53243 -0.899651 5.12142
466 1 -4.23249 -2.21041 4.62437
464 1 -5.2641 -3.03769 4.22634
465 1 -5.02255 -3.98099 3.23049
298 1 -4.51965 -5.02453 0.688245
560 1 2.97305 -0.852958 5.12652
557 1 0.611015 -1.2806 4.94879
477 1 1.94084 -1.72581 4.87181
478 1 2.18667 -2.96825 4.14922
480 1 3.54212 -3.29108 3.8328
481 1 3.81283 -4.1678 2.76948
554 1 -2.10593 -0.400306 5.04799
470 1 -1.80582 -1.74184 4.73281
473 1 -0.472008 -2.17246 4.57334
474 1 -0.222847 -3.36852 3.90086
475 1 1.10681 -3.67013 3.54362
476 1 1.37398 -4.42459 2.4014
479 1 2.70997 -4.61526 2.00359
309 1 2.99618 -4.93354 0.634298
468 1 -2.89154 -2.58406 4.33607
469 1 -2.60389 -3.66887 3.49451
471 1 -1.31167 -4.01176 3.2029
472 1 -1.03894 -4.67493 2.02817
305 1 0.325962 -4.69868 1.55562
306 1 0.569827 -5.00283 0.181678
467 1 -3.69405 -4.2674 2.81599
300 1 -3.43165 -4.78036 1.56521
302 1 -2.09384 -4.92688 1.12792
564 1 5.40372 -0.394442 5.02895
562 1 4.33023 -1.31975 4.98527
482 1 4.62122 -2.57755 4.37804
483 1 5.11965 -4.45762 2.3343
312 1 5.37104 -4.88291 1.00646
310 1 4.29886 -4.98576 0.0855128
571 1 11.7513 -1.26315 4.99517
568 1 9.11198 -0.317925 5.0358
490 1 9.38354 -1.67281 4.74281
493 1 10.7213 -2.09272 4.5963
494 1 11.0234 -3.20688 3.77189
565 1 6.74019 -0.851335 4.94318
486 1 6.98619 -2.16981 4.50703
488 1 8.32523 -2.50201 4.29508
489 1 8.62031 -3.5912 3.45385
491 1 9.98048 -3.90071 3.1375
492 1 10.254 -4.58237 1.92313
321 1 11.5526 -4.69116 1.51027
322 1 11.8173 -4.97114 0.0809635
484 1 5.95657 -3.00984 4.0589
485 1 6.18104 -3.98868 3.07479
487 1 7.53214 -4.17481 2.72289
316 1 7.80612 -4.67416 1.43415
318 1 9.14219 -4.87268 1.03033
314 1 6.69904 -4.97077 0.570472
578 1 16.5265 -0.373282 5.24766
574 1 14.0931 -0.813879 5.24945
576 1 15.4365 -1.22055 5.05427
502 1 15.7552 -2.48389 4.50681
497 1 13.0633 -1.71467 4.89461
498 1 13.3485 -2.88163 4.16327
500 1 14.6812 -3.19648 3.86111
501 1 14.9745 -3.94643 2.73905
503 1 16.3522 -4.10189 2.32526
328 1 16.6379 -4.61442 1.0528
495 1 12.3178 -3.55497 3.5131
496 1 12.6119 -4.3144 2.36819
499 1 13.9365 -4.43436 1.96565
325 1 14.2247 -4.83492 0.633052
326 1 15.5576 -4.87364 0.199364
579 1 17.8755 -0.822825 5.2893
506 1 18.116 -2.20014 4.97961
508 1 19.3981 -2.72078 4.79546
509 1 19.7873 -3.47085 3.67051
504 1 17.1107 -2.8415 4.26479
505 1 17.4028 -3.64501 3.16111
507 1 18.7467 -3.92307 2.81338
332 1 19.0063 -4.49663 1.55816
330 1 17.9617 -4.68337 0.645842
592 1 27.87 -0.465 5.162
588 1 25.5011 -0.889795 5.27974
590 1 26.8013 -1.36356 5.08718
521 1 27.0375 -2.65327 4.53487
585 1 23.1225 -1.35431 5.27606
516 1 24.3943 -1.75288 5.03839
517 1 24.6337 -2.97564 4.25625
519 1 25.9812 -3.35645 3.95194
520 1 26.2651 -4.30365 2.91129
522 1 27.602 -4.564 2.456
344 1 27.87 -5.053 1.153
582 1 20.3605 -0.261193 5.57836
512 1 22.1166 -2.19031 4.91222
513 1 22.2546 -3.26858 4.01779
514 1 23.5667 -3.58736 3.60684
515 1 23.8193 -4.36626 2.46639
518 1 25.1589 -4.66165 2.08629
341 1 25.4144 -4.97969 0.721147
342 1 26.7502 -5.10547 0.299012
510 1 21.1236 -3.72155 3.27301
511 1 21.3954 -4.33644 2.01772
337 1 22.7594 -4.52358 1.58682
338 1 23.0383 -4.82767 0.219259
334 1 20.3756 -4.66606 1.11396
355 1 -21.1295 5.27781 0.650241
351 1 -23.5466 5.0334 1.16945
353 1 -22.2 4.99874 1.56898
604 1 -21.9466 4.39281 2.7894
606 1 -20.5299 4.14378 3.18308
607 1 -20.2765 3.09338 4.0963
347 1 -26.2513 5.19938 0.220285
348 1 -25.9858 4.87259 1.57288
599 1 -24.6716 4.7525 1.99896
600 1 -24.4151 4.04164 3.17593
602 1 -23.048 3.73245 3.47786
603 1 -22.7491 2.66001 4.32911
605 1 -21.3607 2.32048 4.54194
530 1 -21.0854 0.964974 4.84133
595 1 -27.1035 4.60019 2.45153
596 1 -26.8135 3.67168 3.43017
597 1 -25.4793 3.38574 3.82184
598 1 -25.1758 2.25442 4.61712
601 1 -23.8371 1.82963 4.73474
527 1 -23.5424 0.512661 5.03344
528 1 -22.1755 0.071207 4.90611
593 1 -27.87 3.047 4.193
594 1 -27.602 1.821 4.853
524 1 -26.2185 1.39552 5.02043
525 1 -25.9323 0.0379865 5.197
359 1 -18.7619 5.3554 0.157744
360 1 -17.4006 5.2858 0.604951
612 1 -17.0816 4.84951 1.93323
357 1 -19.7726 5.09832 1.07552
608 1 -19.431 4.61763 2.39453
610 1 -18.0822 4.37775 2.77093
611 1 -17.8166 3.45784 3.74197
609 1 -18.9109 2.73108 4.2527
533 1 -18.7038 1.39682 4.72661
535 1 -17.3569 0.87 4.76849
531 1 -19.7546 0.476054 4.89241
367 1 -12.2588 5.1148 0.950462
363 1 -14.9374 5.2182 0.111223
364 1 -14.6365 4.99816 1.45666
619 1 -13.3056 4.77333 1.8163
620 1 -13.0315 3.97155 2.95673
615 1 -15.7131 4.63147 2.26852
616 1 -15.413 3.64637 3.27866
617 1 -14.0508 3.31406 3.61419
618 1 -13.8803 2.10779 4.27735
621 1 -12.5426 1.6117 4.46793
541 1 -12.245 0.290333 4.8712
613 1 -16.4905 2.98879 3.8901
614 1 -16.2654 1.71646 4.48825
538 1 -14.9659 1.25528 4.6076
539 1 -14.6588 -0.0923708 4.86796
375 1 -7.51276 5.07333 0.0204473
376 1 -6.16872 4.95674 0.45623
632 1 -5.91687 4.54219 1.73875
371 1 -9.88298 5.13183 0.488267
373 1 -8.5609 4.9078 0.901355
628 1 -8.2609 4.28166 2.1477
630 1 -6.9292 4.11878 2.59848
631 1 -6.66795 3.18116 3.61901
369 1 -10.9288 4.84259 1.35874
624 1 -10.6594 4.06653 2.54542
626 1 -9.31796 3.73641 2.87939
627 1 -9.04462 2.79386 3.93363
629 1 -7.71271 2.47055 4.20333
547 1 -7.47442 1.24016 4.80113
549 1 -6.11766 0.928805 5.02569
622 1 -11.7035 3.53958 3.25307
623 1 -11.4679 2.4263 4.12278
625 1 -10.1388 2.03747 4.39475
544 1 -9.89699 0.814162 4.96078
545 1 -8.54044 0.393812 5.12733
542 1 -10.9306 -0.159808 5.10285
635 1 -4.552 4.36612 2.18563
636 1 -4.30869 3.52445 3.30928
633 1 -5.38098 2.92073 3.89638
634 1 -5.0814 1.76961 4.64797
391 1 3.7671 5.1813 0.223403
387 1 1.33784 4.96361 0.519883
389 1 2.67596 5.02687 1.08675
648 1 2.92856 4.62992 2.41288
383 1 -1.05194 4.84008 0.95295
385 1 0.278828 4.76362 1.40864
644 1 0.536007 4.25394 2.68698
646 1 1.85001 4.05331 3.14463
647 1 2.15559 3.09562 4.19177
649 1 3.52621 2.67108 4.39784
561 1 3.80774 1.44382 5.01589
379 1 -3.7422 4.98477 0.0145933
380 1 -3.43935 4.70787 1.35383
639 1 -2.13814 4.606 1.84703
640 1 -1.8504 3.98581 3.0636
642 1 -0.53135 3.72051 3.43013
643 1 -0.248331 2.66308 4.3424
645 1 1.11594 2.31187 4.67218
558 1 1.41172 0.990148 5.11854
559 1 2.74847 0.538703 5.17282
637 1 -2.95893 3.36132 3.73991
638 1 -2.64427 2.22441 4.46135
641 1 -1.2959 1.9031 4.76697
555 1 -1.03691 0.560239 5.1237
556 1 0.321817 0.102568 5.16883
552 1 -3.72014 1.40041 4.87396
553 1 -3.44614 0.0358377 5.12813
392 1 5.07388 5.164 0.658849
652 1 5.33632 4.81035 1.98109
650 1 4.28054 4.39666 2.79723
651 1 4.57199 3.3918 3.79567
563 1 5.15632 1.02369 5.07825
399 1 10.1602 5.04454 1.1285
401 1 11.5006 4.89127 1.51242
664 1 11.7274 4.38492 2.8324
395 1 7.48236 5.09188 0.225372
396 1 7.7622 4.94213 1.5978
659 1 9.08594 4.75433 1.9589
660 1 9.34898 4.12001 3.17575
662 1 10.6686 3.83661 3.54671
663 1 10.9901 2.7651 4.43101
655 1 6.69484 4.66236 2.43878
656 1 6.9352 3.78037 3.49555
657 1 8.26153 3.48395 3.83104
658 1 8.56117 2.34528 4.60095
661 1 9.91519 1.95183 4.79974
569 1 10.1681 0.602334 5.06902
570 1 11.5233 0.17359 5.09088
653 1 5.90553 3.03622 4.06167
654 1 6.17538 1.88523 4.77128
566 1 7.49344 1.48215 4.91811
567 1 7.73686 0.127165 5.10147
407 1 14.9977 5.15672 0.161086
408 1 16.3477 5.06794 0.566563
672 1 16.5925 4.76334 1.91683
403 1 12.602 5.0584 0.626802
405 1 13.9573 5.0077 1.06885
668 1 14.1697 4.56283 2.36014
670 1 15.4958 4.35364 2.75962
671 1 15.837 3.46092 3.8503
666 1 13.1098 4.14719 3.17877
667 1 13.4456 3.16099 4.17179
669 1 14.7493 2.74709 4.44386
575 1 14.952 1.48344 4.99155
577 1 16.2773 1.01133 5.12021
665 1 12.3368 2.4056 4.67506
572 1 12.6097 1.08954 5.02961
573 1 13.9146 0.582682 5.22544
411 1 18.7623 5.09948 0.155541
412 1 19.0248 4.93434 1.53642
675 1 17.9448 4.52462 2.40458
676 1 18.2118 3.63331 3.49628
677 1 19.5469 3.34825 3.82861
678 1 19.8497 2.26873 4.64459
673 1 17.1061 3.00146 4.16773
674 1 17.3795 1.86355 4.89811
580 1 18.757 1.48262 5.02437
581 1 19.0002 0.122989 5.40099
423 1 26.2666 5.13474 0.238394
424 1 27.602 5.136 0.696
692 1 27.87 4.766 2.037
419 1 23.8371 5.04344 0.65052
421 1 25.1493 4.99628 1.12693
688 1 25.4729 4.43146 2.36651
690 1 26.792 4.29537 2.822
691 1 26.9833 3.45093 3.90416
415 1 21.427 5.01167 1.04524
417 1 22.7484 4.82838 1.51656
684 1 23.0737 4.25178 2.79581
686 1 24.3867 3.97325 3.16671
687 1 24.6495 2.97797 4.16363
689 1 25.952 2.64099 4.41647
589 1 26.2334 1.37434 5.03711
591 1 27.602 0.925 5.1
679 1 20.3821 4.74256 1.95603
680 1 20.622 3.98113 3.16088
682 1 21.9951 3.64531 3.44774
683 1 22.2635 2.59583 4.38252
685 1 23.6031 2.25288 4.72681
586 1 23.8746 0.95802 5.23432
587 1 25.1891 0.492956 5.27215
681 1 21.1767 1.84194 4.89175
583 1 21.4817 0.564146 5.41967
584 1 22.7961 0.0267512 5.42983
ITEM: TIMESTEP
1300
ITEM: NUMBER OF ATOMS
692
ITEM: BOX BOUNDS ff ff ff
-6.0000000000000000e+01 6.0000000000000000e+01
-4.0000000000000000e+01 4.0000000000000000e+01
-4.0000000000000000e+01 4.0000000000000000e+01
ITEM: ATOMS id type x y z
275 1 -20.5895 -5.36879 -0.068441
276 1 -20.3413 -5.0256 -1.45293
271 1 -24.403 -5.22743 -0.193484
272 1 -23.0173 -5.19059 -0.598684
8 1 -22.6357 -4.8261 -1.92872
11 1 -21.3339 -4.52431 -2.24478
12 1 -21.0909 -3.58533 -3.23816
267 1 -26.8369 -5.21244 -0.652539
269 1 -25.5067 -5.34344 -1.05174
6 1 -23.662 -4.37271 -2.79285
7 1 -23.5286 -3.29085 -3.613
9 1 -22.1837 -2.85248 -3.75488
10 1 -21.936 -1.65737 -4.44625
108 1 -20.5941 -1.21025 -4.64629
265 1 -27.87 -4.93 -1.602
1 1 -27.602 -4.326 -2.855
3 1 -26.3328 -4.1459 -3.42803
4 1 -25.9683 -2.97063 -4.10968
5 1 -24.6056 -2.56119 -4.18253
103 1 -24.3426 -1.26159 -4.69941
105 1 -23.0193 -0.832083 -4.8719
2 1 -26.9538 -2.14335 -4.60451
100 1 -26.7377 -0.856898 -5.01798
101 1 -25.4246 -0.407848 -5.07871
279 1 -17.9013 -5.09938 -0.911194
15 1 -18.9708 -4.80159 -1.79997
16 1 -18.6978 -3.90246 -2.84156
18 1 -17.375 -3.55501 -3.18232
19 1 -17.1502 -2.42479 -4.00376
13 1 -19.7479 -3.16012 -3.45556
14 1 -19.5105 -2.00767 -4.26966
17 1 -18.196 -1.62447 -4.40752
111 1 -17.9675 -0.296427 -4.79121
287 1 -13.0961 -5.14099 -0.0112685
283 1 -15.4555 -5.09433 -0.49134
285 1 -14.1512 -4.90926 -0.929294
24 1 -13.9037 -4.26643 -2.17042
26 1 -12.6166 -4.04726 -2.56018
27 1 -12.3114 -3.10876 -3.53177
281 1 -16.5588 -4.89415 -1.3601
20 1 -16.2986 -4.1857 -2.55462
22 1 -15.0082 -3.77106 -2.88993
23 1 -14.6921 -2.71413 -3.74848
25 1 -13.3678 -2.34771 -4.03074
117 1 -13.0517 -1.0856 -4.58664
21 1 -15.791 -1.97232 -4.18433
114 1 -15.4994 -0.664977 -4.6406
115 1 -14.1352 -0.175998 -4.81041
295 1 -6.61332 -4.76589 -1.00787
291 1 -9.26616 -4.96212 -0.12103
292 1 -9.00815 -4.69278 -1.47399
35 1 -7.66497 -4.46162 -1.85856
36 1 -7.44083 -3.71743 -3.01217
38 1 -6.1648 -3.29231 -3.37268
39 1 -5.91097 -2.21711 -4.28752
288 1 -11.7775 -4.97972 -0.447373
28 1 -11.5492 -4.54976 -1.77171
31 1 -10.1635 -4.30312 -2.18672
32 1 -9.92486 -3.48257 -3.27115
33 1 -8.5634 -3.09465 -3.58361
34 1 -8.33729 -1.93524 -4.4574
37 1 -7.01615 -1.43131 -4.70107
125 1 -6.73302 -0.0830471 -5.1165
29 1 -10.9831 -2.73515 -3.81119
30 1 -10.666 -1.52154 -4.51624
122 1 -9.36871 -1.10323 -4.79421
119 1 -11.7222 -0.642889 -4.85215
299 1 -4.24 -4.76612 -0.594532
297 1 -5.29145 -4.54383 -1.47356
40 1 -5.07086 -3.86375 -2.68065
41 1 -4.54536 -1.8815 -4.58812
128 1 -4.28423 -0.623762 -5.17427
307 1 1.83016 -4.92956 -0.18763
308 1 2.08747 -4.78965 -1.58917
55 1 3.45301 -4.6756 -2.12656
56 1 3.74455 -3.92268 -3.32674
303 1 -1.86846 -4.81178 -0.17397
304 1 -0.560752 -4.73482 -0.720102
48 1 -0.354882 -4.5128 -2.0922
51 1 1.03332 -4.39342 -2.4623
52 1 1.30541 -3.61368 -3.58773
53 1 2.62852 -3.27494 -3.92307
54 1 2.9693 -2.18243 -4.79778
301 1 -2.91435 -4.66624 -1.11617
44 1 -2.65572 -4.14025 -2.39175
46 1 -1.38968 -4.01672 -2.88312
47 1 -1.07573 -3.18348 -3.94903
49 1 0.262108 -2.9411 -4.28731
50 1 0.584188 -1.7222 -4.89391
136 1 1.89438 -1.26577 -5.05123
42 1 -3.72977 -3.59392 -3.05355
43 1 -3.46572 -2.68318 -4.11239
45 1 -2.11245 -2.38888 -4.47873
131 1 -1.85348 -1.13106 -5.10825
133 1 -0.45663 -0.781892 -5.24081
129 1 -2.90582 -0.265147 -5.31132
311 1 4.51702 -4.98466 -1.21548
58 1 5.10733 -3.68994 -3.67118
59 1 5.34939 -2.57413 -4.54141
57 1 4.28982 -1.77851 -5.01434
139 1 4.55 -0.4191 -5.25845
319 1 9.33144 -4.82393 -0.335981
320 1 10.6742 -4.80333 -0.783496
68 1 10.9113 -4.73137 -2.14881
315 1 6.90742 -4.90784 -0.72735
317 1 8.25178 -4.81192 -1.26114
64 1 8.52668 -4.5375 -2.62487
66 1 9.85004 -4.38299 -3.04645
67 1 10.0552 -3.48989 -4.11876
69 1 11.3314 -3.21878 -4.55799
70 1 11.7358 -1.94007 -5.03923
313 1 5.81892 -4.84822 -1.68649
60 1 6.0958 -4.34799 -2.99327
62 1 7.42921 -4.04678 -3.31887
63 1 7.70193 -3.02706 -4.29099
65 1 9.05006 -2.71232 -4.57141
145 1 9.33366 -1.44297 -5.10197
147 1 10.6839 -1.03081 -5.19051
61 1 6.68149 -2.15379 -4.73288
142 1 6.94032 -0.867192 -5.16707
143 1 8.31036 -0.47962 -5.26423
157 1 19.4087 -0.480174 -5.62062
156 1 18.0836 -0.994452 -5.49704
80 1 17.9141 -2.37247 -5.04966
327 1 15.6996 -4.78761 -1.29103
323 1 13.0668 -4.8322 -0.312181
324 1 13.3619 -4.74796 -1.70444
74 1 14.6534 -4.57446 -2.19917
75 1 15.0053 -4.09439 -3.48834
77 1 16.324 -3.75856 -3.7734
78 1 16.61 -2.78748 -4.74917
71 1 12.2547 -4.59462 -2.51985
72 1 13.9521 -3.69705 -4.36256
73 1 14.2132 -2.41237 -4.94884
76 1 15.5378 -1.95699 -5.10457
153 1 15.7361 -0.596482 -5.35376
150 1 13.1006 -1.53049 -5.16902
331 1 18.1339 -4.95451 -0.828991
333 1 19.5123 -4.80124 -1.22189
83 1 19.7781 -4.34075 -2.51644
329 1 17.0562 -4.68469 -1.73759
79 1 17.3664 -4.13416 -2.96172
81 1 18.7028 -3.8919 -3.34258
82 1 18.9933 -3.15185 -4.50434
160 1 22.0183 -0.555239 -6.50358
343 1 26.9854 -4.96721 -1.18246
339 1 24.3695 -4.91329 -0.231044
340 1 24.5784 -4.71055 -1.60917
93 1 25.9493 -4.65459 -2.05036
94 1 26.221 -4.03515 -3.31683
96 1 27.602 -3.746 -3.582
97 1 27.87 -2.658 -4.45
335 1 20.5769 -4.83421 -0.28728
336 1 21.9466 -4.90665 -0.79028
87 1 22.1763 -4.53611 -2.09924
89 1 23.5405 -4.43515 -2.47463
90 1 23.7978 -3.85212 -3.7495
91 1 25.1353 -3.45006 -4.12099
92 1 25.5078 -2.21631 -4.75126
95 1 26.8564 -1.83414 -4.81747
166 1 27.1415 -0.520945 -5.26964
85 1 21.1157 -4.20142 -2.98528
86 1 21.4078 -3.57132 -4.17921
88 1 22.7159 -3.41819 -4.59482
84 1 20.3613 -2.94731 -4.8837
163 1 24.5192 -1.34537 -5.21952
107 1 -21.441 1.01067 -5.03552
178 1 -21.18 2.33507 -4.57046
104 1 -23.8403 1.39852 -5.00835
174 1 -23.5943 2.72686 -4.51123
176 1 -22.2913 3.12185 -4.16485
177 1 -22.0575 4.17519 -3.27944
179 1 -20.6718 4.50294 -2.93995
356 1 -20.371 5.00448 -1.62715
98 1 -27.87 0 -5.183
99 1 -27.602 1.379 -4.996
169 1 -26.2855 1.83769 -4.79514
170 1 -25.9967 3.09707 -4.22974
172 1 -24.6656 3.44456 -3.92211
173 1 -24.4019 4.38999 -2.88844
175 1 -23.0924 4.64304 -2.47721
352 1 -22.7876 4.92344 -1.15948
354 1 -21.4664 5.03497 -0.747466
167 1 -27.0445 3.79973 -3.66243
168 1 -26.7872 4.51624 -2.45475
171 1 -25.4724 4.76311 -2.05133
349 1 -25.2411 5.09515 -0.69659
350 1 -23.8867 5.13205 -0.275298
345 1 -27.87 4.93 -1.602
346 1 -27.602 5.178 -0.233
109 1 -20.3735 0.102159 -4.95575
106 1 -22.7225 0.53278 -5.09142
102 1 -25.1954 0.952599 -5.07594
110 1 -19.066 0.586674 -4.85994
182 1 -18.7676 1.97732 -4.77875
185 1 -17.4423 2.47387 -4.67848
186 1 -17.203 3.70291 -4.07107
180 1 -19.8478 2.8406 -4.46561
181 1 -19.6211 3.95415 -3.6881
183 1 -18.2614 4.25835 -3.36232
184 1 -17.9865 4.85357 -2.1372
358 1 -19.0378 5.03565 -1.23103
118 1 -12.5831 1.67029 -5.18899
194 1 -12.326 2.95928 -4.74778
112 1 -16.6474 0.190967 -4.78688
113 1 -16.4081 1.55366 -4.86559
189 1 -15.0707 2.0359 -4.83085
190 1 -14.7475 3.3672 -4.38726
192 1 -13.3986 3.75094 -4.25789
193 1 -13.1461 4.59177 -3.12522
187 1 -15.8342 4.03545 -3.78769
188 1 -15.5291 4.73501 -2.60064
191 1 -14.1985 4.86049 -2.22436
365 1 -13.9564 5.09545 -0.841494
366 1 -12.6328 5.16844 -0.412854
361 1 -16.6067 5.01373 -1.71338
362 1 -16.3709 5.20022 -0.386191
116 1 -13.908 1.19126 -4.98695
124 1 -7.78656 0.771233 -5.25657
202 1 -7.54038 2.14528 -5.20705
205 1 -6.16204 2.52253 -5.07061
206 1 -5.94175 3.62156 -4.21689
121 1 -10.1969 1.15661 -5.19151
198 1 -9.93938 2.53324 -4.97416
200 1 -8.58268 3.02381 -4.78972
201 1 -8.27499 4.03441 -3.85882
203 1 -6.92315 4.24927 -3.44319
204 1 -6.64454 4.74409 -2.14996
196 1 -11.0161 3.34709 -4.48678
197 1 -10.7222 4.34191 -3.55374
199 1 -9.36937 4.56611 -3.10741
372 1 -9.11341 4.97193 -1.7686
374 1 -7.76363 4.98016 -1.31832
195 1 -11.8064 4.826 -2.73152
368 1 -11.5541 5.21631 -1.36874
370 1 -10.2085 5.15876 -0.889593
123 1 -9.09299 0.262533 -5.14993
120 1 -11.5098 0.717306 -5.0954
126 1 -5.34493 0.307774 -5.31485
127 1 -5.06296 1.66333 -5.46021
207 1 -4.60523 3.91408 -3.90291
208 1 -4.24493 4.46623 -2.69447
377 1 -5.30826 4.7324 -1.74606
378 1 -5.03721 5.00105 -0.405976
138 1 3.53484 0.499243 -5.32386
220 1 3.93268 1.84344 -5.17898
135 1 1.14057 1.03205 -5.37151
217 1 1.43304 2.3497 -5.06374
219 1 3.08554 4.05656 -4.03558
132 1 -1.21873 1.48376 -5.32411
213 1 -0.885071 2.79086 -4.88456
215 1 0.412454 3.19202 -4.64969
216 1 0.668857 4.14566 -3.653
218 1 1.97736 4.45076 -3.19421
388 1 2.24489 4.84405 -1.87315
390 1 3.54962 4.95747 -1.40192
209 1 -3.66272 1.96623 -5.64792
211 1 -1.94999 3.53639 -4.32133
212 1 -1.79853 4.3451 -3.23238
214 1 -0.443492 4.52341 -2.82735
384 1 -0.156986 4.8723 -1.50163
386 1 1.16614 4.88952 -0.965501
210 1 -2.8752 4.60804 -2.35103
381 1 -2.62531 4.88155 -0.992585
382 1 -1.27762 4.91458 -0.593181
137 1 2.1772 0.0957352 -5.38007
134 1 -0.17966 0.596692 -5.42438
130 1 -2.60582 1.08266 -5.45601
223 1 5.23473 2.28087 -4.82288
224 1 5.50376 3.55135 -4.19032
221 1 4.40224 4.19157 -3.52753
222 1 4.63188 4.72313 -2.28632
146 1 9.95964 1.22025 -4.93909
232 1 10.2435 2.47745 -4.35262
234 1 11.5725 2.87825 -4.06736
235 1 11.8296 3.95091 -3.12975
140 1 5.90585 0.0663324 -5.26807
141 1 6.2987 1.38915 -5.03097
227 1 7.63314 1.76664 -4.83441
228 1 7.92297 3.02699 -4.31176
230 1 9.233 3.34247 -3.92738
231 1 9.42501 4.30638 -2.90578
233 1 10.7628 4.57174 -2.45921
400 1 11.1117 5.04709 -1.17477
225 1 6.85343 3.82302 -3.82767
226 1 7.04527 4.6161 -2.66598
229 1 8.34785 4.77045 -2.1318
397 1 8.63774 5.09306 -0.815182
398 1 10.0009 5.11919 -0.340644
393 1 5.94485 4.78642 -1.81917
394 1 6.1917 4.93797 -0.457665
148 1 11.0091 0.29594 -5.18698
144 1 8.64708 0.855937 -5.10217
158 1 19.7649 0.815157 -5.3041
152 1 14.6463 0.302076 -5.24583
240 1 14.9502 1.61324 -4.78698
243 1 16.3194 2.09602 -4.6325
244 1 16.5704 3.18137 -3.81738
149 1 12.303 0.782732 -5.08809
236 1 12.5884 2.09036 -4.60675
238 1 13.9037 2.46066 -4.3559
239 1 14.2124 3.49052 -3.4391
241 1 15.5172 3.70601 -3.05827
242 1 15.799 4.41542 -1.89678
237 1 13.1882 4.14628 -2.7526
404 1 13.4583 4.72171 -1.50597
406 1 14.7784 4.76347 -1.06355
402 1 12.4062 4.9844 -0.642535
151 1 13.3463 -0.150019 -5.30643
154 1 17.0215 -0.0807489 -5.41516
155 1 17.3395 1.2469 -5.03395
247 1 18.7026 1.63424 -4.92824
248 1 18.9719 2.80371 -4.18758
245 1 17.918 3.46437 -3.52163
246 1 18.1517 4.22065 -2.36673
249 1 19.4944 4.39322 -1.94282
413 1 19.8098 4.9012 -0.659452
409 1 17.1318 4.71717 -1.52872
410 1 17.4405 4.95266 -0.177583
161 1 22.2746 0.436757 -5.5548
165 1 26.0816 0.471847 -5.27301
260 1 26.2811 1.82073 -4.992
263 1 27.602 2.249 -4.67
264 1 27.87 3.41 -3.903
162 1 23.6284 0.86181 -5.29093
256 1 23.8864 2.13966 -4.76082
258 1 25.1841 2.56587 -4.52938
259 1 25.3878 3.59093 -3.57345
261 1 26.7547 4.00258 -3.26251
262 1 26.9833 4.99088 -2.2388
159 1 21.1446 1.2058 -5.09558
252 1 21.4298 2.39727 -4.45205
254 1 22.7722 2.84649 -4.26239
255 1 23.0016 3.81211 -3.25204
257 1 24.3366 4.19003 -2.90895
420 1 24.599 4.73085 -1.63284
422 1 25.9851 5.05736 -1.27189
250 1 20.3214 3.13415 -3.88437
251 1 20.566 3.99279 -2.78137
253 1 21.9012 4.21663 -2.4332
416 1 22.1754 4.75661 -1.15122
418 1 23.5295 4.82287 -0.751976
414 1 21.1397 4.9214 -0.186649
164 1 24.7405 0.00991034 -5.32879
529 1 -21.9673 -1.42374 4.88313
438 1 -20.6537 -1.88479 4.78545
439 1 -20.4054 -3.15981 4.26416
526 1 -24.655 -0.511884 5.15656
431 1 -24.405 -1.88061 4.93499
434 1 -23.0758 -2.28568 4.68147
435 1 -22.8512 -3.4679 3.89347
436 1 -21.4939 -3.79703 3.62622
437 1 -21.1476 -4.6883 2.52347
523 1 -27.102 -0.933519 5.1176
427 1 -26.7966 -2.24277 4.64607
429 1 -25.4848 -2.68164 4.46282
430 1 -25.2522 -3.85241 3.64075
432 1 -23.902 -4.07772 3.20883
433 1 -23.5926 -4.72817 1.98104
273 1 -22.219 -5.05273 1.66268
274 1 -21.9475 -5.3147 0.32204
425 1 -27.87 -3.047 4.193
426 1 -27.602 -4.052 3.232
428 1 -26.3028 -4.36875 2.87472
268 1 -26.0377 -4.9468 1.5907
270 1 -24.6859 -5.02807 1.08791
266 1 -27.0926 -5.20436 0.680993
536 1 -17.206 -0.539664 5.18841
532 1 -19.5844 -1.00401 4.97238
534 1 -18.2661 -1.49626 4.94963
443 1 -17.9703 -2.86876 4.55993
441 1 -19.0652 -3.62832 4.03661
442 1 -18.7388 -4.5964 3.01968
444 1 -17.3937 -4.87918 2.68414
280 1 -17.0983 -5.30772 1.37518
440 1 -19.7997 -4.98614 2.21637
277 1 -19.5516 -5.35849 0.88262
278 1 -18.2075 -5.30696 0.437707
540 1 -13.3668 -0.531801 5.16954
450 1 -13.09 -1.90035 5.01578
537 1 -15.8549 -1.00055 5.13107
447 1 -15.6976 -2.41048 4.90424
449 1 -13.909 -4.17555 3.89077
451 1 -12.5643 -4.29135 3.45365
452 1 -12.2427 -4.95413 2.25036
445 1 -16.6492 -3.2886 4.35836
446 1 -16.3128 -4.37539 3.49894
448 1 -14.9745 -4.58593 3.07408
284 1 -14.6418 -5.18421 1.82901
286 1 -13.3315 -5.26154 1.39563
282 1 -15.7409 -5.29333 0.898158
550 1 -5.91053 -0.37444 5.24282
546 1 -8.34007 -0.924206 5.15161
548 1 -7.00096 -1.35365 5.1145
462 1 -6.728 -2.63318 4.6281
543 1 -10.7565 -1.41163 4.97036
457 1 -9.39087 -1.78933 4.84231
458 1 -9.13386 -3.00612 4.2223
460 1 -7.78854 -3.35637 4.05634
461 1 -7.49572 -4.29934 3.03997
463 1 -6.14092 -4.55348 2.63433
296 1 -5.85621 -4.91246 1.28498
453 1 -11.7721 -2.34754 4.83411
454 1 -11.519 -3.46054 4.03778
455 1 -10.2055 -3.78894 3.70889
456 1 -9.8757 -4.62861 2.61429
459 1 -8.52942 -4.77563 2.18677
293 1 -8.19552 -5.01052 0.828629
294 1 -6.8896 -5.00367 0.361894
289 1 -10.9141 -4.95648 1.75547
290 1 -10.6311 -5.07161 0.351611
551 1 -4.58593 -0.849867 5.30676
466 1 -4.29156 -2.17094 4.92888
464 1 -5.38254 -3.0119 4.41921
465 1 -5.11226 -4.05285 3.4594
298 1 -4.50493 -4.92887 0.826326
560 1 2.88705 -0.852423 5.06356
557 1 0.51732 -1.2867 5.00495
477 1 1.84196 -1.72024 4.86033
478 1 2.12843 -2.88992 4.19663
480 1 3.43313 -3.22049 3.87698
481 1 3.71991 -4.02608 2.81314
554 1 -2.1246 -0.419765 5.22171
470 1 -1.87879 -1.76237 5.00988
473 1 -0.539032 -2.10619 4.70884
474 1 -0.25134 -3.25725 3.95243
475 1 1.08726 -3.49217 3.57646
476 1 1.34804 -4.23605 2.43974
479 1 2.62821 -4.3932 2.01318
309 1 2.88695 -4.82951 0.698195
468 1 -2.94408 -2.55933 4.70126
469 1 -2.68668 -3.6949 3.79521
471 1 -1.32443 -3.89367 3.3292
472 1 -1.00844 -4.54172 2.10808
305 1 0.271876 -4.62235 1.57282
306 1 0.477143 -4.83975 0.199522
467 1 -3.77229 -4.25556 3.03086
300 1 -3.45313 -4.74853 1.72908
302 1 -2.10313 -4.81235 1.26214
564 1 5.2951 -0.366 5.14379
562 1 4.23111 -1.2355 4.94356
482 1 4.50302 -2.47176 4.35834
483 1 5.04273 -4.38359 2.41447
312 1 5.3217 -4.82715 1.10795
310 1 4.24327 -4.95152 0.208583
571 1 11.7085 -1.34889 5.05876
568 1 9.01471 -0.392882 5.24458
490 1 9.25668 -1.76585 4.82607
493 1 10.6345 -2.13418 4.64097
494 1 10.8683 -3.28683 3.86445
565 1 6.58612 -0.835509 5.12057
486 1 6.85308 -2.13971 4.59207
488 1 8.18634 -2.56406 4.345
489 1 8.47884 -3.61761 3.50982
491 1 9.80059 -3.82405 3.08778
492 1 10.1139 -4.40377 1.85473
321 1 11.4539 -4.6251 1.42877
322 1 11.7651 -4.82624 0.114516
484 1 5.80352 -2.89195 4.09239
485 1 6.12421 -3.91046 3.17715
487 1 7.45037 -4.16994 2.79428
316 1 7.70641 -4.66212 1.50887
318 1 9.02784 -4.70943 1.03631
314 1 6.6445 -4.88363 0.633094
578 1 16.5091 -0.496323 5.23217
574 1 14.1355 -0.950954 5.18172
576 1 15.4632 -1.39182 5.00136
502 1 15.71 -2.63849 4.47038
497 1 13.0407 -1.78828 4.87248
498 1 13.2878 -2.94845 4.14984
500 1 14.6312 -3.27187 3.87423
501 1 14.928 -4.09131 2.73952
503 1 16.2346 -4.41785 2.33489
328 1 16.4963 -4.85185 0.993717
495 1 12.2353 -3.65089 3.51268
496 1 12.5137 -4.32752 2.28727
499 1 13.8731 -4.45192 1.91729
325 1 14.155 -4.86833 0.612092
326 1 15.3918 -4.92911 0.0728153
579 1 17.8645 -0.936973 5.19562
506 1 18.0734 -2.26517 4.75188
508 1 19.3614 -2.83351 4.54585
509 1 19.7072 -3.65886 3.49439
504 1 17.0316 -2.99566 4.17668
505 1 17.296 -3.9859 3.17714
507 1 18.6326 -4.16206 2.72216
332 1 18.8942 -4.65896 1.45771
330 1 17.8346 -4.95092 0.581275
592 1 27.87 -0.465 5.162
588 1 25.516 -0.859766 5.01418
590 1 26.7928 -1.34052 4.8534
521 1 27.0409 -2.67127 4.45894
585 1 23.187 -1.38567 5.13771
516 1 24.4991 -1.79273 4.90198
517 1 24.6941 -3.0239 4.22473
519 1 26.0143 -3.44068 3.90533
520 1 26.2439 -4.38459 2.91218
522 1 27.602 -4.564 2.456
344 1 27.87 -5.053 1.153
582 1 20.3288 -0.357123 5.64247
512 1 22.172 -2.28017 4.7945
513 1 22.2542 -3.35568 3.90769
514 1 23.6059 -3.63886 3.58465
515 1 23.8152 -4.33732 2.42196
518 1 25.1514 -4.68282 2.03685
341 1 25.4224 -4.93831 0.662523
342 1 26.7788 -5.11655 0.212524
510 1 21.097 -3.8225 3.17202
511 1 21.3368 -4.449 1.94445
337 1 22.6858 -4.6131 1.54368
338 1 22.9942 -4.85713 0.179173
334 1 20.2551 -4.66505 1.06176
355 1 -21.1606 4.96002 0.612078
351 1 -23.5915 4.99756 1.06379
353 1 -22.2501 4.82122 1.49899
604 1 -21.9392 4.08647 2.66894
606 1 -20.578 3.89634 3.04761
607 1 -20.2961 2.87453 3.94747
347 1 -26.2979 5.17326 0.265478
348 1 -25.9955 4.9404 1.61557
599 1 -24.6345 4.7256 1.94724
600 1 -24.4133 3.94164 3.09445
602 1 -23.0584 3.5921 3.35839
603 1 -22.7865 2.51487 4.215
605 1 -21.4211 2.12467 4.41887
530 1 -21.1911 0.822607 4.84348
595 1 -27.0113 4.60905 2.56016
596 1 -26.8388 3.70593 3.58674
597 1 -25.4874 3.33823 3.81536
598 1 -25.1867 2.21371 4.61615
601 1 -23.8491 1.77977 4.73731
527 1 -23.5931 0.408949 5.01532
528 1 -22.2568 -0.0641921 5.03612
593 1 -27.87 3.047 4.193
594 1 -27.602 1.821 4.853
524 1 -26.2886 1.36003 4.92254
525 1 -26.001 -0.0216797 5.17199
359 1 -18.8005 5.02932 0.13621
360 1 -17.421 5.03593 0.529447
612 1 -17.1506 4.617 1.8685
357 1 -19.8212 4.87904 1.04506
608 1 -19.5369 4.43107 2.33946
610 1 -18.1823 4.15513 2.71448
611 1 -17.8923 3.20626 3.67913
609 1 -18.9817 2.4679 4.1541
533 1 -18.7477 1.22496 4.76578
535 1 -17.4111 0.823783 4.99125
531 1 -19.8579 0.364105 4.95253
367 1 -12.3945 4.89664 0.959391
363 1 -15.0177 5.16389 0.0691565
364 1 -14.7996 4.8404 1.44919
619 1 -13.4537 4.67378 1.83443
620 1 -13.1507 3.99724 3.07682
615 1 -15.8266 4.47883 2.33811
616 1 -15.5464 3.67891 3.45539
617 1 -14.2008 3.31024 3.73606
618 1 -13.9297 2.15383 4.44985
621 1 -12.5807 1.75139 4.65952
541 1 -12.3195 0.400502 5.04888
613 1 -16.5531 2.91486 3.99854
614 1 -16.3256 1.65561 4.61391
538 1 -14.9861 1.25802 4.76088
539 1 -14.7399 -0.110339 5.11855
375 1 -7.47787 4.98417 0.0404967
376 1 -6.14748 4.94943 0.487419
632 1 -5.88812 4.63865 1.83683
371 1 -9.92763 5.05798 0.481343
373 1 -8.55618 4.94752 0.959389
628 1 -8.29248 4.46934 2.27706
630 1 -6.95933 4.27104 2.66243
631 1 -6.68 3.32009 3.70091
369 1 -11.0226 4.77326 1.3585
624 1 -10.7141 4.2318 2.62235
626 1 -9.38758 3.96657 2.98647
627 1 -9.13747 2.92931 3.90758
629 1 -7.76711 2.54952 4.1958
547 1 -7.5242 1.32743 4.89476
549 1 -6.1844 0.932809 5.07057
622 1 -11.7786 3.6774 3.35339
623 1 -11.5149 2.54718 4.17501
625 1 -10.1867 2.17397 4.42473
544 1 -9.93016 0.88966 4.94828
545 1 -8.5992 0.439699 5.12813
542 1 -11.0029 -0.027961 5.03531
635 1 -4.56942 4.43052 2.23772
636 1 -4.2833 3.58083 3.30499
633 1 -5.33649 2.99113 4.00372
634 1 -5.13627 1.77043 4.67491
391 1 3.78006 5.00761 -0.0278458
387 1 1.34236 4.87093 0.424205
389 1 2.67894 4.80724 0.86242
648 1 2.91189 4.42431 2.22112
383 1 -1.05304 4.80437 0.777095
385 1 0.284027 4.73129 1.30473
644 1 0.551889 4.17707 2.59836
646 1 1.86158 3.98452 3.01455
647 1 2.13656 3.07265 4.03022
649 1 3.47567 2.66589 4.32059
561 1 3.70731 1.41462 4.92657
379 1 -3.72184 4.9927 -0.0733824
380 1 -3.50877 4.71542 1.3253
639 1 -2.14776 4.51239 1.6466
640 1 -1.87936 3.82369 2.84918
642 1 -0.546985 3.61135 3.26142
643 1 -0.283335 2.58222 4.23392
645 1 1.09428 2.24985 4.52546
558 1 1.29724 1.0056 5.08596
559 1 2.62013 0.523625 5.16243
637 1 -2.95388 3.22768 3.51346
638 1 -2.73983 2.13482 4.35337
641 1 -1.38095 1.81144 4.58285
555 1 -1.10518 0.546123 5.09185
556 1 0.215862 0.0858414 5.17653
552 1 -3.80019 1.34304 4.80685
553 1 -3.4684 0.0473476 5.19567
392 1 5.08273 4.92465 0.462847
652 1 5.32504 4.57054 1.77742
650 1 4.25303 4.17719 2.62658
651 1 4.58569 3.35984 3.77215
563 1 5.03837 0.988874 5.04585
399 1 10.2134 4.92443 1.06878
401 1 11.5427 4.78357 1.58163
664 1 11.775 4.17888 2.80748
395 1 7.52257 5.06369 0.0467047
396 1 7.78954 4.77735 1.37359
659 1 9.08995 4.63769 1.8782
660 1 9.37095 3.92333 3.06239
662 1 10.7105 3.70354 3.52303
663 1 10.9307 2.72044 4.46716
655 1 6.71554 4.41269 2.18018
656 1 6.97979 3.65919 3.37529
657 1 8.31061 3.33162 3.77824
658 1 8.51628 2.26164 4.68764
661 1 9.87089 1.89124 4.92457
569 1 10.1336 0.482778 5.26779
570 1 11.4576 0.00167257 5.26469
653 1 5.93193 3.02669 4.00978
654 1 6.09583 1.84078 4.74774
566 1 7.42914 1.44302 4.9721
567 1 7.66118 0.0910944 5.24424
407 1 15.0233 4.97159 0.321855
408 1 16.3759 4.88799 0.775587
672 1 16.6114 4.44764 2.07834
403 1 12.636 5.07901 0.74532
405 1 13.9215 4.91436 1.18446
668 1 14.1604 4.33411 2.42094
670 1 15.5025 4.0901 2.81034
671 1 15.777 3.2432 3.90345
666 1 13.0987 3.91715 3.18689
667 1 13.3329 2.97618 4.17982
669 1 14.6819 2.61406 4.49766
575 1 14.8965 1.34851 5.07534
577 1 16.2423 0.89094 5.20264
665 1 12.2435 2.25589 4.71211
572 1 12.5072 0.930084 5.17168
573 1 13.8325 0.446672 5.24071
411 1 18.7658 4.90597 0.305247
412 1 19.0172 4.6272 1.66653
675 1 17.9717 4.24395 2.51403
676 1 18.2299 3.58814 3.72743
677 1 19.56 3.33488 4.10146
678 1 19.87 2.17049 4.87628
673 1 17.1297 2.93411 4.31212
674 1 17.3905 1.76683 4.99602
580 1 18.7532 1.31415 5.15849
581 1 18.9681 -0.0146124 5.36246
423 1 26.2859 5.08811 0.145523
424 1 27.602 5.136 0.696
692 1 27.87 4.766 2.037
419 1 23.7945 4.91639 0.580136
421 1 25.1792 4.88906 1.0365
688 1 25.4361 4.47164 2.36091
690 1 26.8113 4.32844 2.78057
691 1 27.0458 3.48785 3.88847
415 1 21.4024 4.79433 1.17612
417 1 22.7507 4.7724 1.53979
684 1 23.0494 4.18724 2.79898
686 1 24.3784 3.98879 3.14473
687 1 24.6724 3.01692 4.13326
689 1 26.011 2.71258 4.44442
589 1 26.3088 1.43577 4.96797
591 1 27.602 0.925 5.1
679 1 20.344 4.48956 2.09715
680 1 20.647 3.92987 3.35268
682 1 21.9862 3.66718 3.59553
683 1 22.2951 2.59091 4.44506
685 1 23.5994 2.20519 4.65092
586 1 23.8847 0.937284 5.07701
587 1 25.2298 0.560509 5.09942
681 1 21.2113 1.78866 4.96583
583 1 21.4769 0.445941 5.33233
584 1 22.8435 0.0188827 5.2533
ITEM: TIMESTEP
1400
ITEM: NUMBER OF ATOMS
692
ITEM: BOX BOUNDS ff ff ff
-6.0000000000000000e+01 6.0000000000000000e+01
-4.0000000000000000e+01 4.0000000000000000e+01
-4.0000000000000000e+01 4.0000000000000000e+01
ITEM: ATOMS id type x y z
275 1 -20.5818 -5.20932 -0.098595
276 1 -20.3187 -4.91189 -1.47978
271 1 -24.294 -5.36113 -0.178564
272 1 -22.917 -5.26936 -0.635828
8 1 -22.6343 -4.91547 -2.02487
11 1 -21.3316 -4.62792 -2.38638
12 1 -21.13 -3.75941 -3.47574
267 1 -26.7878 -5.24513 -0.709746
269 1 -25.4064 -5.41409 -1.03472
6 1 -23.6269 -4.58578 -2.92112
7 1 -23.5193 -3.40649 -3.76723
9 1 -22.1957 -2.9971 -4.03059
10 1 -21.9386 -1.72594 -4.69807
108 1 -20.6379 -1.27169 -4.90644
265 1 -27.87 -4.93 -1.602
1 1 -27.602 -4.326 -2.855
3 1 -26.3576 -4.20694 -3.49073
4 1 -25.9705 -3.07799 -4.24343
5 1 -24.6126 -2.70596 -4.37896
103 1 -24.4089 -1.39689 -4.88417
105 1 -23.0796 -0.892693 -4.98343
2 1 -26.9943 -2.26128 -4.635
100 1 -26.7741 -0.890524 -4.96045
101 1 -25.4234 -0.449042 -4.96501
279 1 -17.9553 -4.8234 -0.975551
15 1 -19.0226 -4.60427 -1.86171
16 1 -18.7658 -3.95625 -3.08103
18 1 -17.4276 -3.56708 -3.40995
19 1 -17.1931 -2.54955 -4.3455
13 1 -19.8341 -3.28755 -3.76207
14 1 -19.5968 -2.10037 -4.53432
17 1 -18.2694 -1.69125 -4.72399
111 1 -17.9839 -0.362007 -5.07954
287 1 -13.1263 -4.92975 0.0321976
283 1 -15.546 -4.8931 -0.476486
285 1 -14.2393 -4.7273 -0.915929
24 1 -13.9904 -4.28775 -2.21116
26 1 -12.6762 -4.05835 -2.59006
27 1 -12.4577 -3.19284 -3.67032
281 1 -16.6293 -4.67797 -1.37692
20 1 -16.3957 -4.06087 -2.62597
22 1 -15.1096 -3.86326 -2.9973
23 1 -14.8146 -2.8775 -3.96422
25 1 -13.5088 -2.46591 -4.26128
117 1 -13.2748 -1.2125 -4.87771
21 1 -15.899 -2.15103 -4.50453
114 1 -15.6138 -0.857481 -4.97515
115 1 -14.3236 -0.332827 -5.06698
295 1 -6.78903 -4.7124 -0.979894
291 1 -9.40005 -4.84335 0.0172877
292 1 -9.18556 -4.68837 -1.39119
35 1 -7.86987 -4.45782 -1.83411
36 1 -7.56921 -3.88124 -3.11341
38 1 -6.23727 -3.48216 -3.40516
39 1 -6.00966 -2.42321 -4.30622
288 1 -11.7944 -4.77819 -0.407229
28 1 -11.6135 -4.43449 -1.7617
31 1 -10.299 -4.29542 -2.19194
32 1 -9.96635 -3.53847 -3.3444
33 1 -8.65868 -3.2007 -3.73158
34 1 -8.43512 -2.06228 -4.48791
37 1 -7.09186 -1.62587 -4.71733
125 1 -6.84529 -0.331072 -5.23965
29 1 -11.0632 -2.88959 -3.96083
30 1 -10.8497 -1.70521 -4.74517
122 1 -9.52443 -1.26512 -4.90279
119 1 -11.9325 -0.840961 -5.03447
299 1 -4.30245 -4.82525 -0.573551
297 1 -5.41103 -4.59429 -1.4107
40 1 -5.17936 -4.00393 -2.65955
41 1 -4.68435 -2.02905 -4.59045
128 1 -4.42141 -0.708098 -5.10776
307 1 1.81453 -4.82947 -0.13646
308 1 2.06843 -4.49448 -1.48245
55 1 3.39951 -4.28616 -1.91748
56 1 3.68663 -3.71553 -3.18304
303 1 -1.87911 -5.02697 -0.210059
304 1 -0.570879 -4.95857 -0.646739
48 1 -0.281286 -4.41988 -1.93066
51 1 1.04774 -4.179 -2.36811
52 1 1.27357 -3.29148 -3.43408
53 1 2.6184 -3.04752 -3.80512
54 1 2.91383 -1.94511 -4.64753
301 1 -2.9762 -4.78345 -1.0828
44 1 -2.70265 -4.17491 -2.33965
46 1 -1.37101 -3.89718 -2.68391
47 1 -1.20119 -2.98871 -3.71424
49 1 0.161318 -2.58989 -3.98637
50 1 0.452513 -1.51256 -4.84527
136 1 1.82465 -1.1299 -5.10929
42 1 -3.8127 -3.75744 -3.09137
43 1 -3.58492 -2.74308 -4.07268
45 1 -2.26152 -2.28507 -4.28649
131 1 -1.99681 -1.03802 -4.95523
133 1 -0.618478 -0.640402 -5.12446
129 1 -3.08767 -0.213535 -5.28347
311 1 4.51815 -4.70072 -1.10363
58 1 5.07121 -3.42372 -3.55257
59 1 5.33171 -2.32866 -4.45272
57 1 4.25676 -1.48939 -4.86061
139 1 4.55233 -0.283256 -5.43039
319 1 9.39227 -5.00867 -0.386245
320 1 10.7279 -4.99007 -0.830557
68 1 10.9312 -4.8855 -2.19878
315 1 6.93586 -4.82667 -0.721646
317 1 8.29198 -4.87205 -1.24711
64 1 8.49162 -4.43884 -2.57021
66 1 9.84095 -4.35138 -3.01298
67 1 10.0829 -3.44979 -4.09692
69 1 11.3779 -3.09491 -4.50224
70 1 11.7558 -1.89662 -5.1117
313 1 5.85038 -4.56601 -1.58629
60 1 6.13808 -4.0276 -2.86449
62 1 7.42093 -3.83686 -3.29955
63 1 7.68639 -2.94092 -4.33146
65 1 9.04428 -2.67241 -4.61079
145 1 9.34898 -1.40491 -5.1422
147 1 10.6973 -0.980687 -5.27319
61 1 6.64699 -2.08586 -4.79118
142 1 6.96279 -0.846271 -5.2891
143 1 8.29438 -0.488945 -5.26295
157 1 19.5202 -0.455941 -5.45565
156 1 18.2703 -1.00853 -5.27997
80 1 18.0005 -2.35839 -4.88852
327 1 15.8544 -4.86 -1.21358
323 1 13.2207 -5.00939 -0.345493
324 1 13.408 -4.94949 -1.72924
74 1 14.7374 -4.70688 -2.11212
75 1 15.0091 -4.13772 -3.41237
77 1 16.3252 -3.73818 -3.7421
78 1 16.6581 -2.73446 -4.6615
71 1 12.2925 -4.93784 -2.58051
72 1 13.985 -3.49668 -4.18715
73 1 14.2184 -2.30392 -4.85243
76 1 15.5927 -1.86022 -4.97949
153 1 15.8983 -0.523587 -5.25978
150 1 13.1292 -1.47428 -5.13223
331 1 18.295 -4.88022 -0.706507
333 1 19.6078 -4.8417 -1.1332
83 1 19.8625 -4.40149 -2.45969
329 1 17.1996 -4.70919 -1.62253
79 1 17.4606 -4.19866 -2.91123
81 1 18.8066 -4.01971 -3.30046
82 1 19.0479 -3.19362 -4.4389
160 1 22.2832 -0.594725 -6.55885
343 1 27.015 -4.9276 -1.05492
339 1 24.3986 -5.02782 -0.203412
340 1 24.651 -4.77294 -1.52317
93 1 25.9805 -4.66104 -1.97317
94 1 26.2834 -3.99479 -3.20721
96 1 27.602 -3.746 -3.582
97 1 27.87 -2.658 -4.45
335 1 20.6922 -4.98414 -0.22406
336 1 22.0451 -4.95477 -0.65062
87 1 22.283 -4.6252 -2.01387
89 1 23.6262 -4.50321 -2.45839
90 1 23.8801 -3.80417 -3.65799
91 1 25.2317 -3.41885 -3.96511
92 1 25.5171 -2.31168 -4.855
95 1 26.8475 -1.84439 -5.00452
166 1 27.1211 -0.50249 -5.34237
85 1 21.2202 -4.24787 -2.85478
86 1 21.4545 -3.59953 -4.10229
88 1 22.805 -3.40075 -4.47336
84 1 20.3855 -2.98172 -4.80739
163 1 24.5585 -1.3807 -5.24953
107 1 -21.4604 0.978287 -4.99534
178 1 -21.2035 2.33559 -4.651
104 1 -23.8411 1.42023 -4.88183
174 1 -23.6106 2.6582 -4.34255
176 1 -22.3016 3.13579 -4.22183
177 1 -22.0306 4.16245 -3.36118
179 1 -20.7018 4.50135 -2.98188
356 1 -20.4342 5.03016 -1.66861
98 1 -27.87 0 -5.183
99 1 -27.602 1.379 -4.996
169 1 -26.3268 1.88732 -4.83474
170 1 -26.0117 3.10843 -4.21156
172 1 -24.7014 3.42324 -3.89451
173 1 -24.4338 4.37037 -2.93265
175 1 -23.101 4.64367 -2.58478
352 1 -22.8357 5.06553 -1.2776
354 1 -21.5011 5.20221 -0.739264
167 1 -27.1027 3.84669 -3.65964
168 1 -26.809 4.58174 -2.48466
171 1 -25.4857 4.76018 -2.07529
349 1 -25.2105 5.09883 -0.753847
350 1 -23.85 5.11518 -0.329705
345 1 -27.87 4.93 -1.602
346 1 -27.602 5.178 -0.233
109 1 -20.4072 0.0704184 -5.14685
106 1 -22.8107 0.503456 -5.00915
102 1 -25.1982 0.960621 -4.97981
110 1 -19.0782 0.565252 -5.11834
182 1 -18.822 1.94475 -4.80765
185 1 -17.5055 2.35123 -4.61321
186 1 -17.2391 3.59073 -4.01511
180 1 -19.8748 2.80547 -4.43308
181 1 -19.6147 3.98229 -3.70253
183 1 -18.31 4.25231 -3.37788
184 1 -18.0266 4.93154 -2.11893
358 1 -19.0731 5.13102 -1.18769
118 1 -12.7095 1.44651 -4.9628
194 1 -12.4521 2.71147 -4.4629
112 1 -16.6619 0.080937 -5.13538
113 1 -16.4445 1.44269 -4.96384
189 1 -15.1236 1.97319 -4.96672
190 1 -14.8432 3.2043 -4.3151
192 1 -13.4954 3.51456 -3.96729
193 1 -13.2374 4.41904 -2.9436
187 1 -15.9081 3.95187 -3.76648
188 1 -15.6286 4.72183 -2.63615
191 1 -14.3005 4.92422 -2.17306
365 1 -14.0141 5.23951 -0.880809
366 1 -12.6507 5.18255 -0.386799
361 1 -16.6716 5.0885 -1.75964
362 1 -16.4268 5.19583 -0.423726
116 1 -14.0635 1.04448 -5.09897
124 1 -7.91302 0.550129 -5.27095
202 1 -7.637 1.95355 -5.07607
205 1 -6.33438 2.50871 -5.10947
206 1 -6.09776 3.6921 -4.29032
121 1 -10.3236 1.02531 -5.19956
198 1 -10.0597 2.32905 -4.82857
200 1 -8.69657 2.71645 -4.61455
201 1 -8.4352 3.81219 -3.78143
203 1 -7.12929 4.11336 -3.45318
204 1 -6.81413 4.74946 -2.26663
196 1 -11.1117 3.13048 -4.3839
197 1 -10.8164 4.10868 -3.42651
199 1 -9.50558 4.3945 -3.08454
372 1 -9.21864 4.95248 -1.81648
374 1 -7.86091 4.96303 -1.39457
195 1 -11.8644 4.64478 -2.63956
368 1 -11.5797 5.07593 -1.32816
370 1 -10.2631 5.14051 -0.885765
123 1 -9.26756 0.0660685 -5.1702
120 1 -11.6506 0.522145 -5.16368
126 1 -5.52262 0.197988 -5.35381
127 1 -5.28228 1.59638 -5.42606
207 1 -4.81939 4.16971 -3.9736
208 1 -4.4091 4.7134 -2.75928
377 1 -5.47959 4.868 -1.83585
378 1 -5.1668 4.96975 -0.469394
138 1 3.48381 0.620736 -5.54841
220 1 3.84407 1.93824 -5.41144
135 1 0.935806 1.17261 -5.6254
217 1 1.13522 2.56756 -5.48208
219 1 2.97191 4.12911 -4.00191
132 1 -1.4769 1.65218 -5.50222
213 1 -1.14716 3.00718 -5.0691
215 1 0.180958 3.33131 -4.79565
216 1 0.514858 4.12672 -3.62308
218 1 1.87936 4.31262 -3.1488
388 1 2.12264 4.65968 -1.78984
390 1 3.46049 4.68008 -1.29656
209 1 -3.94464 2.03638 -5.51654
211 1 -2.14185 3.77636 -4.43278
212 1 -1.91362 4.52619 -3.28123
214 1 -0.548982 4.54842 -2.80453
384 1 -0.258348 4.86183 -1.40864
386 1 1.03566 4.88297 -0.921714
210 1 -3.02904 4.80922 -2.42119
381 1 -2.73612 4.99118 -1.0142
382 1 -1.37082 4.904 -0.548982
137 1 2.07782 0.238433 -5.50982
134 1 -0.391887 0.706407 -5.50299
130 1 -2.83013 1.1263 -5.50893
223 1 5.13386 2.39889 -5.15047
224 1 5.37614 3.56294 -4.27652
221 1 4.31112 4.1658 -3.51025
222 1 4.5726 4.5532 -2.17756
146 1 9.94111 1.30411 -5.22273
232 1 10.2162 2.59516 -4.74946
234 1 11.5673 2.87875 -4.421
235 1 11.8449 3.78492 -3.36046
140 1 5.91136 0.138534 -5.53161
141 1 6.1908 1.5042 -5.39768
227 1 7.52924 1.878 -5.11287
228 1 7.76665 3.09771 -4.43205
230 1 9.12844 3.40819 -4.17582
231 1 9.42029 4.22619 -3.05303
233 1 10.7609 4.29614 -2.59053
400 1 11.0507 4.7488 -1.25802
225 1 6.68552 3.85663 -3.85341
226 1 6.97982 4.57031 -2.65514
229 1 8.30977 4.63352 -2.20094
397 1 8.553 4.79268 -0.808388
398 1 9.96235 4.8317 -0.369146
393 1 5.89565 4.72766 -1.72294
394 1 6.13055 4.88844 -0.326304
148 1 11.0077 0.381141 -5.40077
144 1 8.60355 0.926415 -5.22568
158 1 19.8713 0.834898 -5.17273
152 1 14.8135 0.404922 -5.23372
240 1 15.1389 1.76392 -5.00447
243 1 16.4561 2.18449 -4.79674
244 1 16.7538 3.23061 -3.93934
149 1 12.3913 0.805948 -5.38092
236 1 12.6385 2.12911 -4.88149
238 1 14.0338 2.5398 -4.62038
239 1 14.341 3.53098 -3.6666
241 1 15.6595 3.88214 -3.32127
242 1 15.8769 4.53116 -2.06495
237 1 13.1951 4.00812 -2.90955
404 1 13.4624 4.64214 -1.69515
406 1 14.7987 4.79544 -1.18127
402 1 12.4028 4.79288 -0.777267
151 1 13.451 -0.0981007 -5.26968
154 1 17.2093 -0.090102 -5.32489
155 1 17.4846 1.29315 -5.12432
247 1 18.824 1.71072 -4.83646
248 1 19.1222 2.84258 -4.11692
245 1 18.071 3.52055 -3.53691
246 1 18.2932 4.30933 -2.39927
249 1 19.6424 4.44136 -1.94211
413 1 19.8705 4.94181 -0.652826
409 1 17.2113 4.70487 -1.57349
410 1 17.4708 4.97039 -0.204827
161 1 22.4199 0.485252 -5.65491
165 1 26.0739 0.438346 -5.33617
260 1 26.3145 1.76281 -4.86683
263 1 27.602 2.249 -4.67
264 1 27.87 3.41 -3.903
162 1 23.7128 0.876478 -5.32596
256 1 23.9551 2.04089 -4.55032
258 1 25.2511 2.4903 -4.33882
259 1 25.5144 3.4343 -3.40125
261 1 26.811 3.89094 -3.15758
262 1 27.0445 4.70132 -2.01583
159 1 21.2918 1.20126 -5.16043
252 1 21.486 2.36328 -4.39921
254 1 22.8159 2.72123 -4.01886
255 1 23.0675 3.6472 -3.00578
257 1 24.4379 3.90891 -2.65454
420 1 24.673 4.54681 -1.44395
422 1 25.9731 4.88422 -1.06581
250 1 20.4407 3.12108 -3.82298
251 1 20.6875 3.97168 -2.73594
253 1 22.0019 4.10784 -2.26236
416 1 22.2659 4.63997 -0.964747
418 1 23.5898 4.81029 -0.54671
414 1 21.1836 4.91203 -0.141173
164 1 24.7398 0.000818084 -5.43076
529 1 -21.9881 -1.51189 5.20281
438 1 -20.638 -1.93757 5.07664
439 1 -20.3692 -3.10231 4.34349
526 1 -24.668 -0.549828 5.20788
431 1 -24.3685 -1.91129 4.97626
434 1 -23.0807 -2.34362 4.8232
435 1 -22.7657 -3.47039 4.04211
436 1 -21.4129 -3.79749 3.72439
437 1 -21.1754 -4.54448 2.56359
523 1 -27.0364 -0.944871 4.9
427 1 -26.7666 -2.30714 4.64782
429 1 -25.4594 -2.72902 4.55584
430 1 -25.1944 -3.79587 3.64957
432 1 -23.8474 -4.0993 3.30597
433 1 -23.5616 -4.79999 2.09136
273 1 -22.2094 -4.89928 1.66422
274 1 -21.9109 -5.17561 0.328985
425 1 -27.87 -3.047 4.193
426 1 -27.602 -4.052 3.232
428 1 -26.2402 -4.32437 2.84409
268 1 -25.9515 -4.91892 1.53585
270 1 -24.6061 -5.05078 1.18432
266 1 -27.0078 -5.17523 0.666503
536 1 -17.1418 -0.535712 5.33024
532 1 -19.541 -1.05331 5.3443
534 1 -18.2118 -1.46998 5.27513
443 1 -17.9873 -2.76632 4.70915
441 1 -19.0502 -3.4364 4.02373
442 1 -18.7848 -4.37297 3.05294
444 1 -17.4457 -4.57596 2.69403
280 1 -17.1509 -4.97008 1.34912
440 1 -19.8305 -4.77662 2.21063
277 1 -19.5627 -5.08883 0.87555
278 1 -18.2427 -5.05405 0.416805
540 1 -13.3714 -0.513563 5.36662
450 1 -12.9913 -1.89908 5.39985
537 1 -15.8109 -0.994773 5.28604
447 1 -15.6541 -2.32087 4.90624
449 1 -13.9222 -4.18908 3.98099
451 1 -12.5637 -4.21061 3.6121
452 1 -12.3244 -4.79783 2.35186
445 1 -16.6598 -3.16497 4.52527
446 1 -16.401 -4.12375 3.52813
448 1 -15.0433 -4.4506 3.15611
284 1 -14.7381 -4.91535 1.8322
286 1 -13.3772 -5.01385 1.42461
282 1 -15.8089 -4.98345 0.920097
550 1 -5.85532 -0.340413 5.17294
546 1 -8.22715 -0.852416 5.08726
548 1 -6.87065 -1.27305 4.99893
462 1 -6.60245 -2.61379 4.54662
543 1 -10.6295 -1.47285 5.16766
457 1 -9.26479 -1.81787 5.03961
458 1 -9.03595 -3.05986 4.47804
460 1 -7.71519 -3.35153 4.11391
461 1 -7.50675 -4.21719 3.0286
463 1 -6.19336 -4.52014 2.59963
296 1 -5.91348 -4.87122 1.27576
453 1 -11.7022 -2.35213 5.07235
454 1 -11.4744 -3.50452 4.31623
455 1 -10.1803 -3.71435 3.84979
456 1 -9.91952 -4.51427 2.73934
459 1 -8.56813 -4.67019 2.27634
293 1 -8.30502 -4.93012 0.916444
294 1 -6.99713 -4.95452 0.410332
289 1 -10.9913 -4.87246 1.91494
290 1 -10.7063 -4.87039 0.503142
551 1 -4.53263 -0.819974 5.16729
466 1 -4.2614 -2.15441 4.66717
464 1 -5.28027 -2.98702 4.21486
465 1 -5.05528 -4.06679 3.32803
298 1 -4.57865 -5.02156 0.824256
560 1 3.01443 -0.93601 5.24364
557 1 0.609822 -1.3686 5.18485
477 1 1.92655 -1.80813 4.98604
478 1 2.18401 -3.02103 4.29031
480 1 3.54342 -3.42369 4.056
481 1 3.80123 -4.21379 2.93014
554 1 -2.1798 -0.398657 5.16597
470 1 -1.88944 -1.77693 4.91684
473 1 -0.511767 -2.19895 4.79011
474 1 -0.276648 -3.36929 4.01499
475 1 1.07251 -3.71836 3.70061
476 1 1.3521 -4.51767 2.58052
479 1 2.71399 -4.67202 2.10121
309 1 2.95303 -4.86788 0.732944
468 1 -2.94901 -2.59407 4.42128
469 1 -2.68088 -3.72841 3.62704
471 1 -1.32604 -3.9859 3.32953
472 1 -1.10357 -4.76289 2.14759
305 1 0.268487 -4.86061 1.71997
306 1 0.490466 -4.99725 0.308576
467 1 -3.73441 -4.36221 2.92403
300 1 -3.49129 -4.98233 1.70295
302 1 -2.14264 -4.9937 1.19212
564 1 5.38498 -0.532837 5.35783
562 1 4.32572 -1.42664 5.21334
482 1 4.63625 -2.71528 4.61636
483 1 5.14806 -4.37542 2.49184
312 1 5.37579 -4.774 1.14911
310 1 4.27287 -4.86888 0.264551
571 1 11.7896 -1.28511 5.13521
568 1 9.16255 -0.370474 5.28971
490 1 9.46891 -1.75311 4.90153
493 1 10.77 -2.1778 4.67621
494 1 11.0083 -3.30745 3.84968
565 1 6.72767 -0.965353 5.21418
486 1 7.06654 -2.24604 4.74543
488 1 8.40292 -2.60946 4.45882
489 1 8.63833 -3.62998 3.54442
491 1 9.92128 -3.96093 3.19923
492 1 10.1872 -4.57714 1.95083
321 1 11.5645 -4.69389 1.46833
322 1 11.8562 -4.98904 0.0986842
484 1 6.02026 -3.07898 4.28284
485 1 6.25917 -3.93254 3.19665
487 1 7.55803 -4.12665 2.77538
316 1 7.83125 -4.62976 1.4576
318 1 9.17083 -4.77467 1.01145
314 1 6.723 -4.75914 0.64011
578 1 16.6032 -0.505025 5.27386
574 1 14.1598 -0.884631 5.15354
576 1 15.512 -1.38721 5.092
502 1 15.7719 -2.5807 4.46158
497 1 13.1094 -1.70963 4.88326
498 1 13.331 -2.90874 4.18918
500 1 14.6566 -3.27011 3.95264
501 1 14.9861 -4.05927 2.78842
503 1 16.3285 -4.2866 2.37878
328 1 16.6552 -4.65299 1.09344
495 1 12.2921 -3.56552 3.43611
496 1 12.623 -4.32879 2.31135
499 1 13.9486 -4.47444 1.88572
325 1 14.2592 -4.87592 0.583559
326 1 15.6068 -4.85934 0.179646
579 1 17.9154 -1.01473 5.32101
506 1 18.1835 -2.3484 4.85555
508 1 19.4874 -2.86852 4.70941
509 1 19.8338 -3.68347 3.64334
504 1 17.0957 -2.96135 4.19696
505 1 17.4171 -3.95479 3.24559
507 1 18.7751 -4.15962 2.84518
332 1 19.0568 -4.73141 1.60239
330 1 17.9896 -4.83288 0.695575
592 1 27.87 -0.465 5.162
588 1 25.5238 -0.936891 5.15303
590 1 26.8121 -1.37882 4.99703
521 1 27.1579 -2.66429 4.41512
585 1 23.2025 -1.4404 5.23982
516 1 24.5089 -1.866 4.98519
517 1 24.7611 -3.09827 4.31111
519 1 26.07 -3.4254 3.89417
520 1 26.2739 -4.36367 2.90212
522 1 27.602 -4.564 2.456
344 1 27.87 -5.053 1.153
582 1 20.3418 -0.442576 5.57758
512 1 22.2044 -2.3712 4.96755
513 1 22.3227 -3.44705 4.0509
514 1 23.6723 -3.7781 3.72336
515 1 23.8492 -4.49967 2.53773
518 1 25.1905 -4.69508 2.05973
341 1 25.4505 -4.95381 0.707136
342 1 26.7677 -5.05187 0.308613
510 1 21.195 -3.93872 3.27018
511 1 21.463 -4.63542 2.05742
337 1 22.821 -4.84138 1.66716
338 1 23.0888 -5.00466 0.282461
334 1 20.3968 -4.92211 1.1472
355 1 -21.1971 5.0362 0.630221
351 1 -23.5913 4.85136 1.06555
353 1 -22.2665 4.75192 1.49065
604 1 -21.9575 4.15811 2.73246
606 1 -20.6488 3.76929 3.08687
607 1 -20.3977 2.77142 4.01674
347 1 -26.2511 5.13059 0.181773
348 1 -25.9811 4.81338 1.53343
599 1 -24.6356 4.5941 1.93748
600 1 -24.3664 3.91585 3.16841
602 1 -23.0451 3.65441 3.49508
603 1 -22.7913 2.49551 4.30354
605 1 -21.4515 2.04855 4.56955
530 1 -21.1959 0.775196 5.16626
595 1 -26.9772 4.43739 2.45616
596 1 -26.7917 3.57381 3.5304
597 1 -25.4567 3.27949 3.85765
598 1 -25.17 2.15899 4.66828
601 1 -23.8539 1.75257 4.81031
527 1 -23.6154 0.373431 5.2547
528 1 -22.3063 -0.111493 5.31366
593 1 -27.87 3.047 4.193
594 1 -27.602 1.821 4.853
524 1 -26.2764 1.31761 4.98653
525 1 -25.9904 -0.0651609 5.10733
359 1 -18.7732 5.18083 0.157449
360 1 -17.4525 5.11927 0.485859
612 1 -17.1604 4.63329 1.78945
357 1 -19.7824 4.96021 1.06741
608 1 -19.58 4.30542 2.27799
610 1 -18.2054 4.05051 2.57074
611 1 -17.9833 3.07457 3.57983
609 1 -19.0709 2.41265 4.23115
533 1 -18.7567 1.18072 4.90187
535 1 -17.4079 0.784694 5.00247
531 1 -19.8313 0.315615 5.24448
367 1 -12.3535 4.96756 0.982949
363 1 -15.0912 5.18278 0.0301517
364 1 -14.7824 4.79438 1.35668
619 1 -13.4334 4.65089 1.80089
620 1 -13.1765 3.79998 2.94752
615 1 -15.8424 4.36501 2.14896
616 1 -15.5777 3.42136 3.20588
617 1 -14.2597 3.10891 3.57085
618 1 -13.9926 2.01405 4.40306
621 1 -12.5953 1.67663 4.6648
541 1 -12.2901 0.365354 5.16577
613 1 -16.6219 2.68996 3.79018
614 1 -16.3555 1.60587 4.64619
538 1 -15.023 1.18456 4.84792
539 1 -14.7343 -0.118496 5.28966
375 1 -7.54329 5.04375 -0.00918712
376 1 -6.18488 5.00093 0.455055
632 1 -5.89963 4.64434 1.798
371 1 -9.96909 4.9876 0.477928
373 1 -8.63133 4.88838 0.892084
628 1 -8.25734 4.36595 2.16677
630 1 -6.95614 4.17274 2.61995
631 1 -6.64254 3.37132 3.7456
369 1 -11.0056 4.77225 1.38475
624 1 -10.718 4.15273 2.59628
626 1 -9.33306 3.88678 2.96481
627 1 -9.07499 2.90968 3.94104
629 1 -7.72835 2.60951 4.24443
547 1 -7.48885 1.42643 4.85924
549 1 -6.15463 1.03399 5.02348
622 1 -11.7993 3.5456 3.32306
623 1 -11.5347 2.49423 4.22126
625 1 -10.158 2.14809 4.3985
544 1 -9.8942 0.889677 4.9718
545 1 -8.55502 0.497771 5.07316
542 1 -10.942 -0.106151 5.13711
635 1 -4.53218 4.43518 2.20323
636 1 -4.23234 3.69368 3.38361
633 1 -5.30591 3.04682 4.0189
634 1 -5.05674 1.92178 4.799
391 1 3.69356 4.82249 0.060271
387 1 1.28837 4.89463 0.444391
389 1 2.60637 4.78083 0.94379
648 1 2.89994 4.31152 2.20814
383 1 -1.08631 4.69313 0.828057
385 1 0.238942 4.57084 1.29622
644 1 0.521453 4.13258 2.59634
646 1 1.86911 3.92318 3.04081
647 1 2.17016 2.95052 4.07073
649 1 3.52602 2.55412 4.26989
561 1 3.79286 1.31609 4.94235
379 1 -3.79103 4.94245 -0.0938034
380 1 -3.47653 4.72764 1.29664
639 1 -2.11897 4.47488 1.75307
640 1 -1.86349 3.86036 3.00151
642 1 -0.528377 3.57473 3.37307
643 1 -0.218091 2.62863 4.41316
645 1 1.11623 2.17539 4.61147
558 1 1.39788 0.911467 5.13662
559 1 2.7431 0.468187 5.22365
637 1 -2.91566 3.34075 3.73403
638 1 -2.63858 2.2614 4.59485
641 1 -1.32176 1.85713 4.81181
555 1 -1.07934 0.508088 5.16334
556 1 0.297437 0.039632 5.27054
552 1 -3.73196 1.4849 4.97152
553 1 -3.52873 0.0874901 5.25905
392 1 5.05798 4.83784 0.533682
652 1 5.33412 4.56852 1.86148
650 1 4.25907 4.09319 2.66686
651 1 4.54818 3.2564 3.73275
563 1 5.10775 0.847855 5.1477
399 1 10.1706 4.81204 1.01335
401 1 11.5102 4.76704 1.49053
664 1 11.768 4.29086 2.78877
395 1 7.45275 4.85626 0.122233
396 1 7.76013 4.64839 1.45871
659 1 9.09779 4.61862 1.92388
660 1 9.29029 3.99628 3.1814
662 1 10.6693 3.78268 3.51225
663 1 10.9315 2.67064 4.38492
655 1 6.66899 4.3413 2.26784
656 1 6.9327 3.61875 3.44658
657 1 8.2489 3.37055 3.90706
658 1 8.55102 2.27251 4.75696
661 1 9.89912 1.87567 4.90471
569 1 10.2058 0.564303 5.31773
570 1 11.5504 0.084566 5.33419
653 1 5.85322 2.88062 4.06966
654 1 6.16617 1.72499 4.85033
566 1 7.51588 1.37542 5.12328
567 1 7.80208 0.00721583 5.36511
407 1 15.027 4.93101 0.190297
408 1 16.3276 4.93519 0.70097
672 1 16.6631 4.59152 2.05106
403 1 12.5857 4.87056 0.630127
405 1 13.9482 4.86365 1.1071
668 1 14.2086 4.40063 2.41854
670 1 15.5628 4.16973 2.86361
671 1 15.8135 3.28903 3.93157
666 1 13.1117 3.95735 3.20555
667 1 13.3606 2.99901 4.19768
669 1 14.7206 2.59743 4.4342
575 1 15.0038 1.33041 4.9487
577 1 16.347 0.89607 5.16698
665 1 12.3071 2.28494 4.70122
572 1 12.5743 0.993825 5.2108
573 1 13.9229 0.500462 5.14194
411 1 18.7961 5.0286 0.231542
412 1 19.0643 4.81272 1.62969
675 1 18.001 4.46898 2.47448
676 1 18.2563 3.60502 3.5802
677 1 19.5852 3.24821 3.90951
678 1 19.8354 2.11094 4.73743
673 1 17.1742 2.98888 4.29081
674 1 17.4328 1.77813 4.97964
580 1 18.7433 1.28163 5.14282
581 1 18.9773 -0.0934804 5.45872
423 1 26.2184 5.12908 0.312627
424 1 27.602 5.136 0.696
692 1 27.87 4.766 2.037
419 1 23.8669 5.02133 0.800666
421 1 25.1723 5.07652 1.2976
688 1 25.4234 4.4451 2.55178
690 1 26.7571 4.25212 2.87051
691 1 27.0118 3.46133 3.98286
415 1 21.4352 4.95628 1.22971
417 1 22.7512 4.84691 1.6804
684 1 23.0209 4.21654 2.9558
686 1 24.3684 3.91701 3.26304
687 1 24.6811 2.94791 4.20075
689 1 26.0164 2.65988 4.5065
589 1 26.2778 1.36493 5.0156
591 1 27.602 0.925 5.1
679 1 20.3885 4.66472 2.08554
680 1 20.6549 3.96507 3.2788
682 1 21.9845 3.62669 3.65725
683 1 22.2547 2.47053 4.38939
685 1 23.6165 2.10351 4.69192
586 1 23.8963 0.863875 5.23901
587 1 25.2307 0.395127 5.25011
681 1 21.1761 1.71205 4.91141
583 1 21.4529 0.422339 5.36505
584 1 22.8375 -0.0607104 5.39353
ITEM: TIMESTEP
1500
ITEM: NUMBER OF ATOMS
692
ITEM: BOX BOUNDS ff ff ff
-6.0000000000000000e+01 6.0000000000000000e+01
-4.0000000000000000e+01 4.0000000000000000e+01
-4.0000000000000000e+01 4.0000000000000000e+01
ITEM: ATOMS id type x y z
275 1 -20.645 -4.95087 -0.0765033
276 1 -20.3377 -4.58008 -1.45459
271 1 -24.3722 -5.10319 -0.160924
272 1 -23.0226 -5.05539 -0.635442
8 1 -22.7215 -4.60997 -1.9454
11 1 -21.43 -4.35434 -2.32491
12 1 -21.1487 -3.57207 -3.41197
267 1 -26.8077 -5.1801 -0.726035
269 1 -25.4308 -5.23466 -1.06221
6 1 -23.7292 -4.18338 -2.82612
7 1 -23.5014 -3.36259 -3.89351
9 1 -22.2078 -2.97116 -4.10224
10 1 -21.9314 -1.81486 -4.87559
108 1 -20.5934 -1.37209 -5.06639
265 1 -27.87 -4.93 -1.602
1 1 -27.602 -4.326 -2.855
3 1 -26.3837 -4.18217 -3.38871
4 1 -25.9761 -3.00846 -4.11327
5 1 -24.5926 -2.63469 -4.41249
103 1 -24.38 -1.39556 -4.94515
105 1 -23.0293 -0.941016 -5.12063
2 1 -27.0187 -2.23177 -4.65559
100 1 -26.7966 -0.936113 -5.11655
101 1 -25.4569 -0.490324 -5.14705
279 1 -17.9537 -4.67516 -1.04644
15 1 -19.0133 -4.40316 -1.85889
16 1 -18.7276 -3.79327 -3.08995
18 1 -17.4218 -3.60215 -3.57638
19 1 -17.0833 -2.58656 -4.47309
13 1 -19.8144 -3.31472 -3.8099
14 1 -19.5262 -2.22754 -4.70473
17 1 -18.1863 -1.8162 -4.89332
111 1 -17.9734 -0.487214 -5.24572
287 1 -13.1325 -4.77242 -0.219463
283 1 -15.5478 -4.65222 -0.620056
285 1 -14.2163 -4.67819 -1.10322
24 1 -13.9354 -4.26773 -2.39847
26 1 -12.5788 -4.07637 -2.74567
27 1 -12.2946 -3.26204 -3.82118
281 1 -16.6309 -4.50308 -1.51555
20 1 -16.3417 -4.13638 -2.86772
22 1 -14.9864 -3.88517 -3.23617
23 1 -14.6643 -2.95859 -4.18187
25 1 -13.3449 -2.59381 -4.46585
117 1 -13.1291 -1.34866 -5.1101
21 1 -15.7609 -2.20282 -4.6795
114 1 -15.5359 -0.903207 -5.20955
115 1 -14.2135 -0.442095 -5.37725
295 1 -6.72646 -4.74418 -1.10716
291 1 -9.40812 -4.94691 -0.185657
292 1 -9.11959 -4.61238 -1.52578
35 1 -7.77678 -4.50778 -1.9872
36 1 -7.50221 -3.80799 -3.1585
38 1 -6.13915 -3.51885 -3.48877
39 1 -5.83375 -2.39843 -4.31744
288 1 -11.7823 -4.84656 -0.617593
28 1 -11.5351 -4.47004 -1.93073
31 1 -10.2412 -4.33827 -2.38843
32 1 -9.91186 -3.55429 -3.49878
33 1 -8.58669 -3.08878 -3.71431
34 1 -8.29852 -1.99094 -4.5098
37 1 -6.92946 -1.59896 -4.77283
125 1 -6.68083 -0.260417 -5.15874
29 1 -10.9893 -2.89948 -4.09605
30 1 -10.6957 -1.68704 -4.84369
122 1 -9.33243 -1.1894 -4.90659
119 1 -11.7915 -0.85867 -5.2087
299 1 -4.27768 -4.81375 -0.565368
297 1 -5.35875 -4.69484 -1.50593
40 1 -5.10181 -4.12267 -2.76176
41 1 -4.49315 -2.00257 -4.54272
128 1 -4.22046 -0.741268 -5.07109
307 1 1.82083 -4.94494 -0.125905
308 1 2.08624 -4.65487 -1.47169
55 1 3.44225 -4.45788 -1.87806
56 1 3.73808 -3.70367 -3.01352
303 1 -1.88655 -4.86525 -0.0833751
304 1 -0.551486 -4.77199 -0.538941
48 1 -0.286477 -4.3875 -1.85091
51 1 1.05075 -4.20098 -2.25444
52 1 1.34047 -3.4432 -3.43183
53 1 2.66664 -3.05898 -3.71393
54 1 2.95074 -1.95453 -4.55332
301 1 -2.96283 -4.73533 -1.01669
44 1 -2.65791 -4.24938 -2.30163
46 1 -1.32526 -3.99318 -2.70901
47 1 -1.06306 -3.07387 -3.72502
49 1 0.27129 -2.72626 -4.01791
50 1 0.580072 -1.50445 -4.64748
136 1 1.94786 -1.02762 -4.87675
42 1 -3.71998 -3.79204 -3.10378
43 1 -3.43469 -2.72833 -4.0059
45 1 -2.13582 -2.36111 -4.27108
131 1 -1.86353 -1.09509 -4.77327
133 1 -0.512367 -0.638039 -4.89068
129 1 -2.91857 -0.225504 -5.09813
311 1 4.53072 -4.76036 -1.05756
58 1 5.05724 -3.40578 -3.48628
59 1 5.30978 -2.36334 -4.40064
57 1 4.24932 -1.57818 -4.89871
139 1 4.56825 -0.238708 -5.34981
319 1 9.31339 -4.80238 -0.166579
320 1 10.6605 -4.75602 -0.597047
68 1 10.9176 -4.47348 -1.9815
315 1 6.93652 -4.8114 -0.6285
317 1 8.27923 -4.64864 -1.09048
64 1 8.54575 -4.11744 -2.35605
66 1 9.87608 -4.00272 -2.80829
67 1 10.1023 -3.25459 -4.01709
69 1 11.3789 -3.0483 -4.56561
70 1 11.7223 -1.81309 -5.09063
313 1 5.87017 -4.52764 -1.51885
60 1 6.14319 -3.89262 -2.77239
62 1 7.46479 -3.61205 -3.13797
63 1 7.7104 -2.76787 -4.17868
65 1 9.0276 -2.55679 -4.6113
145 1 9.33249 -1.35265 -5.32162
147 1 10.6804 -0.907127 -5.33886
61 1 6.65567 -1.99438 -4.65437
142 1 6.92811 -0.785459 -5.32431
143 1 8.24567 -0.407043 -5.57218
157 1 19.5095 -0.599889 -5.63218
156 1 18.2169 -1.11007 -5.38732
80 1 17.9235 -2.41382 -4.90634
327 1 15.7826 -4.81836 -1.14878
323 1 13.0936 -4.95754 -0.153988
324 1 13.3091 -4.75861 -1.5432
74 1 14.6755 -4.6789 -2.01024
75 1 14.9772 -4.09034 -3.2633
77 1 16.3414 -3.81499 -3.64399
78 1 16.5568 -2.82286 -4.65995
71 1 12.2269 -4.62372 -2.41494
72 1 13.9984 -3.42492 -4.0127
73 1 14.1627 -2.2993 -4.79257
76 1 15.5127 -1.96957 -4.96717
153 1 15.7555 -0.640595 -5.27968
150 1 13.0685 -1.4473 -5.17995
331 1 18.2142 -4.90299 -0.700401
333 1 19.5131 -4.82388 -1.13247
83 1 19.7723 -4.39929 -2.45109
329 1 17.1635 -4.71717 -1.61687
79 1 17.4424 -4.24768 -2.90109
81 1 18.7168 -4.02837 -3.35865
82 1 18.9632 -3.32333 -4.56364
160 1 22.2164 -0.782755 -6.26623
343 1 27.0083 -4.94019 -1.14584
339 1 24.371 -4.86591 -0.213627
340 1 24.6351 -4.73797 -1.57991
93 1 25.9759 -4.70704 -2.02783
94 1 26.2583 -4.08268 -3.28378
96 1 27.602 -3.746 -3.582
97 1 27.87 -2.658 -4.45
335 1 20.6097 -4.93046 -0.238178
336 1 21.9557 -4.88651 -0.652574
87 1 22.2052 -4.5788 -2.03157
89 1 23.5158 -4.47646 -2.46225
90 1 23.8051 -3.83994 -3.7142
91 1 25.1686 -3.52275 -4.0382
92 1 25.4892 -2.38851 -4.83927
95 1 26.8111 -1.93903 -4.94096
166 1 27.1176 -0.562449 -5.17616
85 1 21.1129 -4.23307 -2.85759
86 1 21.3529 -3.67236 -4.08014
88 1 22.661 -3.44531 -4.52085
84 1 20.3014 -3.1482 -4.87893
163 1 24.5396 -1.45382 -5.15562
107 1 -21.4486 0.931228 -5.11287
178 1 -21.1556 2.23637 -4.66767
104 1 -23.8677 1.32929 -4.97195
174 1 -23.5869 2.60948 -4.42282
176 1 -22.2373 2.97989 -4.17584
177 1 -21.9647 3.98672 -3.24823
179 1 -20.5876 4.2532 -2.85895
356 1 -20.3233 4.80731 -1.60338
98 1 -27.87 0 -5.183
99 1 -27.602 1.379 -4.996
169 1 -26.2876 1.81521 -4.82592
170 1 -26.0244 2.9957 -4.10657
172 1 -24.6399 3.34302 -3.88438
173 1 -24.3858 4.24104 -2.83045
175 1 -23.0144 4.51638 -2.50346
352 1 -22.7673 5.06198 -1.22125
354 1 -21.428 5.05367 -0.745748
167 1 -27.0303 3.7643 -3.57129
168 1 -26.7727 4.51979 -2.44253
171 1 -25.4154 4.76149 -2.02614
349 1 -25.1857 5.16975 -0.701493
350 1 -23.8409 5.15856 -0.2505
345 1 -27.87 4.93 -1.602
346 1 -27.602 5.178 -0.233
109 1 -20.3485 0.00855655 -5.24329
106 1 -22.7968 0.451852 -5.19413
102 1 -25.2118 0.897337 -5.00398
110 1 -19.0363 0.45105 -5.16892
182 1 -18.7509 1.79863 -4.92172
185 1 -17.4161 2.23729 -4.85183
186 1 -17.1316 3.2997 -3.98495
180 1 -19.8064 2.61114 -4.41227
181 1 -19.5121 3.61215 -3.55044
183 1 -18.2083 3.90137 -3.23361
184 1 -17.942 4.56125 -2.05446
358 1 -19.0071 4.80695 -1.16686
118 1 -12.6112 1.36801 -5.12886
194 1 -12.3183 2.63569 -4.54089
112 1 -16.6228 -0.0188595 -5.3264
113 1 -16.3574 1.35105 -5.1186
189 1 -14.9843 1.73023 -4.9871
190 1 -14.6997 2.96383 -4.3148
192 1 -13.3755 3.39349 -4.02696
193 1 -13.1804 4.30171 -2.95781
187 1 -15.7778 3.60662 -3.63075
188 1 -15.5469 4.32247 -2.4377
191 1 -14.2288 4.67099 -2.06294
365 1 -13.9143 4.96653 -0.699159
366 1 -12.6042 5.04758 -0.25892
361 1 -16.6041 4.64793 -1.59685
362 1 -16.2954 4.91474 -0.280909
116 1 -13.9363 0.887209 -5.31689
124 1 -7.76921 0.630647 -5.31987
202 1 -7.54662 1.98252 -5.02289
205 1 -6.2295 2.42702 -4.92996
206 1 -5.995 3.57133 -4.09381
121 1 -10.2295 1.03753 -5.32902
198 1 -9.92222 2.35367 -4.85966
200 1 -8.60987 2.81123 -4.60466
201 1 -8.34906 3.88054 -3.72576
203 1 -7.04196 4.13269 -3.33794
204 1 -6.72781 4.76579 -2.13185
196 1 -10.9794 3.05276 -4.31758
197 1 -10.7558 4.03293 -3.30874
199 1 -9.4264 4.38752 -2.97785
372 1 -9.16316 5.02052 -1.75879
374 1 -7.78486 5.06545 -1.28251
195 1 -11.8261 4.52135 -2.53169
368 1 -11.5645 4.99576 -1.2254
370 1 -10.2225 5.12969 -0.842756
123 1 -9.10474 0.147819 -5.32034
120 1 -11.5598 0.506332 -5.3352
126 1 -5.33969 0.163329 -5.21004
127 1 -5.14913 1.52308 -5.23437
207 1 -4.70908 4.05982 -3.86688
208 1 -4.34535 4.59374 -2.62882
377 1 -5.37735 4.87699 -1.72624
378 1 -5.13892 5.02863 -0.363261
138 1 3.53716 0.691127 -5.49649
220 1 3.90998 2.01244 -5.43995
135 1 1.07948 1.18226 -5.36459
217 1 1.21396 2.5634 -5.21167
219 1 2.9927 4.18485 -4.01273
132 1 -1.32538 1.58384 -5.22952
213 1 -1.09113 2.86226 -4.77641
215 1 0.217314 3.32352 -4.58719
216 1 0.532933 4.27131 -3.55956
218 1 1.90554 4.42109 -3.16694
388 1 2.17211 4.68443 -1.80127
390 1 3.49447 4.74058 -1.3418
209 1 -3.84844 1.95763 -5.3128
211 1 -2.1309 3.66671 -4.3021
212 1 -1.87281 4.3561 -3.09316
214 1 -0.504279 4.59243 -2.67984
384 1 -0.244462 4.87911 -1.33439
386 1 1.10853 4.85814 -0.904296
210 1 -2.96477 4.73115 -2.23696
381 1 -2.70185 5.00256 -0.884895
382 1 -1.32615 4.97964 -0.436779
137 1 2.22014 0.323108 -5.30736
134 1 -0.268753 0.697191 -5.24344
130 1 -2.67683 1.1417 -5.27944
223 1 5.17746 2.45502 -5.16625
224 1 5.43179 3.53189 -4.31045
221 1 4.35104 4.19239 -3.63748
222 1 4.57803 4.5332 -2.26205
146 1 9.92028 1.38014 -5.27144
232 1 10.2385 2.6026 -4.68654
234 1 11.578 2.95279 -4.36679
235 1 11.9087 3.89029 -3.3569
140 1 5.90543 0.187068 -5.44954
141 1 6.21864 1.5594 -5.37473
227 1 7.5547 1.93361 -5.34026
228 1 7.82249 3.10661 -4.55564
230 1 9.16798 3.337 -4.1732
231 1 9.44856 4.1547 -3.07076
233 1 10.7861 4.29646 -2.62206
400 1 10.9806 4.76007 -1.3096
225 1 6.74405 3.7771 -3.92939
226 1 7.02461 4.31383 -2.68159
229 1 8.38055 4.50651 -2.25033
397 1 8.55143 4.79949 -0.905692
398 1 9.86623 4.85132 -0.398311
393 1 5.94043 4.57856 -1.80289
394 1 6.14745 4.77547 -0.426562
148 1 10.9886 0.431521 -5.27688
144 1 8.58024 1.00515 -5.55747
158 1 19.8577 0.762179 -5.30792
152 1 14.7357 0.35253 -5.29126
240 1 15.0313 1.66906 -4.95693
243 1 16.4077 1.9609 -4.74309
244 1 16.6767 3.07115 -3.87126
149 1 12.3094 0.856849 -5.29715
236 1 12.6273 2.12641 -4.86483
238 1 13.9776 2.52904 -4.56337
239 1 14.2923 3.58677 -3.71401
241 1 15.6272 3.85927 -3.34332
242 1 15.852 4.61683 -2.15085
237 1 13.2213 4.19601 -2.99079
404 1 13.4204 4.81234 -1.77113
406 1 14.7737 4.91956 -1.28565
402 1 12.2883 4.87691 -0.843567
151 1 13.3778 -0.0476542 -5.37343
154 1 17.1057 -0.260816 -5.33619
155 1 17.4353 1.04778 -5.0484
247 1 18.7715 1.53228 -4.87626
248 1 19.0728 2.75496 -4.2326
245 1 18.0042 3.44751 -3.58761
246 1 18.2538 4.36978 -2.5472
249 1 19.5541 4.5568 -2.09769
413 1 19.8009 4.97472 -0.743814
409 1 17.1632 4.67899 -1.69023
410 1 17.3679 4.94252 -0.321009
161 1 22.3254 0.463603 -5.55885
165 1 26.0724 0.386384 -5.0701
260 1 26.2887 1.72185 -4.73817
263 1 27.602 2.249 -4.67
264 1 27.87 3.41 -3.903
162 1 23.6557 0.841769 -5.21989
256 1 23.873 2.15512 -4.71541
258 1 25.2149 2.57614 -4.42038
259 1 25.4556 3.71839 -3.60938
261 1 26.7814 4.0175 -3.27105
262 1 27.0648 4.67931 -2.07554
159 1 21.2187 1.26689 -5.17231
252 1 21.4897 2.49386 -4.48773
254 1 22.8044 2.94548 -4.25483
255 1 23.0312 3.96198 -3.29176
257 1 24.3852 4.28659 -2.93093
420 1 24.6333 4.86299 -1.65446
422 1 25.9824 5.02653 -1.21639
250 1 20.3978 3.15894 -3.94263
251 1 20.6319 4.13954 -2.94529
253 1 21.9249 4.4308 -2.54427
416 1 22.177 5.03557 -1.23591
418 1 23.5072 5.09419 -0.818252
414 1 21.136 5.10355 -0.266178
164 1 24.7686 -0.106757 -5.14888
529 1 -22.0524 -1.3246 4.9998
438 1 -20.7374 -1.80213 4.87861
439 1 -20.4375 -3.06432 4.32163
526 1 -24.7049 -0.372879 5.18967
431 1 -24.4574 -1.72403 4.96666
434 1 -23.1243 -2.15074 4.7402
435 1 -22.8178 -3.32837 3.96279
436 1 -21.4959 -3.6903 3.72119
437 1 -21.2028 -4.50765 2.56569
523 1 -27.1251 -0.913042 5.10432
427 1 -26.8348 -2.20756 4.67453
429 1 -25.4733 -2.57598 4.49093
430 1 -25.1601 -3.61929 3.61213
432 1 -23.8413 -3.96133 3.25901
433 1 -23.5552 -4.66024 2.07235
273 1 -22.2435 -4.83854 1.67357
274 1 -21.9627 -5.06847 0.332953
425 1 -27.87 -3.047 4.193
426 1 -27.602 -4.052 3.232
428 1 -26.2218 -4.25602 2.91019
268 1 -25.8974 -4.75021 1.62278
270 1 -24.6093 -4.86757 1.16846
266 1 -26.9756 -4.99458 0.687489
536 1 -17.2138 -0.556566 5.21813
532 1 -19.6758 -0.950312 5.11831
534 1 -18.3336 -1.37449 5.11094
443 1 -18.0654 -2.6258 4.64431
441 1 -19.0873 -3.41956 4.10015
442 1 -18.7826 -4.30925 3.02744
444 1 -17.4339 -4.41266 2.61097
280 1 -17.1717 -4.60449 1.24674
440 1 -19.8616 -4.65218 2.18634
277 1 -19.5774 -4.78723 0.812815
278 1 -18.2064 -4.73651 0.31299
540 1 -13.4501 -0.513696 5.22306
450 1 -13.0706 -1.88948 5.24597
537 1 -15.8652 -1.0133 5.20376
447 1 -15.6866 -2.35996 5.02852
449 1 -13.9183 -3.9575 3.78737
451 1 -12.5708 -3.99586 3.35609
452 1 -12.3178 -4.47505 2.01531
445 1 -16.7514 -3.10623 4.47172
446 1 -16.3883 -3.96407 3.40645
448 1 -15.0469 -4.19291 2.9749
284 1 -14.7664 -4.57725 1.63819
286 1 -13.432 -4.63297 1.14776
282 1 -15.8205 -4.72202 0.766512
550 1 -5.89395 -0.598307 5.2575
546 1 -8.33521 -1.08546 5.30524
548 1 -6.97918 -1.5326 5.21742
462 1 -6.68604 -2.78127 4.65979
543 1 -10.7218 -1.47325 5.20524
457 1 -9.38242 -1.91673 5.08277
458 1 -9.12547 -3.15878 4.47179
460 1 -7.78093 -3.47911 4.14875
461 1 -7.47993 -4.30359 2.97421
463 1 -6.14657 -4.62662 2.58472
296 1 -5.91805 -4.92455 1.2197
453 1 -11.7435 -2.38987 5.01843
454 1 -11.4863 -3.56424 4.15029
455 1 -10.1639 -3.83142 3.76213
456 1 -9.94342 -4.44415 2.5246
459 1 -8.59221 -4.63756 2.12603
293 1 -8.32537 -4.91123 0.742994
294 1 -6.98838 -4.92929 0.294929
289 1 -10.999 -4.6978 1.61402
290 1 -10.7125 -4.98226 0.288053
551 1 -4.53367 -1.01133 5.16656
466 1 -4.27867 -2.38119 4.90207
464 1 -5.33851 -3.1512 4.40986
465 1 -5.09397 -4.11213 3.38916
298 1 -4.57617 -4.9121 0.823274
560 1 2.93708 -0.900006 5.15978
557 1 0.543044 -1.37851 5.08396
477 1 1.8767 -1.80822 4.95524
478 1 2.16876 -2.99263 4.27226
480 1 3.49375 -3.39076 3.97602
481 1 3.72397 -4.31637 2.9167
554 1 -2.13715 -0.552844 5.26579
470 1 -1.87608 -1.93289 5.12907
473 1 -0.502281 -2.23772 4.84491
474 1 -0.252206 -3.3774 4.05413
475 1 1.06782 -3.69376 3.73207
476 1 1.31509 -4.46196 2.61071
479 1 2.63693 -4.6665 2.14194
309 1 2.90231 -4.98591 0.801648
468 1 -2.94972 -2.74654 4.67436
469 1 -2.69095 -3.80343 3.82983
471 1 -1.35284 -3.99251 3.42376
472 1 -1.101 -4.65795 2.19757
305 1 0.232914 -4.73902 1.74886
306 1 0.478931 -4.84292 0.33705
467 1 -3.7332 -4.30366 3.03927
300 1 -3.50707 -4.78974 1.74424
302 1 -2.16363 -4.89918 1.30879
564 1 5.31792 -0.482824 5.1581
562 1 4.23319 -1.33926 4.99278
482 1 4.52219 -2.55937 4.37888
483 1 5.03732 -4.46755 2.52808
312 1 5.32047 -4.8342 1.21963
310 1 4.25946 -4.96865 0.315747
571 1 11.7227 -1.40864 5.11997
568 1 9.11035 -0.493335 5.23342
490 1 9.36828 -1.84403 4.97069
493 1 10.6792 -2.27483 4.78597
494 1 10.951 -3.39985 3.98522
565 1 6.65985 -0.925759 5.12531
486 1 6.9149 -2.17564 4.64301
488 1 8.28382 -2.56349 4.47276
489 1 8.54637 -3.60683 3.585
491 1 9.87986 -3.94544 3.31464
492 1 10.1036 -4.66533 2.11281
321 1 11.4727 -4.84685 1.69678
322 1 11.7583 -4.95432 0.331468
484 1 5.85033 -2.96264 4.16607
485 1 6.1118 -3.94999 3.22434
487 1 7.44735 -4.23413 2.89914
316 1 7.71797 -4.85833 1.67938
318 1 9.02851 -4.89135 1.20666
314 1 6.6472 -4.93441 0.7517
578 1 16.5687 -0.37932 5.27681
574 1 14.1206 -0.922341 5.24983
576 1 15.4777 -1.31499 5.08884
502 1 15.7605 -2.55807 4.51691
497 1 13.0612 -1.83752 5.03091
498 1 13.3424 -3.00742 4.24829
500 1 14.6895 -3.29329 3.93881
501 1 14.9791 -4.14297 2.85041
503 1 16.3074 -4.39613 2.47518
328 1 16.5601 -4.86985 1.19818
495 1 12.2855 -3.67395 3.64717
496 1 12.5703 -4.50045 2.53558
499 1 13.8887 -4.57909 2.04646
325 1 14.1659 -4.89532 0.743093
326 1 15.4859 -4.95562 0.255788
579 1 17.8769 -0.912972 5.28588
506 1 18.1259 -2.27136 4.89288
508 1 19.4523 -2.71009 4.69781
509 1 19.788 -3.58572 3.6159
504 1 17.0838 -2.99762 4.29792
505 1 17.3516 -3.90715 3.26601
507 1 18.6927 -4.15291 2.90101
332 1 18.986 -4.72253 1.61604
330 1 17.9293 -4.89072 0.716259
592 1 27.87 -0.465 5.162
588 1 25.4679 -0.804696 5.23115
590 1 26.7869 -1.28648 4.9959
521 1 27.1014 -2.52143 4.48946
585 1 23.0505 -1.24636 5.13683
516 1 24.4045 -1.70571 5.01256
517 1 24.6926 -2.91288 4.31577
519 1 26.0257 -3.29309 3.9725
520 1 26.2965 -4.20537 2.90059
522 1 27.602 -4.564 2.456
344 1 27.87 -5.053 1.153
582 1 20.3203 -0.219675 5.42388
512 1 22.0565 -2.14715 4.76653
513 1 22.3256 -3.25371 3.96585
514 1 23.6377 -3.55367 3.58549
515 1 23.852 -4.32642 2.44123
518 1 25.2193 -4.59647 2.07846
341 1 25.4715 -4.91434 0.730446
342 1 26.7895 -5.04647 0.25503
510 1 21.1506 -3.8571 3.30339
511 1 21.3801 -4.59485 2.1015
337 1 22.7323 -4.66719 1.64352
338 1 23.0052 -4.8838 0.260525
334 1 20.3111 -4.83823 1.14615
355 1 -21.1729 5.04965 0.649078
351 1 -23.574 5.10199 1.14685
353 1 -22.2426 4.95934 1.53419
604 1 -21.9872 4.37401 2.83093
606 1 -20.6391 4.12808 3.28586
607 1 -20.3886 3.07649 4.20404
347 1 -26.247 5.17458 0.247094
348 1 -25.9904 4.92068 1.57764
599 1 -24.6434 4.80809 2.01455
600 1 -24.4052 4.05281 3.15292
602 1 -23.0636 3.80931 3.54788
603 1 -22.8452 2.7224 4.43457
605 1 -21.4679 2.30008 4.65281
530 1 -21.1828 0.997797 5.08619
595 1 -27.0877 4.47864 2.36454
596 1 -26.8203 3.70041 3.51567
597 1 -25.4795 3.40647 3.84216
598 1 -25.2391 2.24642 4.61763
601 1 -23.9451 1.84472 4.82266
527 1 -23.5983 0.507249 5.15854
528 1 -22.288 0.0621907 5.18048
593 1 -27.87 3.047 4.193
594 1 -27.602 1.821 4.853
524 1 -26.3103 1.3775 4.90355
525 1 -26.0638 0.0422641 5.14705
359 1 -18.7275 4.92088 0.167325
360 1 -17.3795 4.89977 0.661599
612 1 -17.1283 4.64006 2.02898
357 1 -19.8181 4.9933 1.10261
608 1 -19.5793 4.63496 2.49722
610 1 -18.2168 4.34073 2.83015
611 1 -17.9964 3.32892 3.77709
609 1 -19.0675 2.63919 4.31659
533 1 -18.7894 1.32122 4.87568
535 1 -17.4877 0.815366 4.98322
531 1 -19.8926 0.463117 5.06756
367 1 -12.341 4.83655 1.10203
363 1 -14.9898 4.93233 0.213158
364 1 -14.7485 4.71286 1.57528
619 1 -13.3965 4.56462 2.00424
620 1 -13.1573 3.82422 3.15238
615 1 -15.808 4.28636 2.36881
616 1 -15.5691 3.45207 3.45825
617 1 -14.2285 3.15064 3.77677
618 1 -13.9959 2.05605 4.53918
621 1 -12.6359 1.72408 4.78519
541 1 -12.3302 0.417138 5.20154
613 1 -16.6888 2.83039 4.00699
614 1 -16.4291 1.66175 4.69944
538 1 -15.068 1.20794 4.85045
539 1 -14.795 -0.127417 5.18862
375 1 -7.57219 5.11727 0.108652
376 1 -6.21826 5.04525 0.56147
632 1 -5.89821 4.52822 1.87651
371 1 -9.93116 4.95565 0.491334
373 1 -8.62352 4.82936 0.981176
628 1 -8.3324 4.25805 2.23729
630 1 -6.98295 3.9811 2.6555
631 1 -6.72635 3.05832 3.69073
369 1 -10.9707 4.76495 1.42251
624 1 -10.7254 4.08365 2.62809
626 1 -9.39402 3.75812 2.98513
627 1 -9.12943 2.80574 4.00257
629 1 -7.79811 2.34749 4.2253
547 1 -7.48271 1.14447 4.90338
549 1 -6.19194 0.74745 5.0164
622 1 -11.815 3.53658 3.42718
623 1 -11.524 2.52867 4.3426
625 1 -10.1985 2.10517 4.6161
544 1 -9.89866 0.782657 5.11744
545 1 -8.55783 0.290791 5.12565
542 1 -10.9993 -0.105533 5.24201
635 1 -4.57858 4.29327 2.25028
636 1 -4.33299 3.51078 3.35849
633 1 -5.35826 2.79216 4.01484
634 1 -5.1173 1.60232 4.70774
391 1 3.81201 4.80946 0.0171249
387 1 1.35913 4.82293 0.497552
389 1 2.73588 4.7919 0.915371
648 1 2.94336 4.36159 2.27661
383 1 -1.0705 4.75482 0.919762
385 1 0.266061 4.59656 1.3616
644 1 0.514889 4.02923 2.61751
646 1 1.8551 3.89542 3.08882
647 1 2.09721 2.88985 4.0538
649 1 3.42965 2.52371 4.33355
561 1 3.69615 1.33461 5.03325
379 1 -3.80274 4.90286 0.0334755
380 1 -3.50681 4.63741 1.3788
639 1 -2.16115 4.49793 1.76431
640 1 -1.90265 3.79479 2.95204
642 1 -0.562553 3.51622 3.32785
643 1 -0.31616 2.52236 4.29519
645 1 0.998168 2.12885 4.57489
558 1 1.28283 0.836858 5.06066
559 1 2.64368 0.43093 5.17287
637 1 -2.96855 3.19311 3.65717
638 1 -2.69193 2.13422 4.56009
641 1 -1.39736 1.73225 4.79944
555 1 -1.10533 0.408316 5.19481
556 1 0.252212 -0.0349764 5.24904
552 1 -3.75628 1.2428 4.82971
553 1 -3.46425 -0.0958324 5.17054
392 1 5.1254 4.76223 0.481398
652 1 5.38421 4.44204 1.85436
650 1 4.26154 4.08068 2.67429
651 1 4.53571 3.2536 3.73425
563 1 5.01712 0.891609 5.13811
399 1 10.1695 4.76654 0.97303
401 1 11.5283 4.71798 1.39685
664 1 11.8149 4.16335 2.63296
395 1 7.47699 4.74383 0.00531212
396 1 7.74681 4.61167 1.39554
659 1 9.09219 4.50776 1.85253
660 1 9.33585 3.89538 3.0484
662 1 10.71 3.64772 3.42815
663 1 10.9196 2.60227 4.34071
655 1 6.7199 4.32919 2.29134
656 1 6.97821 3.55406 3.41409
657 1 8.33707 3.32783 3.77994
658 1 8.51341 2.24693 4.67257
661 1 9.8792 1.79736 4.8565
569 1 10.1368 0.470239 5.28677
570 1 11.4761 -0.0358246 5.28368
653 1 5.88541 2.92032 4.10526
654 1 6.13206 1.77166 4.87934
566 1 7.47873 1.34146 4.99765
567 1 7.78243 -0.0429733 5.18814
407 1 14.9676 5.02883 0.116992
408 1 16.3016 4.968 0.605172
672 1 16.5825 4.6448 1.97472
403 1 12.585 4.91032 0.525609
405 1 13.9347 4.93599 1.01655
668 1 14.1964 4.46465 2.3109
670 1 15.5329 4.22256 2.76297
671 1 15.7673 3.37949 3.90793
666 1 13.1439 3.92866 3.04661
667 1 13.3303 2.93352 4.04828
669 1 14.6739 2.64258 4.45546
575 1 14.9189 1.42196 5.15524
577 1 16.3161 0.995472 5.23718
665 1 12.23 2.16534 4.53574
572 1 12.5317 0.930556 5.18086
573 1 13.8232 0.4654 5.32495
411 1 18.6775 5.00127 0.16774
412 1 18.9782 4.85725 1.58374
675 1 17.9264 4.49644 2.45296
676 1 18.2287 3.68432 3.57438
677 1 19.5473 3.32053 3.85902
678 1 19.7504 2.21652 4.69777
673 1 17.153 3.0814 4.2572
674 1 17.3476 1.84452 4.92331
580 1 18.6561 1.39004 5.0907
581 1 18.9203 0.0284575 5.29787
423 1 26.2349 5.16667 0.208751
424 1 27.602 5.136 0.696
692 1 27.87 4.766 2.037
419 1 23.815 5.14122 0.546354
421 1 25.1315 5.04216 1.09883
688 1 25.4039 4.51257 2.3474
690 1 26.7267 4.31784 2.77547
691 1 26.9594 3.40949 3.82372
415 1 21.401 5.09865 1.12699
417 1 22.7541 4.91706 1.4884
684 1 22.9896 4.16938 2.69703
686 1 24.3421 3.96576 3.1241
687 1 24.6484 3.01687 4.08643
689 1 25.9647 2.68882 4.43051
589 1 26.2245 1.45014 4.99879
591 1 27.602 0.925 5.1
679 1 20.3361 4.704 2.01425
680 1 20.5837 3.89913 3.11327
682 1 21.9122 3.58862 3.37143
683 1 22.2318 2.64446 4.34578
685 1 23.5553 2.27054 4.59192
586 1 23.8149 1.04283 5.20152
587 1 25.1736 0.56988 5.28837
681 1 21.1548 1.89697 4.81028
583 1 21.4477 0.644673 5.26722
584 1 22.7931 0.107681 5.31358
ITEM: TIMESTEP
1600
ITEM: NUMBER OF ATOMS
692
ITEM: BOX BOUNDS ff ff ff
-6.0000000000000000e+01 6.0000000000000000e+01
-4.0000000000000000e+01 4.0000000000000000e+01
-4.0000000000000000e+01 4.0000000000000000e+01
ITEM: ATOMS id type x y z
275 1 -20.5816 -4.90244 -0.412722
276 1 -20.2959 -4.74232 -1.7794
271 1 -24.3658 -5.11638 -0.378975
272 1 -23.0108 -5.10027 -0.88466
8 1 -22.675 -4.79733 -2.24283
11 1 -21.3689 -4.5079 -2.67087
12 1 -21.1247 -3.67977 -3.81153
267 1 -26.8012 -5.22905 -0.731254
269 1 -25.4841 -5.22294 -1.18582
6 1 -23.6908 -4.40702 -3.10899
7 1 -23.522 -3.38112 -4.07436
9 1 -22.2244 -2.99002 -4.4148
10 1 -21.944 -1.75044 -5.08227
108 1 -20.6109 -1.28435 -5.13308
265 1 -27.87 -4.93 -1.602
1 1 -27.602 -4.326 -2.855
3 1 -26.34 -4.07782 -3.38357
4 1 -26.0387 -2.9937 -4.21215
5 1 -24.7091 -2.6945 -4.5636
103 1 -24.3907 -1.38709 -5.10098
105 1 -23.0522 -0.876531 -5.26463
2 1 -27.0699 -2.19875 -4.61031
100 1 -26.7921 -0.905742 -5.07979
101 1 -25.4656 -0.432866 -5.194
279 1 -17.8793 -4.89352 -1.30603
15 1 -18.9658 -4.62843 -2.21678
16 1 -18.7343 -3.95049 -3.43072
18 1 -17.378 -3.64366 -3.70009
19 1 -17.0821 -2.5255 -4.47282
13 1 -19.7792 -3.33798 -4.13784
14 1 -19.5153 -2.14945 -4.81098
17 1 -18.1704 -1.69192 -4.87311
111 1 -17.9479 -0.384439 -5.25675
287 1 -13.1415 -4.935 -0.205602
283 1 -15.491 -4.96329 -0.749531
285 1 -14.1814 -4.87243 -1.15065
24 1 -13.9216 -4.2698 -2.39047
26 1 -12.5743 -4.06042 -2.76279
27 1 -12.3428 -3.18128 -3.84208
281 1 -16.5635 -4.71643 -1.67334
20 1 -16.3121 -4.05935 -2.86512
22 1 -14.9628 -3.77576 -3.16338
23 1 -14.713 -2.93847 -4.25991
25 1 -13.4082 -2.53606 -4.51452
117 1 -13.1845 -1.36776 -5.20326
21 1 -15.7545 -2.11923 -4.73719
114 1 -15.5566 -0.821404 -5.27354
115 1 -14.2596 -0.440359 -5.39309
295 1 -6.67428 -4.79163 -1.09616
291 1 -9.3424 -4.88877 -0.198726
292 1 -9.09434 -4.63307 -1.56628
35 1 -7.74813 -4.49427 -1.95587
36 1 -7.43587 -3.7435 -3.15027
38 1 -6.09656 -3.3822 -3.43431
39 1 -5.82171 -2.35262 -4.32083
288 1 -11.7607 -4.8384 -0.656095
28 1 -11.4923 -4.50888 -2.00318
31 1 -10.1522 -4.30072 -2.4402
32 1 -9.88377 -3.43509 -3.5073
33 1 -8.54551 -3.09918 -3.83426
34 1 -8.25829 -2.01202 -4.70829
37 1 -6.90165 -1.61786 -4.82612
125 1 -6.62834 -0.318402 -5.22797
29 1 -10.9882 -2.80113 -4.14971
30 1 -10.742 -1.71186 -5.00825
122 1 -9.41602 -1.22179 -5.11606
119 1 -11.8276 -0.91133 -5.33894
299 1 -4.28906 -4.98633 -0.625152
297 1 -5.34932 -4.68822 -1.54055
40 1 -5.0451 -3.99376 -2.69448
41 1 -4.4892 -1.97164 -4.57165
128 1 -4.22823 -0.722023 -5.14224
307 1 1.83757 -4.93865 -0.120618
308 1 2.11905 -4.71628 -1.46623
55 1 3.46735 -4.58337 -1.87079
56 1 3.70852 -3.85837 -3.0715
303 1 -1.87937 -4.97912 -0.117784
304 1 -0.516465 -4.87021 -0.619581
48 1 -0.276547 -4.47051 -1.93851
51 1 1.07776 -4.30569 -2.32579
52 1 1.32402 -3.52438 -3.45091
53 1 2.62174 -3.2412 -3.76607
54 1 2.92314 -2.12351 -4.54824
301 1 -2.93505 -4.83954 -0.994659
44 1 -2.67553 -4.26203 -2.27223
46 1 -1.35046 -3.99469 -2.66199
47 1 -1.05839 -3.07426 -3.61117
49 1 0.266484 -2.79265 -3.99233
50 1 0.558367 -1.63094 -4.73988
136 1 1.87855 -1.26986 -4.97674
42 1 -3.72557 -3.74957 -3.08171
43 1 -3.42219 -2.7508 -4.04078
45 1 -2.08962 -2.35538 -4.24936
131 1 -1.8286 -1.17742 -4.95818
133 1 -0.508505 -0.749902 -5.14154
129 1 -2.87977 -0.298493 -5.2464
311 1 4.52354 -4.86194 -1.00705
58 1 5.04255 -3.61195 -3.43772
59 1 5.34257 -2.53741 -4.26006
57 1 4.29226 -1.73028 -4.64737
139 1 4.57644 -0.428593 -5.0201
319 1 9.36848 -4.87866 -0.0870956
320 1 10.6823 -4.92129 -0.62042
68 1 10.9169 -4.75465 -2.05791
315 1 6.95619 -4.92009 -0.543674
317 1 8.29121 -4.87829 -0.967016
64 1 8.53312 -4.45257 -2.27417
66 1 9.82406 -4.27181 -2.79418
67 1 10.0556 -3.46569 -3.88573
69 1 11.3378 -3.14998 -4.38776
70 1 11.7656 -1.8748 -4.85173
313 1 5.86713 -4.7683 -1.43537
60 1 6.08291 -4.22728 -2.74073
62 1 7.41565 -3.97572 -3.08697
63 1 7.70553 -2.99804 -4.05512
65 1 9.02714 -2.67881 -4.34414
145 1 9.33369 -1.44008 -4.86011
147 1 10.68 -1.022 -5.03064
61 1 6.67041 -2.20349 -4.53308
142 1 6.98976 -0.919969 -4.97563
143 1 8.29276 -0.494195 -5.09961
157 1 19.5873 -0.441314 -5.31572
156 1 18.2426 -0.952027 -5.30192
80 1 17.9894 -2.28252 -4.87877
327 1 15.7855 -4.71446 -1.13827
323 1 13.1037 -4.80747 -0.217385
324 1 13.379 -4.75182 -1.64259
74 1 14.736 -4.65139 -2.08575
75 1 15.0067 -4.04741 -3.32528
77 1 16.3319 -3.6651 -3.65622
78 1 16.6259 -2.6354 -4.59473
71 1 12.2473 -4.73037 -2.54278
72 1 13.9398 -3.44377 -4.06664
73 1 14.1519 -2.25861 -4.78151
76 1 15.5034 -1.82847 -5.02967
153 1 15.7377 -0.492387 -5.42327
150 1 13.0631 -1.39357 -5.05009
331 1 18.2472 -4.7945 -0.751196
333 1 19.5969 -4.75443 -1.16939
83 1 19.82 -4.41657 -2.49627
329 1 17.1434 -4.60104 -1.57976
79 1 17.3868 -4.18091 -2.89217
81 1 18.734 -3.96863 -3.30106
82 1 18.9731 -3.17136 -4.44082
160 1 22.0411 -0.51383 -6.43427
343 1 26.9625 -5.09374 -1.17443
339 1 24.2814 -5.03275 -0.239624
340 1 24.6194 -4.8486 -1.59781
93 1 25.947 -4.80431 -2.11954
94 1 26.2438 -4.03087 -3.29151
96 1 27.602 -3.746 -3.582
97 1 27.87 -2.658 -4.45
335 1 20.6817 -4.90391 -0.268572
336 1 21.9625 -4.94849 -0.671803
87 1 22.2589 -4.65289 -2.02754
89 1 23.5462 -4.4903 -2.44143
90 1 23.8243 -3.79469 -3.68142
91 1 25.1938 -3.4342 -4.05327
92 1 25.5302 -2.34185 -4.90772
95 1 26.8292 -1.90416 -5.00858
166 1 27.0539 -0.55353 -5.26155
85 1 21.1991 -4.27854 -2.89354
86 1 21.3915 -3.60322 -4.07243
88 1 22.6969 -3.32102 -4.47598
84 1 20.3274 -3.0421 -4.76545
163 1 24.5132 -1.45433 -5.23392
107 1 -21.4686 0.958771 -5.21348
178 1 -21.1925 2.25253 -4.73476
104 1 -23.8556 1.43587 -5.10882
174 1 -23.5879 2.63127 -4.42955
176 1 -22.2359 2.97928 -4.14723
177 1 -21.9693 3.91539 -3.15289
179 1 -20.621 4.17903 -2.81923
356 1 -20.3772 4.7976 -1.52121
98 1 -27.87 0 -5.183
99 1 -27.602 1.379 -4.996
169 1 -26.2903 1.85694 -4.93348
170 1 -26.0147 3.03702 -4.20448
172 1 -24.6722 3.34308 -3.86947
173 1 -24.4061 4.15695 -2.75924
175 1 -23.0401 4.35257 -2.35873
352 1 -22.7762 4.79241 -1.05775
354 1 -21.4297 4.86297 -0.604606
167 1 -27.0553 3.72099 -3.55738
168 1 -26.8085 4.45826 -2.36685
171 1 -25.509 4.54518 -1.91584
349 1 -25.1965 4.92514 -0.576945
350 1 -23.8455 4.95926 -0.161548
345 1 -27.87 4.93 -1.602
346 1 -27.602 5.178 -0.233
109 1 -20.3675 0.0641237 -5.29964
106 1 -22.8185 0.510549 -5.31928
102 1 -25.2075 0.970502 -5.15292
110 1 -19.0509 0.490264 -5.27327
182 1 -18.7911 1.84349 -4.99551
185 1 -17.4244 2.30589 -4.77132
186 1 -17.1231 3.38274 -3.96176
180 1 -19.8129 2.64243 -4.50362
181 1 -19.5755 3.63157 -3.56777
183 1 -18.2212 3.94633 -3.24323
184 1 -18.005 4.55569 -1.97008
358 1 -19.0319 4.86729 -1.07011
118 1 -12.615 1.4223 -5.2679
194 1 -12.3499 2.64852 -4.59831
112 1 -16.6141 0.0664394 -5.41635
113 1 -16.3597 1.46652 -5.20726
189 1 -15.033 1.87718 -5.01881
190 1 -14.7145 3.04937 -4.25704
192 1 -13.37 3.37622 -3.92647
193 1 -13.1183 4.24365 -2.86819
187 1 -15.8146 3.72123 -3.62959
188 1 -15.5632 4.47568 -2.48075
191 1 -14.2023 4.6259 -2.06282
365 1 -13.9161 4.97647 -0.738463
366 1 -12.5853 4.97198 -0.264632
361 1 -16.6399 4.7719 -1.56152
362 1 -16.3326 5.04824 -0.158229
116 1 -13.9699 0.951358 -5.34312
124 1 -7.79644 0.583072 -5.3183
202 1 -7.57386 1.97382 -5.13147
205 1 -6.23004 2.45532 -5.04058
206 1 -6.04261 3.5676 -4.18017
121 1 -10.2121 1.00691 -5.25927
198 1 -9.9973 2.31554 -4.86669
200 1 -8.6433 2.77064 -4.69879
201 1 -8.39432 3.75035 -3.71825
203 1 -7.06683 4.13154 -3.39781
204 1 -6.71527 4.69433 -2.18841
196 1 -11.0601 3.01054 -4.32465
197 1 -10.7727 3.99442 -3.33947
199 1 -9.43048 4.23915 -2.92543
372 1 -9.09729 4.68997 -1.62174
374 1 -7.73954 4.81428 -1.21202
195 1 -11.7719 4.44943 -2.48656
368 1 -11.4788 4.93402 -1.1758
370 1 -10.1218 4.89084 -0.699164
123 1 -9.13647 0.133927 -5.38699
120 1 -11.5305 0.519888 -5.42907
126 1 -5.30352 0.151971 -5.28258
127 1 -5.17496 1.56176 -5.28579
207 1 -4.68183 3.98071 -3.9552
208 1 -4.35771 4.58915 -2.71101
377 1 -5.37999 4.76289 -1.76138
378 1 -5.09839 4.85943 -0.400492
138 1 3.54122 0.483417 -5.20387
220 1 3.85109 1.88182 -5.21835
135 1 1.03956 1.00958 -5.31312
217 1 1.2416 2.37032 -5.02393
219 1 2.95812 4.18152 -3.90653
132 1 -1.3119 1.5791 -5.24977
213 1 -1.01862 2.91537 -4.82057
215 1 0.281379 3.31618 -4.57412
216 1 0.568263 4.30695 -3.56088
218 1 1.88546 4.48553 -3.10624
388 1 2.13179 4.85771 -1.78935
390 1 3.50594 5.04883 -1.34424
209 1 -3.79662 1.95848 -5.46754
211 1 -2.05378 3.64507 -4.23257
212 1 -1.84294 4.44671 -3.07919
214 1 -0.517862 4.68846 -2.67584
384 1 -0.269749 4.95141 -1.34006
386 1 1.07534 5.01854 -0.885423
210 1 -2.99822 4.75876 -2.25598
381 1 -2.71168 4.90289 -0.860318
382 1 -1.33439 4.9193 -0.425258
137 1 2.17817 0.0720276 -5.30063
134 1 -0.274591 0.608445 -5.40711
130 1 -2.64119 1.09081 -5.34746
223 1 5.10505 2.34328 -4.90519
224 1 5.32497 3.58295 -4.22217
221 1 4.3007 4.24421 -3.52869
222 1 4.55 4.83159 -2.2404
146 1 9.84501 1.32156 -4.99269
232 1 10.163 2.60904 -4.51818
234 1 11.4816 2.96527 -4.30961
235 1 11.7409 3.95926 -3.3579
140 1 5.90644 -0.00650037 -5.16951
141 1 6.14858 1.40076 -5.04761
227 1 7.49017 1.84925 -4.91193
228 1 7.80606 3.11037 -4.32934
230 1 9.10701 3.4446 -4.00544
231 1 9.33976 4.32197 -2.96769
233 1 10.7066 4.40827 -2.55029
400 1 10.9843 4.86514 -1.25311
225 1 6.69075 3.85986 -3.83525
226 1 6.96139 4.60195 -2.61143
229 1 8.29077 4.72954 -2.11435
397 1 8.573 5.0869 -0.798478
398 1 9.87964 4.98787 -0.35396
393 1 5.88033 4.96043 -1.74587
394 1 6.1655 5.10936 -0.344795
148 1 10.9086 0.374014 -5.1869
144 1 8.50632 0.893943 -5.0762
158 1 19.7965 0.948882 -5.16452
152 1 14.6891 0.441084 -5.38767
240 1 14.9787 1.7926 -5.04612
243 1 16.3301 2.16214 -4.79779
244 1 16.6072 3.36495 -4.06562
149 1 12.2355 0.855808 -5.23098
236 1 12.5704 2.15255 -4.78253
238 1 13.8843 2.62365 -4.6321
239 1 14.2041 3.71889 -3.75213
241 1 15.5601 4.0151 -3.39972
242 1 15.8 4.61421 -2.17562
237 1 13.1058 4.24438 -3.00178
404 1 13.3696 4.7396 -1.70672
406 1 14.6821 4.81487 -1.3276
402 1 12.3276 4.97011 -0.83521
151 1 13.3386 -0.0297659 -5.299
154 1 17.104 -0.056785 -5.35747
155 1 17.3743 1.27991 -5.00356
247 1 18.678 1.71658 -4.78046
248 1 19.003 2.9223 -4.19864
245 1 17.9243 3.64709 -3.66263
246 1 18.2297 4.41695 -2.52509
249 1 19.5611 4.56509 -2.07679
413 1 19.8004 5.05341 -0.733831
409 1 17.1306 4.74832 -1.71735
410 1 17.3731 4.98333 -0.358343
161 1 22.2783 0.588491 -5.58482
165 1 26.0289 0.406714 -5.25918
260 1 26.2827 1.78314 -4.86672
263 1 27.602 2.249 -4.67
264 1 27.87 3.41 -3.903
162 1 23.5845 0.889693 -5.27286
256 1 23.8598 2.12361 -4.69306
258 1 25.1774 2.56221 -4.50766
259 1 25.4349 3.63298 -3.62743
261 1 26.7397 4.0109 -3.29739
262 1 26.9594 4.6125 -2.01788
159 1 21.1547 1.35152 -5.19504
252 1 21.4029 2.57613 -4.54246
254 1 22.761 2.93919 -4.23162
255 1 23.0511 3.9168 -3.24652
257 1 24.3495 4.16962 -2.87441
420 1 24.6187 4.73714 -1.63629
422 1 25.9323 4.79844 -1.14596
250 1 20.3304 3.2724 -3.93409
251 1 20.6417 4.13932 -2.8752
253 1 21.9521 4.39898 -2.43778
416 1 22.2105 4.99008 -1.20248
418 1 23.537 5.04984 -0.739094
414 1 21.1576 5.1218 -0.271762
164 1 24.6867 -0.0483531 -5.35226
529 1 -21.9235 -1.33089 4.9449
438 1 -20.5934 -1.71357 4.68912
439 1 -20.3236 -2.87134 3.96139
526 1 -24.6307 -0.476932 5.18144
431 1 -24.3221 -1.82549 4.77864
434 1 -22.9756 -2.15786 4.54029
435 1 -22.7493 -3.2136 3.6366
436 1 -21.4087 -3.51994 3.29817
437 1 -21.0926 -4.28595 2.16848
523 1 -26.9859 -1.00731 5.2047
427 1 -26.7462 -2.3141 4.69866
429 1 -25.4095 -2.65331 4.33067
430 1 -25.1384 -3.64982 3.39792
432 1 -23.8386 -3.82939 2.95127
433 1 -23.5713 -4.55976 1.78858
273 1 -22.1906 -4.69984 1.34588
274 1 -21.8809 -5.02997 0.0144384
425 1 -27.87 -3.047 4.193
426 1 -27.602 -4.052 3.232
428 1 -26.2644 -4.25304 2.75892
268 1 -25.9742 -4.91019 1.48215
270 1 -24.6394 -4.96863 1.00091
266 1 -27.0491 -5.1752 0.628329
536 1 -17.1605 -0.467874 5.45707
532 1 -19.5248 -0.894147 5.08662
534 1 -18.2076 -1.34007 5.04224
443 1 -17.9167 -2.56878 4.31407
441 1 -18.9947 -3.24213 3.697
442 1 -18.6955 -4.12293 2.60566
444 1 -17.3458 -4.36129 2.34319
280 1 -17.1115 -4.85026 0.984842
440 1 -19.754 -4.53908 1.81617
277 1 -19.5005 -4.90424 0.487156
278 1 -18.1547 -5.01978 0.0417526
540 1 -13.3096 -0.417343 5.2811
450 1 -12.9939 -1.76479 5.05491
537 1 -15.7976 -0.939343 5.34359
447 1 -15.6011 -2.24069 4.69229
449 1 -13.8827 -4.06372 3.82794
451 1 -12.5592 -4.17016 3.39849
452 1 -12.314 -4.66618 2.1042
445 1 -16.6111 -3.03231 4.21934
446 1 -16.3226 -3.97263 3.2332
448 1 -14.9821 -4.37935 2.93465
284 1 -14.728 -4.80888 1.60426
286 1 -13.3825 -4.8941 1.16902
282 1 -15.7907 -4.92923 0.640674
550 1 -5.87191 -0.546385 5.21301
546 1 -8.22424 -1.02537 5.25757
548 1 -6.92888 -1.47622 5.13659
462 1 -6.67548 -2.76468 4.62565
543 1 -10.6214 -1.41794 5.1162
457 1 -9.29456 -1.9311 5.07652
458 1 -9.08536 -3.16768 4.32685
460 1 -7.75619 -3.49201 4.05647
461 1 -7.49062 -4.26651 2.88512
463 1 -6.16418 -4.46654 2.45719
296 1 -5.90834 -4.95392 1.18454
453 1 -11.7168 -2.2892 4.81635
454 1 -11.5495 -3.52214 4.08839
455 1 -10.1991 -3.7812 3.70697
456 1 -9.89973 -4.53544 2.56883
459 1 -8.56001 -4.71492 2.15499
293 1 -8.2812 -4.90902 0.742105
294 1 -6.96764 -4.95704 0.258083
289 1 -10.9489 -4.76508 1.68215
290 1 -10.6827 -4.90414 0.278475
551 1 -4.53087 -0.968529 5.19163
466 1 -4.27017 -2.34257 4.83852
464 1 -5.35213 -3.10664 4.3251
465 1 -5.12477 -4.07248 3.31853
298 1 -4.5622 -5.14217 0.74481
560 1 2.97292 -1.01253 5.26347
557 1 0.521055 -1.43864 5.10599
477 1 1.85523 -1.90171 5.04125
478 1 2.12369 -3.11611 4.36685
480 1 3.46575 -3.53058 4.15712
481 1 3.72089 -4.37036 3.05224
554 1 -2.15263 -0.549855 5.22695
470 1 -1.86876 -1.84907 4.91627
473 1 -0.553531 -2.30137 4.73807
474 1 -0.274564 -3.48879 4.0404
475 1 1.05978 -3.83203 3.77521
476 1 1.31851 -4.56621 2.60216
479 1 2.65895 -4.69973 2.17383
309 1 2.89487 -4.90135 0.824555
468 1 -2.91732 -2.71666 4.55663
469 1 -2.69722 -3.81022 3.69249
471 1 -1.35057 -4.06288 3.38824
472 1 -1.07005 -4.7437 2.16923
305 1 0.257493 -4.87243 1.74603
306 1 0.514564 -5.00706 0.342201
467 1 -3.79499 -4.36686 3.01004
300 1 -3.50517 -4.942 1.69008
302 1 -2.13579 -4.9775 1.26794
564 1 5.37776 -0.537799 5.3594
562 1 4.32158 -1.51105 5.25425
482 1 4.52749 -2.83003 4.73128
483 1 5.07138 -4.54401 2.66378
312 1 5.30582 -4.86343 1.31772
310 1 4.22308 -4.94534 0.380379
571 1 11.8007 -1.30937 5.09717
568 1 9.1014 -0.449739 5.31293
490 1 9.36265 -1.78475 5.09087
493 1 10.7151 -2.20057 4.86782
494 1 10.9309 -3.3084 4.04729
565 1 6.73548 -0.976104 5.35477
486 1 6.92498 -2.26903 4.94454
488 1 8.25635 -2.6033 4.6728
489 1 8.56464 -3.63766 3.71377
491 1 9.87052 -3.91276 3.3846
492 1 10.2096 -4.50686 2.14496
321 1 11.5403 -4.66819 1.60987
322 1 11.7777 -4.82864 0.256441
484 1 5.85621 -3.12036 4.48115
485 1 6.12157 -3.96062 3.40509
487 1 7.48058 -4.18398 3.00674
316 1 7.75503 -4.74074 1.73117
318 1 9.10413 -4.74894 1.26766
314 1 6.66461 -4.96221 0.841326
578 1 16.603 -0.452811 5.29178
574 1 14.2373 -0.875162 5.16839
576 1 15.5269 -1.36658 5.21017
502 1 15.7729 -2.59667 4.54651
497 1 13.1385 -1.7038 4.9476
498 1 13.4099 -2.8583 4.22895
500 1 14.7258 -3.24308 3.94694
501 1 15.0019 -4.13105 2.87217
503 1 16.3574 -4.29948 2.41725
328 1 16.6352 -4.58967 1.06623
495 1 12.3076 -3.52522 3.61579
496 1 12.5789 -4.31861 2.47366
499 1 13.9307 -4.51248 2.06975
325 1 14.1737 -4.6929 0.684324
326 1 15.4885 -4.70255 0.229432
579 1 17.9325 -0.968854 5.31023
506 1 18.1253 -2.29457 4.87137
508 1 19.4569 -2.72298 4.68043
509 1 19.8324 -3.55281 3.64051
504 1 17.103 -3.01212 4.27249
505 1 17.4099 -3.88357 3.20787
507 1 18.7712 -4.05431 2.84088
332 1 19.0546 -4.59452 1.53193
330 1 17.9937 -4.7874 0.615494
592 1 27.87 -0.465 5.162
588 1 25.5019 -0.892547 5.00007
590 1 26.7991 -1.34705 4.86946
521 1 27.0788 -2.64575 4.46883
585 1 23.1563 -1.35519 5.11678
516 1 24.4733 -1.79138 4.87406
517 1 24.7087 -3.06715 4.25751
519 1 26.0241 -3.42381 4.01877
520 1 26.2512 -4.27606 2.90075
522 1 27.602 -4.564 2.456
344 1 27.87 -5.053 1.153
582 1 20.4011 -0.435237 5.50371
512 1 22.0848 -2.18523 4.84615
513 1 22.2874 -3.33704 3.99946
514 1 23.6352 -3.73572 3.64645
515 1 23.8339 -4.53467 2.46952
518 1 25.1509 -4.69174 2.05098
341 1 25.4128 -5.04901 0.71289
342 1 26.7205 -5.0186 0.265946
510 1 21.1898 -3.78414 3.25621
511 1 21.4547 -4.35323 2.01214
337 1 22.717 -4.65819 1.55928
338 1 22.9924 -4.97137 0.216277
334 1 20.3835 -4.6349 1.07064
355 1 -21.0954 4.92975 0.741392
351 1 -23.531 4.86926 1.18677
353 1 -22.1734 4.73458 1.65409
604 1 -21.9382 4.19268 2.91056
606 1 -20.6468 3.93985 3.35638
607 1 -20.3683 2.96537 4.39118
347 1 -26.2495 5.06509 0.325013
348 1 -25.9516 4.96052 1.75371
599 1 -24.6211 4.68925 2.08101
600 1 -24.4041 3.98811 3.2684
602 1 -23.0506 3.64251 3.61938
603 1 -22.7587 2.57019 4.52521
605 1 -21.4097 2.20563 4.82064
530 1 -21.1405 0.893613 5.19958
595 1 -26.9958 4.7415 2.65965
596 1 -26.7994 3.76219 3.63614
597 1 -25.4926 3.32588 3.93222
598 1 -25.2229 2.15048 4.68569
601 1 -23.8434 1.74286 4.87148
527 1 -23.5827 0.436634 5.17092
528 1 -22.2137 0.0030274 5.16131
593 1 -27.87 3.047 4.193
594 1 -27.602 1.821 4.853
524 1 -26.2846 1.34 5.04225
525 1 -25.9875 -0.0140712 5.14933
359 1 -18.7165 5.0392 0.29786
360 1 -17.3938 4.96909 0.773322
612 1 -17.1032 4.72208 2.14644
357 1 -19.7766 4.89687 1.24572
608 1 -19.5442 4.43356 2.55282
610 1 -18.2211 4.2623 2.99966
611 1 -17.9236 3.38984 4.0833
609 1 -18.9898 2.67995 4.7034
533 1 -18.7088 1.38346 5.30372
535 1 -17.3856 0.906011 5.3427
531 1 -19.7872 0.476847 5.31576
367 1 -12.2811 4.70893 1.09371
363 1 -14.9264 5.03907 0.250241
364 1 -14.6475 4.79205 1.65571
619 1 -13.284 4.56865 2.08899
620 1 -13.0484 4.00902 3.36352
615 1 -15.7345 4.50812 2.55307
616 1 -15.5126 3.75892 3.72897
617 1 -14.2018 3.4037 4.05755
618 1 -13.9084 2.24188 4.86058
621 1 -12.5539 1.82785 4.9623
541 1 -12.2697 0.487046 5.17369
613 1 -16.6024 3.01858 4.42
614 1 -16.283 1.79475 5.09354
538 1 -14.9247 1.36032 5.24438
539 1 -14.6526 -0.0221741 5.40656
375 1 -7.46611 4.88349 0.144232
376 1 -6.1297 4.81893 0.543966
632 1 -5.87785 4.47884 1.89677
371 1 -9.86661 4.7969 0.653001
373 1 -8.52439 4.71149 1.0755
628 1 -8.27779 4.2753 2.38152
630 1 -6.93356 4.10873 2.76909
631 1 -6.67237 3.24181 3.86221
369 1 -10.9446 4.59975 1.52886
624 1 -10.6887 4.10477 2.84693
626 1 -9.34602 3.88645 3.22728
627 1 -9.07447 2.91145 4.22505
629 1 -7.75488 2.5163 4.52217
547 1 -7.45944 1.27809 5.14853
549 1 -6.12452 0.824192 5.15286
622 1 -11.7177 3.73232 3.75546
623 1 -11.4652 2.6525 4.60412
625 1 -10.1471 2.22514 4.79863
544 1 -9.8886 0.880262 5.26894
545 1 -8.49542 0.369707 5.29708
542 1 -10.9651 -0.025215 5.19815
635 1 -4.52719 4.22846 2.28553
636 1 -4.23352 3.55799 3.47639
633 1 -5.31045 2.92572 4.12809
634 1 -5.04892 1.70958 4.84034
391 1 3.71409 5.04985 0.0719236
387 1 1.3329 4.91212 0.472638
389 1 2.64601 4.86367 0.929904
648 1 2.9435 4.30297 2.20489
383 1 -1.02881 4.70728 0.949808
385 1 0.280285 4.63811 1.40675
644 1 0.552683 3.96468 2.62265
646 1 1.89404 3.77248 2.964
647 1 2.11901 2.77359 3.97016
649 1 3.48473 2.45932 4.29499
561 1 3.74735 1.25837 4.93389
379 1 -3.736 4.87649 0.085188
380 1 -3.44942 4.55986 1.42992
639 1 -2.09271 4.39521 1.82378
640 1 -1.84655 3.69864 3.011
642 1 -0.525381 3.45402 3.35203
643 1 -0.248958 2.40766 4.19557
645 1 1.03833 2.03157 4.49297
558 1 1.34645 0.827414 5.11394
559 1 2.71862 0.384419 5.28959
637 1 -2.90353 3.20263 3.776
638 1 -2.66789 2.05943 4.5521
641 1 -1.33331 1.63949 4.76625
555 1 -1.05561 0.331059 5.17032
556 1 0.253365 -0.0776632 5.21597
552 1 -3.69492 1.25512 4.99287
553 1 -3.47251 -0.0858917 5.31104
392 1 5.05922 4.98968 0.539609
652 1 5.29134 4.50936 1.83733
650 1 4.24007 4.04993 2.62215
651 1 4.51211 3.16145 3.69417
563 1 5.05911 0.823542 5.11753
399 1 10.1665 4.90331 1.00285
401 1 11.5228 4.77173 1.41485
664 1 11.7699 4.22081 2.61976
395 1 7.52714 5.12356 0.146088
396 1 7.75615 4.74115 1.46738
659 1 9.11674 4.6217 1.86746
660 1 9.39879 3.9632 3.05239
662 1 10.7366 3.6962 3.45572
663 1 10.9866 2.6218 4.32472
655 1 6.64789 4.3296 2.24337
656 1 6.91086 3.52881 3.36805
657 1 8.27162 3.26213 3.72121
658 1 8.52696 2.12946 4.53368
661 1 9.87033 1.78931 4.74795
569 1 10.1274 0.466566 5.18608
570 1 11.4832 0.0106584 5.16932
653 1 5.8586 2.81134 4.0219
654 1 6.11164 1.69511 4.83872
566 1 7.45656 1.28309 4.97309
567 1 7.77457 -0.028273 5.33194
407 1 14.9198 4.99016 0.0341554
408 1 16.2693 4.97243 0.515634
672 1 16.5906 4.66537 1.83309
403 1 12.5704 4.99269 0.526145
405 1 13.8986 4.90276 0.969143
668 1 14.1465 4.46791 2.24647
670 1 15.5045 4.27353 2.63257
671 1 15.747 3.31692 3.67891
666 1 13.088 3.95631 3.03348
667 1 13.3356 3.00472 4.06042
669 1 14.7105 2.63226 4.31835
575 1 14.9857 1.43251 4.98185
577 1 16.3703 0.948728 5.15021
665 1 12.29 2.22408 4.52495
572 1 12.5455 0.932338 5.06573
573 1 13.9154 0.491473 5.12954
411 1 18.7256 5.02031 0.135517
412 1 18.9964 4.73667 1.52105
675 1 17.908 4.3426 2.31022
676 1 18.1549 3.59469 3.45183
677 1 19.5111 3.25207 3.8023
678 1 19.7975 2.12316 4.53222
673 1 17.0686 2.95278 4.03936
674 1 17.4022 1.76832 4.77068
580 1 18.7393 1.2575 4.90001
581 1 19.051 -0.0653286 5.30702
423 1 26.2426 5.06654 0.217763
424 1 27.602 5.136 0.696
692 1 27.87 4.766 2.037
419 1 23.8037 5.00131 0.655257
421 1 25.1735 4.92263 1.09041
688 1 25.4937 4.497 2.37603
690 1 26.8168 4.37276 2.81879
691 1 27.1509 3.41425 3.80222
415 1 21.391 4.98246 1.13067
417 1 22.7173 4.85244 1.56077
684 1 23.0246 4.22795 2.78966
686 1 24.3913 3.97781 3.1163
687 1 24.6927 3.05016 4.11049
689 1 26.0862 2.66628 4.38156
589 1 26.3198 1.3646 4.90011
591 1 27.602 0.925 5.1
679 1 20.3458 4.54032 1.94276
680 1 20.5899 3.86278 3.12574
682 1 21.9841 3.60188 3.48386
683 1 22.2768 2.54553 4.35746
685 1 23.6432 2.26229 4.60835
586 1 23.9398 0.967408 5.14202
587 1 25.2499 0.500091 5.06903
681 1 21.2035 1.72388 4.71173
583 1 21.5039 0.46914 5.24912
584 1 22.874 0.0162297 5.27803
ITEM: TIMESTEP
1700
ITEM: NUMBER OF ATOMS
692
ITEM: BOX BOUNDS ff ff ff
-6.0000000000000000e+01 6.0000000000000000e+01
-4.0000000000000000e+01 4.0000000000000000e+01
-4.0000000000000000e+01 4.0000000000000000e+01
ITEM: ATOMS id type x y z
275 1 -20.6618 -5.06592 -0.400972
276 1 -20.3456 -4.94407 -1.79573
271 1 -24.4025 -5.24467 -0.292275
272 1 -23.0645 -5.09488 -0.819733
8 1 -22.7338 -4.84776 -2.18781
11 1 -21.3911 -4.64286 -2.64224
12 1 -21.1211 -3.84135 -3.73819
267 1 -26.8555 -5.20221 -0.664948
269 1 -25.5292 -5.32945 -1.12731
6 1 -23.6969 -4.57414 -3.11239
7 1 -23.5651 -3.54766 -4.01355
9 1 -22.2369 -3.1059 -4.22101
10 1 -22.0082 -1.85677 -4.74609
108 1 -20.6549 -1.41836 -4.97646
265 1 -27.87 -4.93 -1.602
1 1 -27.602 -4.326 -2.855
3 1 -26.3806 -4.19602 -3.45703
4 1 -26.0821 -3.13544 -4.32631
5 1 -24.6925 -2.7885 -4.45741
103 1 -24.4143 -1.45049 -4.82707
105 1 -23.085 -0.952061 -4.95473
2 1 -27.1099 -2.30188 -4.80929
100 1 -26.7767 -0.914001 -5.03894
101 1 -25.4473 -0.487646 -4.94673
279 1 -18.0128 -4.91914 -1.24959
15 1 -19.036 -4.72553 -2.16648
16 1 -18.7242 -4.06635 -3.362
18 1 -17.4004 -3.77199 -3.72886
19 1 -17.125 -2.67122 -4.53073
13 1 -19.808 -3.4344 -4.01461
14 1 -19.5515 -2.29004 -4.77461
17 1 -18.2012 -1.83072 -4.89557
111 1 -18.0163 -0.46297 -5.162
287 1 -13.1282 -4.96216 -0.344903
283 1 -15.6095 -4.98589 -0.812654
285 1 -14.2101 -4.88316 -1.2231
24 1 -13.908 -4.52265 -2.59196
26 1 -12.5735 -4.21224 -2.92607
27 1 -12.2914 -3.2797 -3.94338
281 1 -16.6519 -4.83889 -1.71442
20 1 -16.3114 -4.28901 -2.9698
22 1 -14.9721 -3.9945 -3.32054
23 1 -14.7042 -2.93934 -4.18924
25 1 -13.3659 -2.52377 -4.45447
117 1 -13.1388 -1.27826 -5.02699
21 1 -15.8115 -2.23905 -4.72846
114 1 -15.6189 -0.921304 -5.19852
115 1 -14.2843 -0.423322 -5.27957
295 1 -6.73248 -4.81428 -1.12338
291 1 -9.35673 -5.03754 -0.225832
292 1 -9.07968 -4.69129 -1.55178
35 1 -7.74433 -4.46967 -1.96768
36 1 -7.50524 -3.74041 -3.13235
38 1 -6.16641 -3.48717 -3.47134
39 1 -5.95198 -2.56272 -4.47613
288 1 -11.7923 -4.98769 -0.793385
28 1 -11.5116 -4.64325 -2.1171
31 1 -10.1588 -4.35244 -2.42717
32 1 -9.89767 -3.58337 -3.59613
33 1 -8.58096 -3.20995 -3.85841
34 1 -8.3321 -2.11017 -4.6231
37 1 -7.01383 -1.72794 -4.87263
125 1 -6.78905 -0.386532 -5.31286
29 1 -10.9674 -2.92096 -4.25409
30 1 -10.6698 -1.69506 -4.88521
122 1 -9.34449 -1.21037 -4.9601
119 1 -11.7948 -0.851014 -5.06099
299 1 -4.30028 -4.97402 -0.59482
297 1 -5.36654 -4.67587 -1.50809
40 1 -5.05677 -4.03155 -2.74179
41 1 -4.63888 -2.13077 -4.69799
128 1 -4.37956 -0.826889 -5.1147
307 1 1.88059 -4.97222 -0.082143
308 1 2.12628 -4.81841 -1.46822
55 1 3.44033 -4.69695 -1.93276
56 1 3.7339 -3.93283 -3.08613
303 1 -1.97206 -5.17893 -0.08461
304 1 -0.565267 -5.08133 -0.526722
48 1 -0.283489 -4.66504 -1.83708
51 1 1.0275 -4.45818 -2.24551
52 1 1.30615 -3.53035 -3.3251
53 1 2.65708 -3.21097 -3.67606
54 1 2.92759 -2.04607 -4.4006
301 1 -3.00975 -4.92898 -1.01705
44 1 -2.67347 -4.33537 -2.27012
46 1 -1.32994 -4.16158 -2.6908
47 1 -1.0849 -3.1829 -3.70662
49 1 0.272058 -2.80473 -3.89318
50 1 0.487887 -1.62203 -4.63685
136 1 1.83174 -1.21756 -4.73626
42 1 -3.73525 -3.77032 -3.04329
43 1 -3.5251 -2.82512 -4.07697
45 1 -2.16387 -2.45702 -4.29946
131 1 -1.90339 -1.24547 -4.94958
133 1 -0.593394 -0.782831 -5.05112
129 1 -3.03589 -0.3794 -5.20928
311 1 4.5422 -5.03189 -1.11737
58 1 5.05126 -3.59867 -3.47178
59 1 5.34914 -2.53274 -4.28522
57 1 4.28905 -1.63395 -4.63195
139 1 4.57808 -0.295214 -5.02314
319 1 9.43197 -5.17156 -0.222248
320 1 10.7639 -5.11867 -0.73396
68 1 11.0604 -4.96096 -2.16357
315 1 6.99358 -5.14275 -0.690287
317 1 8.33184 -5.14767 -1.15931
64 1 8.58892 -4.65477 -2.52089
66 1 9.95548 -4.42041 -2.95553
67 1 10.1869 -3.52244 -4.03951
69 1 11.5269 -3.11916 -4.30013
70 1 11.7997 -1.84636 -4.77807
313 1 5.9025 -4.79075 -1.56301
60 1 6.14703 -4.18037 -2.80163
62 1 7.50352 -4.00717 -3.21296
63 1 7.7863 -2.97535 -4.18316
65 1 9.13403 -2.69208 -4.52217
145 1 9.42704 -1.36697 -4.89109
147 1 10.7577 -0.914155 -4.93114
61 1 6.67564 -2.18674 -4.5833
142 1 7.0059 -0.851444 -4.98931
143 1 8.3304 -0.42196 -5.0202
157 1 19.594 -0.384691 -5.52933
156 1 18.2887 -0.886883 -5.40111
80 1 18.0312 -2.15051 -4.85431
327 1 15.8831 -4.83993 -1.18033
323 1 13.1989 -5.05512 -0.294945
324 1 13.4837 -4.99426 -1.69344
74 1 14.8379 -4.66879 -2.10305
75 1 15.1363 -4.05295 -3.36148
77 1 16.4328 -3.58763 -3.6603
78 1 16.6795 -2.54768 -4.54229
71 1 12.4247 -4.9879 -2.64103
72 1 14.0898 -3.5312 -4.13281
73 1 14.2729 -2.28914 -4.79168
76 1 15.5633 -1.80211 -4.93991
153 1 15.8504 -0.431098 -5.14983
150 1 13.1379 -1.41734 -4.88341
331 1 18.2654 -4.83445 -0.690052
333 1 19.6218 -4.72113 -1.12211
83 1 19.8946 -4.3196 -2.44265
329 1 17.2114 -4.64084 -1.61414
79 1 17.4906 -4.0453 -2.88771
81 1 18.8305 -3.77469 -3.23268
82 1 19.0988 -2.95463 -4.34448
160 1 22.1129 -0.703915 -6.4445
343 1 27.0422 -4.93944 -1.1619
339 1 24.3577 -4.81108 -0.185519
340 1 24.6174 -4.64231 -1.56154
93 1 25.9649 -4.62177 -1.98859
94 1 26.2473 -4.00108 -3.22156
96 1 27.602 -3.746 -3.582
97 1 27.87 -2.658 -4.45
335 1 20.6905 -4.90114 -0.174714
336 1 22.0089 -4.78459 -0.618439
87 1 22.2806 -4.51333 -1.98661
89 1 23.576 -4.34134 -2.44729
90 1 23.8445 -3.67285 -3.67144
91 1 25.188 -3.39796 -4.01509
92 1 25.4898 -2.27305 -4.77668
95 1 26.8031 -1.8722 -4.96667
166 1 27.1113 -0.515389 -5.33825
85 1 21.1799 -4.17762 -2.8695
86 1 21.4106 -3.53843 -4.10636
88 1 22.7205 -3.18678 -4.40905
84 1 20.3723 -2.93949 -4.88599
163 1 24.5261 -1.40105 -5.26959
107 1 -21.511 0.869414 -4.95936
178 1 -21.2262 2.20257 -4.56292
104 1 -23.8813 1.32283 -4.87581
174 1 -23.5877 2.6325 -4.37427
176 1 -22.2616 2.97411 -4.06472
177 1 -21.9704 3.96635 -3.14191
179 1 -20.6233 4.18435 -2.76937
356 1 -20.3777 4.81107 -1.54448
98 1 -27.87 0 -5.183
99 1 -27.602 1.379 -4.996
169 1 -26.257 1.75396 -4.75427
170 1 -25.9974 3.02037 -4.2472
172 1 -24.6889 3.4071 -3.89757
173 1 -24.3837 4.34865 -2.91194
175 1 -23.0342 4.59474 -2.48122
352 1 -22.7394 5.05238 -1.19636
354 1 -21.4342 5.08855 -0.680208
167 1 -27.052 3.76002 -3.69288
168 1 -26.8313 4.57768 -2.51403
171 1 -25.474 4.74272 -2.06555
349 1 -25.2167 5.09037 -0.717193
350 1 -23.8521 5.15 -0.293536
345 1 -27.87 4.93 -1.602
346 1 -27.602 5.178 -0.233
109 1 -20.4192 -0.0412744 -5.1312
106 1 -22.8466 0.433208 -4.99379
102 1 -25.1754 0.873541 -4.92317
110 1 -19.1013 0.42141 -5.17016
182 1 -18.8248 1.78077 -4.89833
185 1 -17.458 2.18365 -4.74064
186 1 -17.2179 3.2862 -3.88072
180 1 -19.8957 2.57394 -4.47078
181 1 -19.6013 3.63335 -3.5909
183 1 -18.2562 3.92954 -3.17721
184 1 -17.9766 4.57694 -1.9679
358 1 -19.0299 4.86703 -1.1101
118 1 -12.618 1.38466 -4.98616
194 1 -12.3247 2.6954 -4.49753
112 1 -16.6582 0.0270366 -5.24299
113 1 -16.3763 1.39148 -5.08232
189 1 -15.0225 1.85108 -4.97484
190 1 -14.7608 3.06686 -4.21935
192 1 -13.3933 3.43561 -3.94329
193 1 -13.134 4.34689 -2.90085
187 1 -15.843 3.67764 -3.56559
188 1 -15.5621 4.43575 -2.40494
191 1 -14.2081 4.65789 -2.00972
365 1 -13.9 4.93275 -0.679441
366 1 -12.5967 4.90088 -0.174808
361 1 -16.6186 4.71343 -1.5427
362 1 -16.35 5.02933 -0.20444
116 1 -13.9587 0.963187 -5.20529
124 1 -7.81068 0.617977 -5.30894
202 1 -7.56985 1.98813 -5.1486
205 1 -6.25938 2.41938 -4.99548
206 1 -5.94434 3.515 -4.18588
121 1 -10.2046 1.016 -5.18412
198 1 -9.93732 2.33518 -4.8059
200 1 -8.60679 2.77438 -4.67486
201 1 -8.36818 3.76306 -3.70395
203 1 -6.99717 4.01996 -3.40269
204 1 -6.71167 4.58857 -2.09639
196 1 -11.0047 3.11756 -4.25479
197 1 -10.7458 4.09988 -3.3174
199 1 -9.39934 4.2813 -2.89138
372 1 -9.107 4.74217 -1.59462
374 1 -7.75754 4.87676 -1.20226
195 1 -11.7859 4.53525 -2.46072
368 1 -11.5367 4.8683 -1.10554
370 1 -10.1608 4.83291 -0.714868
123 1 -9.10279 0.123728 -5.20619
120 1 -11.543 0.525342 -5.22179
126 1 -5.47581 0.0863668 -5.33448
127 1 -5.23367 1.51282 -5.37014
207 1 -4.61407 3.81196 -3.73963
208 1 -4.30654 4.41245 -2.51269
377 1 -5.35339 4.64716 -1.62268
378 1 -5.05994 4.88871 -0.304423
138 1 3.48177 0.588554 -5.06221
220 1 3.8132 1.9148 -5.01272
135 1 1.03808 1.06091 -5.19811
217 1 1.28144 2.49201 -5.11487
219 1 3.01686 4.1334 -3.79361
132 1 -1.44097 1.51997 -5.27082
213 1 -1.13787 2.83912 -4.88185
215 1 0.229429 3.24084 -4.58505
216 1 0.54888 4.10815 -3.47974
218 1 1.86896 4.35715 -3.03731
388 1 2.13933 4.77381 -1.71827
390 1 3.44567 4.92646 -1.22515
209 1 -3.88284 1.8709 -5.46041
211 1 -2.05829 3.65456 -4.31547
212 1 -1.85633 4.43997 -3.09282
214 1 -0.514715 4.57631 -2.65917
384 1 -0.273219 4.8319 -1.28714
386 1 1.05974 4.85336 -0.830622
210 1 -2.93674 4.5925 -2.17717
381 1 -2.67566 4.76391 -0.831936
382 1 -1.3582 4.75219 -0.361949
137 1 2.10847 0.120047 -5.06024
134 1 -0.325536 0.600791 -5.27369
130 1 -2.76019 0.998643 -5.37513
223 1 5.16222 2.35527 -4.79328
224 1 5.43789 3.52972 -4.0467
221 1 4.36902 4.17728 -3.33518
222 1 4.55523 4.73428 -2.06918
146 1 9.94513 1.432 -4.86472
232 1 10.1969 2.69466 -4.27615
234 1 11.5622 3.03488 -4.01353
235 1 11.8899 4.08991 -3.16919
140 1 5.95098 0.0915341 -5.17427
141 1 6.25547 1.43961 -5.06774
227 1 7.56598 1.91613 -4.84156
228 1 7.82934 3.18301 -4.21607
230 1 9.1376 3.49957 -3.82309
231 1 9.42943 4.51248 -2.88512
233 1 10.8172 4.69241 -2.42799
400 1 11.0278 5.20197 -1.16064
225 1 6.77083 3.92751 -3.6512
226 1 7.01295 4.82443 -2.60404
229 1 8.35393 4.95269 -2.10797
397 1 8.58262 5.2182 -0.696273
398 1 9.94106 5.23986 -0.247593
393 1 5.89507 5.07569 -1.71504
394 1 6.1563 5.18549 -0.343265
148 1 10.9791 0.486034 -4.90283
144 1 8.61465 0.977844 -4.97068
158 1 19.8927 0.940396 -5.43425
152 1 14.7294 0.411594 -5.06146
240 1 15.0436 1.78312 -4.77058
243 1 16.4025 2.25065 -4.67576
244 1 16.6969 3.42726 -3.90604
149 1 12.3442 0.866092 -4.77261
236 1 12.647 2.20178 -4.42286
238 1 13.9649 2.60506 -4.32492
239 1 14.2837 3.72624 -3.54302
241 1 15.6406 4.08837 -3.27574
242 1 15.889 4.80531 -2.08421
237 1 13.2166 4.31927 -2.8644
404 1 13.4664 5.0115 -1.66442
406 1 14.7937 5.19383 -1.23902
402 1 12.3825 5.16164 -0.723941
151 1 13.3906 -0.0661991 -4.97162
154 1 17.1969 0.0330186 -5.33937
155 1 17.5206 1.42795 -5.13768
247 1 18.8492 1.81222 -5.02936
248 1 19.0869 2.96688 -4.23319
245 1 18.0138 3.66044 -3.57828
246 1 18.2875 4.44285 -2.41982
249 1 19.6353 4.61607 -1.97556
413 1 19.8768 4.98328 -0.661509
409 1 17.2169 4.83379 -1.62343
410 1 17.4522 5.09148 -0.272619
161 1 22.2998 0.497861 -5.63502
165 1 26.071 0.467899 -5.243
260 1 26.2721 1.81278 -4.88962
263 1 27.602 2.249 -4.67
264 1 27.87 3.41 -3.903
162 1 23.6142 0.923027 -5.35366
256 1 23.8132 2.1446 -4.71663
258 1 25.1213 2.52908 -4.43004
259 1 25.4152 3.56729 -3.5582
261 1 26.7397 4.02735 -3.30927
262 1 26.9524 4.85262 -2.18939
159 1 21.2051 1.35651 -5.22892
252 1 21.4891 2.50761 -4.41261
254 1 22.7765 2.8634 -4.15996
255 1 23.0701 3.81937 -3.13037
257 1 24.3591 4.14578 -2.76369
420 1 24.6299 4.76383 -1.52174
422 1 25.9911 4.95619 -1.1845
250 1 20.4098 3.26279 -3.85065
251 1 20.6701 4.12067 -2.77842
253 1 21.9861 4.33934 -2.39941
416 1 22.293 4.8785 -1.12037
418 1 23.5993 4.99388 -0.667907
414 1 21.2128 4.96403 -0.198817
164 1 24.7579 -0.0168627 -5.35088
529 1 -22.0497 -1.34596 4.87054
438 1 -20.7188 -1.80365 4.7692
439 1 -20.4824 -3.0032 4.06939
526 1 -24.7084 -0.376035 5.26929
431 1 -24.4726 -1.71756 4.79036
434 1 -23.1195 -2.12326 4.54993
435 1 -22.847 -3.29555 3.77147
436 1 -21.5089 -3.63021 3.41317
437 1 -21.2171 -4.44104 2.26192
523 1 -27.0965 -0.879509 5.06294
427 1 -26.8213 -2.17334 4.60623
429 1 -25.5174 -2.48274 4.32937
430 1 -25.2649 -3.45835 3.38144
432 1 -23.9098 -3.82491 3.06207
433 1 -23.5951 -4.62766 1.91889
273 1 -22.2761 -4.7658 1.42938
274 1 -21.9836 -5.01142 0.0708042
425 1 -27.87 -3.047 4.193
426 1 -27.602 -4.052 3.232
428 1 -26.3125 -4.1625 2.74105
268 1 -26.0154 -4.88319 1.61059
270 1 -24.6923 -4.98801 1.09771
266 1 -27.0491 -5.15019 0.72473
536 1 -17.2446 -0.513733 5.28903
532 1 -19.643 -0.930308 5.12469
534 1 -18.3378 -1.39479 5.04155
443 1 -18.1547 -2.64688 4.4065
441 1 -19.1724 -3.3872 3.78597
442 1 -18.8131 -4.30918 2.73279
444 1 -17.4946 -4.48267 2.3399
280 1 -17.1992 -4.8713 1.02123
440 1 -19.9037 -4.61756 1.84185
277 1 -19.5794 -4.96136 0.531717
278 1 -18.274 -5.00103 0.110763
540 1 -13.456 -0.575466 5.22666
450 1 -13.0681 -1.89472 5.24923
537 1 -15.9104 -0.986898 5.24179
447 1 -15.7336 -2.309 4.79559
449 1 -13.9637 -3.80012 3.50196
451 1 -12.6141 -4.00107 3.25559
452 1 -12.3864 -4.50273 1.92119
445 1 -16.812 -3.01696 4.2065
446 1 -16.4339 -3.95281 3.15996
448 1 -15.0759 -4.20262 2.72301
284 1 -14.7763 -4.69722 1.45116
286 1 -13.4118 -4.7439 1.0159
282 1 -15.8533 -4.9283 0.580596
550 1 -5.90263 -0.482664 5.31403
546 1 -8.3108 -0.933658 5.132
548 1 -6.99548 -1.34698 5.07563
462 1 -6.70035 -2.59415 4.51802
543 1 -10.703 -1.37603 5.05707
457 1 -9.397 -1.77858 4.86793
458 1 -9.13213 -3.00345 4.19938
460 1 -7.75448 -3.29561 3.91085
461 1 -7.54514 -4.19469 2.84796
463 1 -6.20157 -4.43072 2.48984
296 1 -5.89868 -4.83145 1.19164
453 1 -11.7684 -2.31041 4.85739
454 1 -11.5316 -3.36191 3.9317
455 1 -10.1769 -3.62832 3.50253
456 1 -9.93117 -4.23356 2.30385
459 1 -8.59337 -4.48434 1.98441
293 1 -8.30241 -4.95608 0.708483
294 1 -6.95459 -5.00173 0.251894
289 1 -11.0564 -4.60235 1.47032
290 1 -10.7527 -4.97728 0.137244
551 1 -4.5654 -0.937068 5.26284
466 1 -4.31343 -2.25745 4.77154
464 1 -5.38483 -3.00985 4.25296
465 1 -5.1409 -3.98918 3.287
298 1 -4.52078 -4.92925 0.811754
560 1 2.95634 -0.99852 5.09361
557 1 0.583448 -1.47181 5.12293
477 1 1.90006 -1.92551 4.87573
478 1 2.20929 -3.16387 4.2825
480 1 3.57279 -3.55654 3.99988
481 1 3.82843 -4.44592 2.90427
554 1 -2.10243 -0.51469 5.33521
470 1 -1.81126 -1.87623 5.02723
473 1 -0.464952 -2.33039 4.80974
474 1 -0.233661 -3.5072 4.06943
475 1 1.10863 -3.8342 3.73383
476 1 1.34573 -4.56106 2.56592
479 1 2.707 -4.81136 2.12788
309 1 3.00081 -5.05416 0.76102
468 1 -2.96539 -2.68443 4.65161
469 1 -2.70399 -3.75332 3.79822
471 1 -1.34245 -4.0692 3.38216
472 1 -1.11094 -4.72415 2.19826
305 1 0.262999 -4.86273 1.74137
306 1 0.535173 -5.0911 0.390078
467 1 -3.79916 -4.27369 3.01224
300 1 -3.47431 -4.79055 1.72296
302 1 -2.21072 -5.00888 1.2899
564 1 5.39596 -0.634881 5.06866
562 1 4.33028 -1.47749 4.94587
482 1 4.62988 -2.75599 4.47224
483 1 5.16022 -4.63517 2.47382
312 1 5.40661 -5.05373 1.17979
310 1 4.33032 -5.16803 0.28221
571 1 11.8121 -1.3541 5.03073
568 1 9.14144 -0.524965 5.16799
490 1 9.39835 -1.86519 4.88246
493 1 10.7413 -2.21233 4.64477
494 1 11.0364 -3.37163 3.87802
565 1 6.74321 -1.05769 5.00588
486 1 7.05998 -2.32962 4.64437
488 1 8.38058 -2.73577 4.44214
489 1 8.63661 -3.75509 3.52662
491 1 9.98253 -3.99046 3.18267
492 1 10.2576 -4.6944 2.02034
321 1 11.5818 -4.78229 1.54491
322 1 11.8327 -5.06126 0.159643
484 1 5.95837 -3.12736 4.149
485 1 6.21136 -4.09772 3.19648
487 1 7.57643 -4.30553 2.79229
316 1 7.82113 -4.86407 1.55385
318 1 9.16052 -4.99192 1.14762
314 1 6.7251 -5.11617 0.71251
578 1 16.5738 -0.464567 5.42453
574 1 14.2008 -0.8797 5.31771
576 1 15.5684 -1.38615 5.15776
502 1 15.8248 -2.62218 4.46465
497 1 13.1669 -1.72729 4.92194
498 1 13.3933 -3.01092 4.28389
500 1 14.7608 -3.31742 3.95347
501 1 15.0088 -4.13234 2.84424
503 1 16.3362 -4.51618 2.51699
328 1 16.6545 -4.92388 1.22032
495 1 12.3528 -3.68445 3.58423
496 1 12.6398 -4.37967 2.4105
499 1 13.9576 -4.59686 2.01943
325 1 14.2523 -4.93896 0.640368
326 1 15.615 -5.01164 0.224712
579 1 17.91 -0.949293 5.35076
506 1 18.0956 -2.25624 4.82054
508 1 19.4159 -2.6908 4.62183
509 1 19.7901 -3.66257 3.7121
504 1 17.1056 -3.03663 4.27224
505 1 17.4071 -4.01149 3.31181
507 1 18.7467 -4.19751 2.93349
332 1 19.0288 -4.67151 1.61468
330 1 17.9986 -4.85063 0.731018
592 1 27.87 -0.465 5.162
588 1 25.4989 -0.92946 5.01748
590 1 26.8419 -1.37675 4.87405
521 1 27.1815 -2.68483 4.42721
585 1 23.1127 -1.36217 5.24455
516 1 24.4143 -1.80533 4.9535
517 1 24.7333 -3.09809 4.41456
519 1 26.0532 -3.54368 4.10135
520 1 26.2798 -4.32378 2.91729
522 1 27.602 -4.564 2.456
344 1 27.87 -5.053 1.153
582 1 20.3883 -0.373839 5.62052
512 1 22.1158 -2.31697 5.07029
513 1 22.2789 -3.3503 4.07228
514 1 23.5837 -3.69934 3.70614
515 1 23.8176 -4.48341 2.52413
518 1 25.1612 -4.62696 2.08507
341 1 25.4152 -4.8775 0.71047
342 1 26.7436 -5.03072 0.241414
510 1 21.1252 -3.91989 3.452
511 1 21.395 -4.56244 2.15733
337 1 22.7168 -4.65726 1.67286
338 1 23.0193 -4.7753 0.307822
334 1 20.3521 -4.80053 1.18389
355 1 -21.2212 5.09265 0.738591
351 1 -23.5943 4.93121 1.1202
353 1 -22.2536 4.78303 1.63373
604 1 -22.0101 4.23231 2.94702
606 1 -20.6635 4.0108 3.32834
607 1 -20.4085 3.05419 4.33153
347 1 -26.2729 5.15701 0.244623
348 1 -26.0025 4.89897 1.62621
599 1 -24.6882 4.62477 2.02479
600 1 -24.3972 4.00855 3.28671
602 1 -23.0746 3.77645 3.72385
603 1 -22.7967 2.71779 4.67297
605 1 -21.4817 2.30638 4.91549
530 1 -21.1535 0.985503 5.22352
595 1 -27.0998 4.6058 2.51853
596 1 -26.8016 3.77291 3.63715
597 1 -25.4514 3.46373 3.98557
598 1 -25.2031 2.35011 4.76887
601 1 -23.878 1.88273 5.08659
527 1 -23.6001 0.499423 5.34867
528 1 -22.2277 0.0102372 5.22242
593 1 -27.87 3.047 4.193
594 1 -27.602 1.821 4.853
524 1 -26.2334 1.46342 5.08246
525 1 -26.0447 0.0448268 5.31928
359 1 -18.7757 5.04415 0.286161
360 1 -17.4144 5.02564 0.765706
612 1 -17.1639 4.60969 2.07145
357 1 -19.9002 5.00344 1.22972
608 1 -19.6108 4.47365 2.48763
610 1 -18.2972 4.19931 2.87327
611 1 -18.0003 3.35354 3.95514
609 1 -19.0526 2.57006 4.50223
533 1 -18.8066 1.32147 5.05809
535 1 -17.4902 0.868681 5.23928
531 1 -19.8676 0.425783 5.24611
367 1 -12.2942 4.79401 1.16676
363 1 -15.0161 4.95622 0.217277
364 1 -14.7781 4.73491 1.56491
619 1 -13.4461 4.54085 2.02605
620 1 -13.1554 3.87061 3.22764
615 1 -15.8275 4.49467 2.49668
616 1 -15.5458 3.65604 3.62901
617 1 -14.2288 3.29178 3.92002
618 1 -13.9828 2.08569 4.646
621 1 -12.6546 1.65642 4.77789
541 1 -12.366 0.339352 5.20839
613 1 -16.677 3.0002 4.25541
614 1 -16.4098 1.74131 4.90627
538 1 -15.0799 1.26682 4.97688
539 1 -14.7844 -0.12061 5.2422
375 1 -7.50197 4.96595 0.150397
376 1 -6.16147 4.89787 0.607093
632 1 -5.84895 4.63337 1.99282
371 1 -9.88585 4.86778 0.675258
373 1 -8.50742 4.87313 1.12777
628 1 -8.29557 4.45779 2.44205
630 1 -6.90984 4.24129 2.81209
631 1 -6.65149 3.36154 3.91546
369 1 -10.9666 4.74128 1.63988
624 1 -10.6913 4.16118 2.89087
626 1 -9.34175 4.00877 3.3001
627 1 -9.09327 3.03605 4.256
629 1 -7.7373 2.6265 4.50491
547 1 -7.5175 1.32596 4.99391
549 1 -6.1948 0.888905 5.17002
622 1 -11.7997 3.63894 3.59648
623 1 -11.5638 2.54237 4.4385
625 1 -10.1949 2.24942 4.71018
544 1 -9.9371 0.891697 5.09268
545 1 -8.56065 0.452203 5.19167
542 1 -10.9933 -0.0316284 5.2703
635 1 -4.51615 4.37176 2.42658
636 1 -4.22139 3.60764 3.55717
633 1 -5.31946 2.93837 4.23893
634 1 -5.07183 1.70333 4.90875
391 1 3.74282 4.98231 0.130033
387 1 1.31024 4.88968 0.513433
389 1 2.65932 4.77231 0.981809
648 1 2.96873 4.37253 2.29381
383 1 -1.04744 4.63768 1.0179
385 1 0.272356 4.72438 1.43703
644 1 0.533503 4.17923 2.72175
646 1 1.91579 3.87718 3.09978
647 1 2.17629 2.92222 4.11783
649 1 3.55995 2.56773 4.37353
561 1 3.8329 1.27506 4.96606
379 1 -3.69966 4.83256 0.161971
380 1 -3.42006 4.64329 1.55632
639 1 -2.04687 4.47058 1.95984
640 1 -1.79879 3.82992 3.13584
642 1 -0.486054 3.53929 3.45701
643 1 -0.217429 2.48077 4.33625
645 1 1.11175 2.12728 4.59586
558 1 1.38497 0.842781 5.08552
559 1 2.72921 0.41559 5.15142
637 1 -2.87542 3.30102 3.90296
638 1 -2.6533 2.12385 4.65606
641 1 -1.28107 1.72592 4.83372
555 1 -1.02637 0.384992 5.26453
556 1 0.326554 -0.059379 5.30682
552 1 -3.72987 1.25208 5.05188
553 1 -3.43268 -0.0837464 5.38652
392 1 5.11275 5.02652 0.586506
652 1 5.39713 4.6783 1.92957
650 1 4.32377 4.20185 2.72157
651 1 4.60636 3.33218 3.77814
563 1 5.11722 0.750091 5.02751
399 1 10.2392 4.95718 1.09128
401 1 11.5922 4.88987 1.54661
664 1 11.8552 4.23216 2.786
395 1 7.47948 5.14074 0.161002
396 1 7.76416 4.79532 1.49541
659 1 9.14149 4.6428 1.91243
660 1 9.41667 3.96459 3.11101
662 1 10.7383 3.60534 3.46795
663 1 11.0179 2.55759 4.44182
655 1 6.72036 4.41422 2.36015
656 1 6.95481 3.63315 3.47459
657 1 8.32523 3.35571 3.80676
658 1 8.62591 2.18744 4.66522
661 1 9.9673 1.73323 4.888
569 1 10.2006 0.431591 5.27011
570 1 11.5243 -0.0130253 5.32031
653 1 5.91102 2.89092 4.05502
654 1 6.21578 1.64325 4.77554
566 1 7.55666 1.28389 4.98129
567 1 7.78773 -0.0883224 5.14012
407 1 15.0703 5.13049 0.178618
408 1 16.4115 5.09093 0.658678
672 1 16.6886 4.65957 1.96683
403 1 12.6743 5.07838 0.652536
405 1 14.0272 4.90413 1.1019
668 1 14.2688 4.42193 2.41035
670 1 15.6159 4.20418 2.8238
671 1 15.8567 3.32447 3.86821
666 1 13.1877 3.93538 3.18108
667 1 13.4145 2.97953 4.18432
669 1 14.7687 2.57944 4.44809
575 1 15.0457 1.34232 5.06639
577 1 16.3762 0.913069 5.29565
665 1 12.3618 2.194 4.7303
572 1 12.6077 0.918038 5.23487
573 1 13.952 0.479733 5.34613
411 1 18.8001 5.03943 0.213791
412 1 19.0835 4.82328 1.59281
675 1 18.046 4.38415 2.40773
676 1 18.2507 3.56626 3.49521
677 1 19.6123 3.20455 3.75224
678 1 19.8633 2.16919 4.63234
673 1 17.1535 2.94757 4.1521
674 1 17.4141 1.78145 4.91695
580 1 18.7945 1.33089 5.06041
581 1 19.0389 -0.0411031 5.41563
423 1 26.3123 5.08721 0.172366
424 1 27.602 5.136 0.696
692 1 27.87 4.766 2.037
419 1 23.9145 4.96771 0.700509
421 1 25.2953 4.88657 1.06947
688 1 25.492 4.37233 2.32767
690 1 26.7896 4.22007 2.76678
691 1 27.0144 3.30506 3.75453
415 1 21.4885 4.81121 1.14804
417 1 22.8329 4.76258 1.57569
684 1 23.0872 4.22143 2.7773
686 1 24.4087 3.92489 3.10245
687 1 24.6489 2.99165 4.11422
689 1 25.9989 2.61617 4.32161
589 1 26.2569 1.34999 4.96603
591 1 27.602 0.925 5.1
679 1 20.427 4.55655 2.03868
680 1 20.6676 3.81626 3.14216
682 1 22.0174 3.64164 3.50453
683 1 22.263 2.59017 4.45684
685 1 23.6301 2.22538 4.63999
586 1 23.8928 0.915703 5.1243
587 1 25.1751 0.411396 5.03144
681 1 21.1895 1.79423 4.88356
583 1 21.4567 0.504419 5.43406
584 1 22.8257 0.0496323 5.42887
ITEM: TIMESTEP
1800
ITEM: NUMBER OF ATOMS
692
ITEM: BOX BOUNDS ff ff ff
-6.0000000000000000e+01 6.0000000000000000e+01
-4.0000000000000000e+01 4.0000000000000000e+01
-4.0000000000000000e+01 4.0000000000000000e+01
ITEM: ATOMS id type x y z
275 1 -20.6173 -5.02826 -0.186997
276 1 -20.3363 -4.83172 -1.48563
271 1 -24.429 -5.398 -0.182543
272 1 -23.0947 -5.21163 -0.623815
8 1 -22.7404 -4.82099 -1.92859
11 1 -21.3934 -4.54878 -2.35117
12 1 -21.1021 -3.73394 -3.48485
267 1 -26.8225 -5.14971 -0.696928
269 1 -25.5385 -5.4919 -1.04855
6 1 -23.7599 -4.36681 -2.75509
7 1 -23.5256 -3.37103 -3.75296
9 1 -22.1983 -2.97447 -4.01673
10 1 -21.9953 -1.79141 -4.67625
108 1 -20.6424 -1.40951 -4.81587
265 1 -27.87 -4.93 -1.602
1 1 -27.602 -4.326 -2.855
3 1 -26.3103 -4.08555 -3.26704
4 1 -25.9894 -2.99902 -4.13318
5 1 -24.6333 -2.62587 -4.27735
103 1 -24.3835 -1.40834 -4.8788
105 1 -23.0402 -0.946234 -4.98055
2 1 -27.0555 -2.30976 -4.77796
100 1 -26.8027 -0.953613 -5.09035
101 1 -25.4463 -0.510526 -5.1317
279 1 -17.8796 -4.90747 -1.08167
15 1 -18.982 -4.71202 -1.93713
16 1 -18.6973 -4.08591 -3.1847
18 1 -17.3381 -3.78363 -3.4893
19 1 -17.1104 -2.70115 -4.36931
13 1 -19.7663 -3.43382 -3.82724
14 1 -19.5534 -2.25342 -4.54674
17 1 -18.1997 -1.87167 -4.73854
111 1 -17.9237 -0.502861 -5.01219
287 1 -13.0702 -4.96522 -0.127589
283 1 -15.4514 -4.8581 -0.621084
285 1 -14.1351 -4.81346 -1.09568
24 1 -13.8437 -4.41258 -2.37918
26 1 -12.5318 -4.20985 -2.76587
27 1 -12.2785 -3.47524 -3.95113
281 1 -16.5589 -4.75788 -1.5167
20 1 -16.253 -4.26734 -2.78194
22 1 -14.9482 -4.01184 -3.14341
23 1 -14.7393 -3.11881 -4.18534
25 1 -13.3947 -2.81506 -4.53283
117 1 -13.1497 -1.53422 -5.10563
21 1 -15.7861 -2.32918 -4.58128
114 1 -15.5416 -1.01854 -4.97851
115 1 -14.2208 -0.591593 -5.18178
295 1 -6.68139 -4.8227 -1.16009
291 1 -9.31827 -5.06422 -0.276829
292 1 -9.07411 -4.78856 -1.60886
35 1 -7.76534 -4.64188 -2.03783
36 1 -7.55001 -3.99169 -3.26509
38 1 -6.1928 -3.65659 -3.60305
39 1 -5.87923 -2.56253 -4.44602
288 1 -11.7602 -4.94779 -0.574212
28 1 -11.499 -4.64305 -1.9251
31 1 -10.1496 -4.42696 -2.38334
32 1 -9.89475 -3.67283 -3.56934
33 1 -8.593 -3.39984 -3.96591
34 1 -8.24396 -2.31192 -4.76168
37 1 -6.95331 -1.77213 -4.85211
125 1 -6.7378 -0.411001 -5.00031
29 1 -10.924 -3.07214 -4.21934
30 1 -10.678 -1.91628 -4.91619
122 1 -9.33903 -1.49482 -5.10474
119 1 -11.7932 -1.0402 -5.15547
299 1 -4.27706 -4.91055 -0.689617
297 1 -5.34329 -4.66694 -1.58617
40 1 -5.11388 -4.1505 -2.85093
41 1 -4.55032 -2.11227 -4.5527
128 1 -4.32108 -0.809515 -4.97337
307 1 1.80944 -5.15671 -0.278618
308 1 2.14539 -4.83396 -1.6178
55 1 3.4908 -4.65191 -2.05255
56 1 3.76608 -3.86017 -3.20678
303 1 -1.83285 -5.13427 -0.307866
304 1 -0.496079 -5.04351 -0.790144
48 1 -0.254957 -4.53136 -2.0984
51 1 1.05692 -4.35811 -2.49154
52 1 1.35664 -3.55635 -3.58107
53 1 2.67471 -3.1644 -3.79864
54 1 2.95129 -1.98794 -4.54715
301 1 -2.91592 -4.88561 -1.16396
44 1 -2.66404 -4.43554 -2.49046
46 1 -1.35402 -4.07399 -2.87494
47 1 -1.03131 -3.09493 -3.83577
49 1 0.3193 -2.80954 -4.13151
50 1 0.587394 -1.59148 -4.76748
136 1 1.87885 -1.12689 -4.94772
42 1 -3.74703 -3.90242 -3.20573
43 1 -3.45449 -2.83985 -4.10231
45 1 -2.13245 -2.3999 -4.37134
131 1 -1.85514 -1.13171 -4.91639
133 1 -0.487075 -0.751481 -5.05509
129 1 -2.96742 -0.316614 -5.03859
311 1 4.52227 -5.07808 -1.19484
58 1 5.1011 -3.58791 -3.50515
59 1 5.36008 -2.48401 -4.30384
57 1 4.30201 -1.61073 -4.71755
139 1 4.57272 -0.273552 -5.05975
319 1 9.39485 -5.24592 -0.206519
320 1 10.7572 -5.15528 -0.658804
68 1 10.9674 -4.8803 -2.04986
315 1 6.94826 -5.23531 -0.745877
317 1 8.31639 -5.07548 -1.13993
64 1 8.61797 -4.56793 -2.44938
66 1 9.91137 -4.34088 -2.87258
67 1 10.1592 -3.37645 -3.85706
69 1 11.439 -3.06431 -4.27251
70 1 11.8163 -1.78793 -4.7565
313 1 5.89336 -4.97154 -1.64743
60 1 6.1487 -4.27441 -2.83011
62 1 7.50772 -3.97313 -3.12317
63 1 7.77409 -2.86543 -4.0307
65 1 9.10628 -2.5382 -4.31272
145 1 9.40595 -1.31004 -4.96425
147 1 10.7488 -0.910281 -5.07379
61 1 6.69683 -2.09423 -4.49789
142 1 6.97233 -0.804955 -4.96507
143 1 8.36403 -0.359664 -5.10429
157 1 19.5456 -0.521742 -5.23612
156 1 18.2502 -0.991908 -5.10238
80 1 17.9649 -2.36448 -4.83644
327 1 15.8448 -5.00347 -1.17771
323 1 13.1477 -5.13922 -0.221207
324 1 13.4021 -4.94003 -1.57113
74 1 14.7258 -4.76453 -2.06354
75 1 15.0356 -4.08594 -3.29224
77 1 16.3651 -3.71075 -3.60699
78 1 16.6369 -2.65096 -4.47163
71 1 12.3065 -4.78127 -2.46829
72 1 13.9737 -3.54356 -4.08367
73 1 14.2292 -2.28565 -4.70563
76 1 15.5206 -1.8417 -4.78797
153 1 15.8446 -0.48741 -5.05525
150 1 13.1605 -1.43172 -4.96128
331 1 18.2369 -4.8426 -0.649287
333 1 19.5344 -4.69079 -1.10757
83 1 19.8117 -4.41015 -2.47526
329 1 17.1666 -4.71742 -1.57214
79 1 17.4425 -4.2498 -2.86943
81 1 18.7601 -4.04084 -3.31381
82 1 19.0786 -3.21308 -4.46071
160 1 22.0678 -0.505959 -6.20909
343 1 27.0094 -5.0827 -1.20137
339 1 24.366 -4.94881 -0.20946
340 1 24.6387 -4.7229 -1.60342
93 1 25.9255 -4.69254 -2.06318
94 1 26.2244 -3.98001 -3.25402
96 1 27.602 -3.746 -3.582
97 1 27.87 -2.658 -4.45
335 1 20.6364 -4.90504 -0.246202
336 1 21.9565 -4.82282 -0.71267
87 1 22.2012 -4.56775 -2.07429
89 1 23.5633 -4.3662 -2.49207
90 1 23.7864 -3.65644 -3.69804
91 1 25.1418 -3.3248 -3.95525
92 1 25.441 -2.19097 -4.72164
95 1 26.8101 -1.80765 -4.83919
166 1 27.0346 -0.439838 -5.13004
85 1 21.1561 -4.28057 -2.92541
86 1 21.4586 -3.5299 -4.10242
88 1 22.7676 -3.22143 -4.44967
84 1 20.4223 -2.98792 -4.86305
163 1 24.4352 -1.23217 -5.05342
107 1 -21.4019 0.891168 -5.03978
178 1 -21.1304 2.17679 -4.62376
104 1 -23.8162 1.27612 -4.8949
174 1 -23.5634 2.54398 -4.35265
176 1 -22.2126 2.95695 -4.12248
177 1 -21.9763 3.91862 -3.14295
179 1 -20.6801 4.18944 -2.76368
356 1 -20.3981 4.93301 -1.65861
98 1 -27.87 0 -5.183
99 1 -27.602 1.379 -4.996
169 1 -26.2545 1.77062 -4.93916
170 1 -25.9995 2.89256 -4.11208
172 1 -24.6847 3.25831 -3.81032
173 1 -24.4652 4.19574 -2.74451
175 1 -23.0825 4.41663 -2.41444
352 1 -22.7641 5.15584 -1.2078
354 1 -21.442 5.31841 -0.781305
167 1 -27.0513 3.59333 -3.42479
168 1 -26.7985 4.49144 -2.40253
171 1 -25.5066 4.70318 -1.97585
349 1 -25.2044 5.21136 -0.681604
350 1 -23.822 5.31518 -0.242014
345 1 -27.87 4.93 -1.602
346 1 -27.602 5.178 -0.233
109 1 -20.3418 -0.0459013 -5.07372
106 1 -22.7427 0.426827 -5.10236
102 1 -25.1589 0.845143 -5.11014
110 1 -19.0075 0.414214 -5.0401
182 1 -18.743 1.74526 -4.66751
185 1 -17.4036 2.17181 -4.53244
186 1 -17.1579 3.35309 -3.82782
180 1 -19.8192 2.59123 -4.34834
181 1 -19.6083 3.62854 -3.44501
183 1 -18.2624 3.97922 -3.1665
184 1 -17.9979 4.76841 -2.00842
358 1 -19.0803 5.12628 -1.15195
118 1 -12.5579 1.2609 -4.89594
194 1 -12.3767 2.49618 -4.28312
112 1 -16.5828 -0.0668189 -5.02089
113 1 -16.3547 1.28136 -4.81379
189 1 -14.9957 1.67016 -4.68029
190 1 -14.7631 2.90637 -4.06093
192 1 -13.4016 3.23391 -3.76101
193 1 -13.0885 4.23575 -2.87192
187 1 -15.8167 3.69204 -3.54154
188 1 -15.5673 4.57527 -2.5148
191 1 -14.2001 4.75135 -2.11956
365 1 -13.9716 5.13534 -0.77791
366 1 -12.6029 5.11976 -0.314753
361 1 -16.655 4.93786 -1.65583
362 1 -16.3343 5.09731 -0.262851
116 1 -13.9271 0.775829 -4.96641
124 1 -7.80745 0.457412 -5.12848
202 1 -7.52953 1.81264 -4.81958
205 1 -6.1894 2.30322 -4.70841
206 1 -5.92237 3.50514 -4.05887
121 1 -10.1822 0.807756 -5.02762
198 1 -9.95379 2.11761 -4.60165
200 1 -8.6366 2.59109 -4.42209
201 1 -8.32161 3.71736 -3.6557
203 1 -7.02021 4.06171 -3.35788
204 1 -6.69422 4.70593 -2.10308
196 1 -11.0212 2.8668 -4.0357
197 1 -10.7434 3.88708 -3.16655
199 1 -9.38899 4.27227 -2.88092
372 1 -9.04362 4.88059 -1.64029
374 1 -7.72043 4.96179 -1.15527
195 1 -11.7632 4.44314 -2.43844
368 1 -11.4906 4.97697 -1.16203
370 1 -10.1179 5.09067 -0.718886
123 1 -9.11862 -0.0834557 -5.18337
120 1 -11.507 0.354941 -5.1182
126 1 -5.42207 0.115129 -5.05264
127 1 -5.06326 1.48606 -5.03411
207 1 -4.66155 3.94594 -3.66495
208 1 -4.30869 4.48541 -2.44288
377 1 -5.34213 4.81044 -1.58373
378 1 -5.07213 5.00667 -0.199238
138 1 3.56596 0.633633 -5.19018
220 1 3.94702 1.98626 -5.06363
135 1 1.08791 1.10597 -5.22346
217 1 1.2999 2.42389 -4.90486
219 1 3.03637 4.10706 -3.71765
132 1 -1.29157 1.52727 -5.03139
213 1 -1.08441 2.8268 -4.53737
215 1 0.282402 3.22396 -4.34423
216 1 0.621707 4.22815 -3.35491
218 1 1.94096 4.51075 -2.9126
388 1 2.15902 4.86632 -1.60484
390 1 3.49453 4.94603 -1.09791
209 1 -3.73659 1.90268 -5.01233
211 1 -2.12281 3.60804 -4.00381
212 1 -1.84679 4.39337 -2.88226
214 1 -0.510456 4.64001 -2.50293
384 1 -0.259831 5.02596 -1.19365
386 1 1.09976 4.97575 -0.68141
210 1 -2.91327 4.58998 -2.01776
381 1 -2.65804 4.92461 -0.686782
382 1 -1.31471 5.03707 -0.229188
137 1 2.19759 0.211693 -5.22447
134 1 -0.210045 0.612157 -5.20817
130 1 -2.6629 1.07345 -5.08006
223 1 5.2059 2.42018 -4.74735
224 1 5.46195 3.4893 -3.89896
221 1 4.40617 4.11642 -3.1987
222 1 4.61533 4.7042 -1.96684
146 1 10.0243 1.44437 -4.9786
232 1 10.2764 2.73999 -4.46542
234 1 11.6244 2.99404 -4.1277
235 1 11.871 3.99777 -3.146
140 1 5.9133 0.1744 -5.09976
141 1 6.25242 1.57494 -4.97773
227 1 7.61323 1.94819 -4.79246
228 1 7.89486 3.16753 -4.18484
230 1 9.20979 3.45648 -3.84349
231 1 9.48092 4.3216 -2.72531
233 1 10.8136 4.51307 -2.32321
400 1 11.0798 4.91253 -1.00295
225 1 6.81726 3.82884 -3.55247
226 1 7.04853 4.55937 -2.35904
229 1 8.38322 4.74844 -1.89916
397 1 8.59614 5.1141 -0.528463
398 1 9.96664 5.06346 -0.0890285
393 1 5.93099 4.80277 -1.48987
394 1 6.18704 4.99818 -0.125068
148 1 11.0809 0.504317 -5.13954
144 1 8.6459 0.986707 -5.04739
158 1 19.7863 0.881864 -5.117
152 1 14.7667 0.40666 -5.02307
240 1 15.0438 1.71891 -4.70634
243 1 16.3631 2.16372 -4.47722
244 1 16.6701 3.24206 -3.67009
149 1 12.3979 0.880384 -5.06713
236 1 12.6934 2.23545 -4.63266
238 1 14.0245 2.5677 -4.32339
239 1 14.2532 3.60068 -3.42917
241 1 15.5955 3.89052 -3.00725
242 1 15.8197 4.59653 -1.81792
237 1 13.2045 4.20319 -2.74326
404 1 13.4532 4.76288 -1.44123
406 1 14.7635 4.9397 -0.969788
402 1 12.4212 5.02199 -0.571587
151 1 13.4482 -0.0675441 -5.11287
154 1 17.1785 -0.0479631 -5.06001
155 1 17.443 1.34372 -4.91456
247 1 18.7464 1.77454 -4.82692
248 1 19.0708 2.9071 -3.98332
245 1 17.9631 3.55773 -3.37002
246 1 18.2056 4.41891 -2.27632
249 1 19.5375 4.63336 -1.92702
413 1 19.8333 4.98985 -0.630353
409 1 17.1541 4.80743 -1.38411
410 1 17.4548 5.00829 -0.0631476
161 1 22.2392 0.663874 -5.50105
165 1 26.0022 0.513455 -5.20862
260 1 26.2732 1.88522 -4.87585
263 1 27.602 2.249 -4.67
264 1 27.87 3.41 -3.903
162 1 23.5765 1.03576 -5.25601
256 1 23.825 2.20713 -4.55847
258 1 25.1777 2.57788 -4.32601
259 1 25.4705 3.63867 -3.46955
261 1 26.8012 4.0122 -3.17426
262 1 26.9911 4.80203 -2.04419
159 1 21.1052 1.39713 -5.06355
252 1 21.4017 2.59571 -4.38966
254 1 22.7331 2.995 -4.10924
255 1 23.0177 3.96808 -3.12038
257 1 24.3689 4.30867 -2.78047
420 1 24.611 4.87766 -1.47164
422 1 25.9559 5.08936 -1.09852
250 1 20.3724 3.23199 -3.69023
251 1 20.6344 4.16562 -2.72891
253 1 21.9822 4.43791 -2.38744
416 1 22.2169 4.91912 -1.08422
418 1 23.5265 5.04934 -0.601712
414 1 21.1533 5.15585 -0.170493
164 1 24.6612 0.138085 -5.33392
529 1 -21.982 -1.38951 5.03777
438 1 -20.661 -1.84191 4.85982
439 1 -20.3894 -3.10755 4.29408
526 1 -24.6373 -0.521437 5.05619
431 1 -24.3484 -1.86253 4.81853
434 1 -23.0084 -2.32082 4.74203
435 1 -22.7442 -3.52609 4.00609
436 1 -21.425 -3.78687 3.62506
437 1 -21.1538 -4.59582 2.51094
523 1 -27.001 -0.949799 4.9861
427 1 -26.7906 -2.24724 4.5983
429 1 -25.4322 -2.64034 4.398
430 1 -25.1795 -3.84363 3.67451
432 1 -23.8382 -4.11336 3.32117
433 1 -23.6172 -4.71584 2.08458
273 1 -22.2703 -4.93058 1.67023
274 1 -21.977 -5.16465 0.285232
425 1 -27.87 -3.047 4.193
426 1 -27.602 -4.052 3.232
428 1 -26.2692 -4.42321 2.89836
268 1 -25.9712 -4.88253 1.57255
270 1 -24.6517 -5.0173 1.18022
266 1 -27.0311 -5.02835 0.715764
536 1 -17.1606 -0.405097 5.12026
532 1 -19.5348 -0.927668 4.96869
534 1 -18.1961 -1.37353 4.93016
443 1 -17.9588 -2.69624 4.51389
441 1 -19.0563 -3.50634 4.01169
442 1 -18.6983 -4.30763 2.92676
444 1 -17.3286 -4.43006 2.48186
280 1 -17.0447 -4.90116 1.19812
440 1 -19.7619 -4.71759 2.0686
277 1 -19.5108 -5.01991 0.707077
278 1 -18.1264 -5.06384 0.298272
540 1 -13.3428 -0.478353 5.18044
450 1 -13.0713 -1.8368 5.19007
537 1 -15.8455 -0.885041 5.1173
447 1 -15.6238 -2.23501 4.82042
449 1 -13.9107 -4.07765 3.84127
451 1 -12.5651 -4.11948 3.37143
452 1 -12.2669 -4.63875 2.0835
445 1 -16.6117 -3.05005 4.31454
446 1 -16.2921 -4.0226 3.34584
448 1 -14.9693 -4.36969 2.97969
284 1 -14.6948 -4.8078 1.68063
286 1 -13.3446 -4.8313 1.23092
282 1 -15.7593 -4.91154 0.763869
550 1 -5.85897 -0.553412 5.17716
546 1 -8.27852 -0.993443 5.24991
548 1 -6.94688 -1.45128 5.00999
462 1 -6.72596 -2.69158 4.4517
543 1 -10.6836 -1.48135 5.22453
457 1 -9.38434 -1.83271 4.94442
458 1 -9.12302 -3.0255 4.20551
460 1 -7.78185 -3.392 3.85432
461 1 -7.47892 -4.26363 2.79502
463 1 -6.14631 -4.51447 2.42434
296 1 -5.89601 -5.02762 1.15568
453 1 -11.7632 -2.32121 4.96016
454 1 -11.5611 -3.42167 4.03293
455 1 -10.1985 -3.72978 3.66979
456 1 -9.8667 -4.57005 2.58907
459 1 -8.56458 -4.74739 2.06549
293 1 -8.29968 -5.07106 0.658696
294 1 -6.94242 -5.03976 0.212801
289 1 -10.9136 -4.80874 1.7073
290 1 -10.6695 -5.00861 0.296971
551 1 -4.54304 -0.976334 5.10875
466 1 -4.31608 -2.28163 4.69308
464 1 -5.38106 -3.06803 4.18816
465 1 -5.08413 -3.97878 3.20779
298 1 -4.57331 -5.06265 0.656623
560 1 2.90838 -0.921616 4.98813
557 1 0.457657 -1.36359 4.88729
477 1 1.82111 -1.77338 4.75434
478 1 2.09737 -2.9607 4.11653
480 1 3.43311 -3.32778 3.76296
481 1 3.7119 -4.26216 2.78273
554 1 -2.15973 -0.414127 5.12306
470 1 -1.93327 -1.77431 4.73093
473 1 -0.593548 -2.21221 4.55754
474 1 -0.304433 -3.39588 3.82436
475 1 1.02501 -3.68139 3.48725
476 1 1.3036 -4.53529 2.37702
479 1 2.65769 -4.68432 1.92783
309 1 2.894 -5.08407 0.612234
468 1 -2.999 -2.64501 4.38232
469 1 -2.70585 -3.62964 3.46801
471 1 -1.37514 -3.971 3.13835
472 1 -1.08944 -4.67947 1.91347
305 1 0.245545 -4.90256 1.50679
306 1 0.514939 -5.13546 0.15204
467 1 -3.7604 -4.14593 2.76493
300 1 -3.48363 -4.83101 1.52953
302 1 -2.16155 -4.99801 1.0621
564 1 5.35547 -0.447437 5.08388
562 1 4.26003 -1.3243 4.84306
482 1 4.51443 -2.57229 4.2212
483 1 5.00266 -4.52672 2.3559
312 1 5.28885 -5.07572 1.09616
310 1 4.23193 -5.21365 0.16938
571 1 11.7086 -1.43077 4.79446
568 1 9.06074 -0.515093 4.9748
490 1 9.31295 -1.85888 4.65162
493 1 10.6518 -2.27926 4.5276
494 1 10.9014 -3.49118 3.89702
565 1 6.70649 -0.948927 4.92559
486 1 6.94158 -2.28352 4.4282
488 1 8.2714 -2.65694 4.21539
489 1 8.5245 -3.80893 3.47872
491 1 9.87991 -4.11276 3.19056
492 1 10.1838 -4.85553 2.0196
321 1 11.5749 -5.0036 1.60487
322 1 11.8145 -5.19459 0.223989
484 1 5.82376 -3.01049 4.00552
485 1 6.0913 -4.07823 3.11101
487 1 7.44797 -4.40869 2.79621
316 1 7.70825 -5.04418 1.58752
318 1 9.06374 -5.12225 1.14865
314 1 6.64858 -5.21109 0.646973
578 1 16.5769 -0.537945 5.22758
574 1 14.1141 -0.968324 4.99335
576 1 15.4935 -1.42997 4.9574
502 1 15.7459 -2.74356 4.51297
497 1 13.0323 -1.87805 4.70796
498 1 13.2994 -3.11436 4.14764
500 1 14.6843 -3.47084 3.93034
501 1 15.0038 -4.28758 2.87379
503 1 16.3816 -4.42918 2.46802
328 1 16.6182 -4.86932 1.13918
495 1 12.2384 -3.86703 3.58339
496 1 12.5797 -4.63151 2.48355
499 1 13.9352 -4.73691 2.05042
325 1 14.2009 -5.10618 0.690131
326 1 15.5314 -5.08778 0.222738
579 1 17.8882 -1.04613 5.23947
506 1 18.1344 -2.36335 4.87649
508 1 19.4157 -2.89257 4.74824
509 1 19.7711 -3.82926 3.72948
504 1 17.0983 -3.11902 4.35436
505 1 17.427 -3.93675 3.22564
507 1 18.7257 -4.26296 2.87532
332 1 19.0319 -4.78079 1.61405
330 1 17.9594 -4.97967 0.716382
592 1 27.87 -0.465 5.162
588 1 25.4559 -0.862539 5.16452
590 1 26.7781 -1.3673 5.04256
521 1 27.0733 -2.66088 4.50103
585 1 23.0328 -1.41328 5.36033
516 1 24.392 -1.76575 5.02057
517 1 24.6592 -3.03985 4.37873
519 1 25.9918 -3.35593 3.9905
520 1 26.2512 -4.2593 2.91497
522 1 27.602 -4.564 2.456
344 1 27.87 -5.053 1.153
582 1 20.265 -0.398707 5.58402
512 1 22.021 -2.37694 5.04012
513 1 22.2488 -3.39307 4.06382
514 1 23.5939 -3.66466 3.70033
515 1 23.8645 -4.35361 2.5295
518 1 25.1993 -4.59301 2.11569
341 1 25.4634 -4.84323 0.753085
342 1 26.7824 -5.01335 0.223391
510 1 21.1663 -4.02053 3.3533
511 1 21.4413 -4.5126 2.05812
337 1 22.7846 -4.63228 1.63879
338 1 23.0244 -4.83776 0.228468
334 1 20.3718 -4.78484 1.14698
355 1 -21.1883 5.28087 0.640951
351 1 -23.6017 5.21237 1.13753
353 1 -22.2459 5.10759 1.56867
604 1 -21.9833 4.44212 2.77162
606 1 -20.6201 4.05031 3.10449
607 1 -20.3856 3.02751 3.99824
347 1 -26.265 5.22725 0.247889
348 1 -26.0289 4.90869 1.57806
599 1 -24.6798 4.83333 2.00675
600 1 -24.3511 4.00647 3.09364
602 1 -23.0045 3.75124 3.50218
603 1 -22.7582 2.60519 4.29912
605 1 -21.4601 2.21369 4.40507
530 1 -21.2078 0.873475 4.82431
595 1 -27.0834 4.58735 2.45276
596 1 -26.7805 3.68156 3.46654
597 1 -25.4322 3.29157 3.70468
598 1 -25.1819 2.11434 4.41926
601 1 -23.858 1.73071 4.6202
527 1 -23.5785 0.428193 4.93763
528 1 -22.253 -0.00137762 5.03981
593 1 -27.87 3.047 4.193
594 1 -27.602 1.821 4.853
524 1 -26.2774 1.33529 4.86951
525 1 -25.9692 -0.0352963 5.08091
359 1 -18.7577 5.22195 0.230976
360 1 -17.4227 5.07258 0.696012
612 1 -17.1234 4.71445 1.99409
357 1 -19.8519 5.08692 1.07436
608 1 -19.5589 4.54873 2.32414
610 1 -18.2322 4.31454 2.76618
611 1 -17.9326 3.33916 3.77521
609 1 -19.0571 2.69853 4.31806
533 1 -18.8157 1.36915 4.82786
535 1 -17.443 0.952356 5.04428
531 1 -19.8763 0.444553 4.98177
367 1 -12.3322 5.05888 1.04848
363 1 -14.9921 5.17836 0.1359
364 1 -14.6997 4.88822 1.46657
619 1 -13.378 4.76927 1.92591
620 1 -13.1223 4.00568 3.11301
615 1 -15.7692 4.51594 2.36615
616 1 -15.531 3.62872 3.43416
617 1 -14.1802 3.33481 3.79669
618 1 -13.8863 2.2103 4.64877
621 1 -12.5439 1.75185 4.81716
541 1 -12.2909 0.389821 5.16075
613 1 -16.6202 2.93384 4.08015
614 1 -16.2943 1.79802 4.81936
538 1 -14.9805 1.32786 4.98492
539 1 -14.7123 -0.00506191 5.19273
375 1 -7.53156 5.10577 0.218242
376 1 -6.19371 4.95383 0.689558
632 1 -5.93926 4.48991 1.98835
371 1 -9.90863 5.04232 0.668532
373 1 -8.56318 4.95119 1.13875
628 1 -8.30881 4.34548 2.35855
630 1 -6.97944 4.06089 2.76143
631 1 -6.74063 3.08851 3.76076
369 1 -11.0313 4.81312 1.50873
624 1 -10.732 4.16327 2.75288
626 1 -9.38524 3.83086 3.13055
627 1 -9.08219 2.86544 4.12112
629 1 -7.80689 2.41302 4.38775
547 1 -7.5019 1.20246 5.03303
549 1 -6.15103 0.80822 5.17874
622 1 -11.7845 3.67775 3.49544
623 1 -11.477 2.58235 4.39764
625 1 -10.1639 2.15764 4.70061
544 1 -9.90852 0.799327 5.14535
545 1 -8.59277 0.349803 5.28961
542 1 -10.9564 -0.101492 5.34229
635 1 -4.55963 4.36245 2.36498
636 1 -4.32148 3.53082 3.48743
633 1 -5.38168 2.75515 4.01441
634 1 -5.09451 1.68829 4.89104
391 1 3.75706 4.99207 0.311918
387 1 1.32257 4.91615 0.731931
389 1 2.67024 4.82179 1.2246
648 1 2.91645 4.51926 2.57787
383 1 -1.0869 4.93607 1.1641
385 1 0.23787 4.77339 1.64732
644 1 0.476626 4.1984 2.88763
646 1 1.80082 3.9227 3.23859
647 1 2.04681 2.96964 4.21117
649 1 3.40549 2.59073 4.45446
561 1 3.7062 1.35866 5.03965
379 1 -3.74041 4.90479 0.227375
380 1 -3.49879 4.73168 1.54643
639 1 -2.15519 4.631 1.98047
640 1 -1.93582 3.97945 3.21034
642 1 -0.613329 3.71248 3.62578
643 1 -0.327155 2.61448 4.49764
645 1 1.0247 2.19234 4.73067
558 1 1.32551 0.871475 5.14953
559 1 2.66805 0.417036 5.13811
637 1 -2.97821 3.28307 3.87102
638 1 -2.70249 2.15267 4.6292
641 1 -1.38023 1.77085 4.87916
555 1 -1.09862 0.466715 5.12942
556 1 0.221991 -0.00418454 5.08933
552 1 -3.74181 1.28887 5.01011
553 1 -3.48745 -0.0488627 5.1818
392 1 5.08965 4.8846 0.762778
652 1 5.32789 4.54416 2.09438
650 1 4.25199 4.23104 2.93867
651 1 4.48028 3.34973 3.96875
563 1 5.05628 0.933631 5.06383
399 1 10.2243 5.04744 1.28408
401 1 11.5418 4.93246 1.69742
664 1 11.8155 4.34513 2.92399
395 1 7.52121 5.1108 0.390834
396 1 7.7701 4.88268 1.72711
659 1 9.13597 4.78286 2.16027
660 1 9.39507 4.11827 3.37822
662 1 10.7521 3.82685 3.69507
663 1 10.9812 2.65475 4.40922
655 1 6.64954 4.48971 2.57184
656 1 6.9481 3.71761 3.70789
657 1 8.2962 3.44182 3.99031
658 1 8.5512 2.21496 4.62593
661 1 9.91096 1.76599 4.74106
569 1 10.1698 0.400785 4.96339
570 1 11.4747 -0.057088 4.86441
653 1 5.86519 3.03085 4.24891
654 1 6.14771 1.81564 4.87341
566 1 7.48724 1.32328 4.95089
567 1 7.74986 -0.0427129 5.00857
407 1 15.0758 5.10749 0.326641
408 1 16.3719 5.01522 0.809359
672 1 16.6568 4.76372 2.15597
403 1 12.6347 5.10537 0.806942
405 1 14.0112 5.10012 1.25226
668 1 14.246 4.62882 2.58579
670 1 15.575 4.37583 3.00163
671 1 15.8101 3.44765 4.00436
666 1 13.1426 4.12104 3.27218
667 1 13.3872 3.03023 4.11871
669 1 14.7571 2.64433 4.46273
575 1 14.9619 1.3097 4.97869
577 1 16.2992 0.872177 5.11478
665 1 12.3168 2.17694 4.50706
572 1 12.5537 0.856724 4.8264
573 1 13.8707 0.412071 5.07483
411 1 18.7809 5.05574 0.327286
412 1 19.0357 4.84416 1.68024
675 1 18.0039 4.49696 2.56222
676 1 18.2327 3.63549 3.66669
677 1 19.5965 3.25012 3.94512
678 1 19.8364 2.07829 4.77256
673 1 17.148 2.96978 4.22205
674 1 17.3803 1.7261 4.83652
580 1 18.7168 1.25291 5.1008
581 1 18.9069 -0.0643712 5.38822
423 1 26.2159 5.14989 0.270486
424 1 27.602 5.136 0.696
692 1 27.87 4.766 2.037
419 1 23.7836 4.98173 0.804785
421 1 25.1334 4.88713 1.21199
688 1 25.3981 4.43044 2.45735
690 1 26.7736 4.28632 2.79769
691 1 27.0601 3.38194 3.9095
415 1 21.3599 4.99755 1.21172
417 1 22.7197 4.81817 1.65101
684 1 23.0618 4.18293 2.87864
686 1 24.4065 3.9381 3.29452
687 1 24.7034 3.02496 4.375
689 1 26.0424 2.66921 4.56805
589 1 26.2929 1.38995 5.0505
591 1 27.602 0.925 5.1
679 1 20.3535 4.63508 2.05628
680 1 20.663 3.82102 3.22952
682 1 22.0212 3.5588 3.62291
683 1 22.2751 2.55464 4.57819
685 1 23.601 2.24961 4.92357
586 1 23.8529 0.929186 5.29944
587 1 25.195 0.526786 5.23102
681 1 21.214 1.71642 4.97302
583 1 21.409 0.432564 5.43666
584 1 22.7615 -0.037234 5.47683
ITEM: TIMESTEP
1900
ITEM: NUMBER OF ATOMS
692
ITEM: BOX BOUNDS ff ff ff
-6.0000000000000000e+01 6.0000000000000000e+01
-4.0000000000000000e+01 4.0000000000000000e+01
-4.0000000000000000e+01 4.0000000000000000e+01
ITEM: ATOMS id type x y z
275 1 -20.6399 -5.25463 -0.167557
276 1 -20.3189 -4.92649 -1.54249
271 1 -24.4471 -5.30031 -0.181227
272 1 -23.0757 -5.19676 -0.673757
8 1 -22.7701 -4.76022 -1.99133
11 1 -21.4052 -4.5581 -2.38989
12 1 -21.0755 -3.70226 -3.51267
267 1 -26.8989 -5.26941 -0.698385
269 1 -25.5539 -5.42642 -1.07406
6 1 -23.7526 -4.45765 -2.9214
7 1 -23.5112 -3.45241 -3.84851
9 1 -22.1778 -2.99119 -3.99396
10 1 -21.9671 -1.73037 -4.62143
108 1 -20.6214 -1.31479 -4.88392
265 1 -27.87 -4.93 -1.602
1 1 -27.602 -4.326 -2.855
3 1 -26.3564 -4.23395 -3.56504
4 1 -25.9984 -3.04481 -4.21715
5 1 -24.6089 -2.65805 -4.26872
103 1 -24.3543 -1.30386 -4.69613
105 1 -23.0311 -0.853961 -4.82472
2 1 -27.0819 -2.18935 -4.61256
100 1 -26.7767 -0.838707 -4.92518
101 1 -25.4335 -0.372915 -4.90804
279 1 -17.9411 -5.01725 -0.968509
15 1 -18.9746 -4.66449 -1.86301
16 1 -18.6879 -3.87971 -2.99069
18 1 -17.3751 -3.59835 -3.31199
19 1 -17.1876 -2.53443 -4.21263
13 1 -19.751 -3.2852 -3.75598
14 1 -19.5551 -2.12722 -4.51273
17 1 -18.2639 -1.71439 -4.68696
111 1 -17.9545 -0.378112 -4.99753
287 1 -13.1607 -5.19154 -0.0824089
283 1 -15.6139 -5.26523 -0.502618
285 1 -14.2608 -5.0848 -0.967656
24 1 -13.9247 -4.49583 -2.23812
26 1 -12.575 -4.20865 -2.59113
27 1 -12.3869 -3.2578 -3.58117
281 1 -16.6045 -4.93713 -1.42811
20 1 -16.3193 -4.22717 -2.63605
22 1 -15.0044 -3.94601 -2.99329
23 1 -14.7646 -2.92748 -3.9751
25 1 -13.4223 -2.53213 -4.18328
117 1 -13.1302 -1.32418 -4.83041
21 1 -15.84 -2.1579 -4.50922
114 1 -15.5518 -0.846835 -4.95014
115 1 -14.1597 -0.45201 -5.02454
295 1 -6.64519 -4.96406 -1.16796
291 1 -9.3319 -5.1891 -0.163627
292 1 -9.05811 -4.90679 -1.51168
35 1 -7.75414 -4.63271 -2.0108
36 1 -7.51366 -3.9831 -3.228
38 1 -6.16772 -3.81537 -3.64799
39 1 -5.9603 -2.6327 -4.409
288 1 -11.7864 -5.14971 -0.521304
28 1 -11.5138 -4.74084 -1.86664
31 1 -10.1938 -4.51663 -2.32324
32 1 -9.94671 -3.66103 -3.4344
33 1 -8.60226 -3.39886 -3.83239
34 1 -8.35855 -2.17547 -4.45462
37 1 -7.02167 -1.76107 -4.71366
125 1 -6.74603 -0.38232 -5.05893
29 1 -11.0537 -2.96711 -3.90009
30 1 -10.7561 -1.76317 -4.55912
122 1 -9.4155 -1.31554 -4.71229
119 1 -11.7775 -0.912041 -5.01468
299 1 -4.28063 -5.03923 -0.730857
297 1 -5.34603 -4.86701 -1.62431
40 1 -5.10688 -4.33786 -2.91718
41 1 -4.65474 -2.19884 -4.65908
128 1 -4.3523 -0.86295 -5.04076
307 1 1.84722 -5.17038 -0.265576
308 1 2.12631 -4.95444 -1.60722
55 1 3.41473 -4.73637 -2.04361
56 1 3.71073 -4.0551 -3.25518
303 1 -1.88141 -5.11463 -0.312981
304 1 -0.572739 -5.15744 -0.72968
48 1 -0.289641 -4.79307 -2.06415
51 1 1.06386 -4.59107 -2.51571
52 1 1.32666 -3.67213 -3.56084
53 1 2.66455 -3.38058 -3.89799
54 1 2.88592 -2.21348 -4.68097
301 1 -2.97534 -5.03168 -1.20639
44 1 -2.70709 -4.54963 -2.49059
46 1 -1.34673 -4.36438 -2.89079
47 1 -1.05773 -3.43116 -3.94108
49 1 0.240554 -2.98683 -4.16847
50 1 0.469684 -1.74428 -4.83108
136 1 1.84332 -1.31927 -5.0582
42 1 -3.76933 -4.02063 -3.27122
43 1 -3.59314 -3.01367 -4.20063
45 1 -2.24541 -2.6616 -4.34996
131 1 -1.95972 -1.38632 -4.90409
133 1 -0.630846 -0.90189 -5.06567
129 1 -3.00634 -0.411459 -5.10629
311 1 4.49707 -4.92885 -1.1792
58 1 5.02265 -3.71721 -3.64437
59 1 5.24229 -2.60504 -4.47902
57 1 4.18389 -1.73163 -4.81266
139 1 4.51489 -0.388266 -5.14806
319 1 9.31622 -4.9789 -0.340364
320 1 10.6634 -4.97218 -0.820503
68 1 10.8739 -4.8053 -2.1626
315 1 6.8953 -5.04035 -0.714304
317 1 8.21267 -4.89219 -1.23563
64 1 8.50066 -4.53695 -2.57917
66 1 9.85724 -4.34709 -3.01248
67 1 10.0689 -3.47366 -4.07352
69 1 11.3991 -3.19441 -4.64012
70 1 11.7173 -1.90153 -4.96862
313 1 5.81656 -4.87118 -1.6351
60 1 6.09846 -4.37538 -2.91855
62 1 7.42101 -4.08113 -3.35387
63 1 7.66668 -3.03933 -4.29678
65 1 9.02517 -2.66428 -4.55665
145 1 9.31043 -1.32947 -5.00095
147 1 10.6669 -0.972884 -5.05033
61 1 6.57369 -2.22503 -4.67703
142 1 6.90987 -0.925579 -5.05912
143 1 8.26083 -0.471517 -5.13774
157 1 19.4261 -0.537877 -5.29745
156 1 18.12 -1.01518 -5.17229
80 1 17.9224 -2.35345 -4.68362
327 1 15.8401 -4.94259 -1.19056
323 1 13.1075 -5.26732 -0.295366
324 1 13.4088 -5.05106 -1.62274
74 1 14.7419 -4.79048 -2.07003
75 1 15.0336 -4.06521 -3.25476
77 1 16.3577 -3.76594 -3.56131
78 1 16.5778 -2.65319 -4.40317
71 1 12.2385 -4.8792 -2.48472
72 1 13.9965 -3.47668 -3.92785
73 1 14.1588 -2.27335 -4.62368
76 1 15.4635 -1.86694 -4.79434
153 1 15.7473 -0.489694 -5.09519
150 1 13.0731 -1.46962 -5.00898
331 1 18.2198 -5.05737 -0.666853
333 1 19.5556 -5.03471 -1.14445
83 1 19.824 -4.54268 -2.47577
329 1 17.1829 -4.77214 -1.58864
79 1 17.4572 -4.26713 -2.8455
81 1 18.742 -4.02655 -3.22545
82 1 19.0158 -3.25195 -4.36906
160 1 21.8886 -0.713363 -6.1602
343 1 27.0616 -4.97732 -1.10433
339 1 24.3857 -5.21521 -0.251384
340 1 24.6117 -4.95027 -1.64595
93 1 25.9818 -4.80873 -2.00455
94 1 26.2685 -4.11116 -3.22874
96 1 27.602 -3.746 -3.582
97 1 27.87 -2.658 -4.45
335 1 20.668 -5.0755 -0.269455
336 1 21.9811 -5.07203 -0.701302
87 1 22.2137 -4.80338 -2.03886
89 1 23.5596 -4.69541 -2.54425
90 1 23.8298 -3.97813 -3.76559
91 1 25.1819 -3.57983 -3.99507
92 1 25.4846 -2.41892 -4.76647
95 1 26.7929 -1.89349 -4.91691
166 1 27.0558 -0.507781 -5.2728
85 1 21.1241 -4.34671 -2.8419
86 1 21.3793 -3.73192 -4.08826
88 1 22.7079 -3.45614 -4.49988
84 1 20.3155 -3.07828 -4.80961
163 1 24.5068 -1.50002 -5.28539
107 1 -21.3908 0.991586 -5.09169
178 1 -21.1523 2.29521 -4.59759
104 1 -23.8063 1.46694 -4.90749
174 1 -23.566 2.79559 -4.49417
176 1 -22.2211 3.10622 -4.20897
177 1 -21.9794 4.14427 -3.27867
179 1 -20.6782 4.41857 -2.79636
356 1 -20.4023 4.95643 -1.56976
98 1 -27.87 0 -5.183
99 1 -27.602 1.379 -4.996
169 1 -26.2875 1.84697 -4.76367
170 1 -26.0251 3.1272 -4.21175
172 1 -24.6575 3.50287 -3.95405
173 1 -24.4012 4.42729 -2.9356
175 1 -23.061 4.65666 -2.47395
352 1 -22.8183 5.08146 -1.15951
354 1 -21.5025 5.12939 -0.720415
167 1 -27.061 3.92839 -3.66295
168 1 -26.804 4.60527 -2.47355
171 1 -25.4538 4.76259 -2.04555
349 1 -25.1681 5.01909 -0.703302
350 1 -23.8515 5.09533 -0.219023
345 1 -27.87 4.93 -1.602
346 1 -27.602 5.178 -0.233
109 1 -20.3248 0.0434322 -5.19442
106 1 -22.7314 0.523477 -5.02924
102 1 -25.1869 1.00575 -4.9205
110 1 -18.9948 0.533499 -5.07861
182 1 -18.7833 1.88783 -4.75173
185 1 -17.4252 2.3291 -4.59053
186 1 -17.1643 3.44184 -3.77635
180 1 -19.8523 2.73753 -4.39207
181 1 -19.5947 3.83689 -3.48873
183 1 -18.2691 4.10723 -3.09705
184 1 -17.9749 4.82506 -1.92683
358 1 -19.0704 5.10626 -1.1061
118 1 -12.6095 1.43221 -5.04831
194 1 -12.3375 2.71403 -4.48103
112 1 -16.5997 0.0940788 -5.05964
113 1 -16.3461 1.46809 -4.8952
189 1 -15.0075 1.89135 -4.77929
190 1 -14.7334 3.15077 -4.18775
192 1 -13.4019 3.45133 -3.90805
193 1 -13.1179 4.2694 -2.82566
187 1 -15.8304 3.78848 -3.51761
188 1 -15.5495 4.59767 -2.44215
191 1 -14.1606 4.73771 -1.98082
365 1 -13.9348 5.18816 -0.646003
366 1 -12.561 5.22008 -0.170638
361 1 -16.6272 5.00946 -1.57188
362 1 -16.2893 5.28325 -0.223601
116 1 -13.9544 0.947377 -5.0384
124 1 -7.82859 0.54118 -5.09574
202 1 -7.51349 1.93233 -4.85398
205 1 -6.14448 2.37812 -4.74857
206 1 -5.90179 3.61102 -4.01031
121 1 -10.1792 0.978272 -5.09246
198 1 -9.88449 2.30758 -4.68846
200 1 -8.5621 2.79058 -4.51438
201 1 -8.30642 3.88134 -3.66463
203 1 -6.97809 4.21196 -3.28027
204 1 -6.73188 4.71391 -2.00139
196 1 -10.9772 3.0785 -4.19513
197 1 -10.695 3.96574 -3.14197
199 1 -9.32468 4.28897 -2.78554
372 1 -9.06289 4.90801 -1.56892
374 1 -7.74981 5.07686 -1.13721
195 1 -11.7999 4.45354 -2.38946
368 1 -11.5312 4.95251 -1.08893
370 1 -10.1832 5.0454 -0.66475
123 1 -9.16383 0.0329029 -5.04979
120 1 -11.5239 0.479267 -5.12505
126 1 -5.42066 0.06895 -5.1677
127 1 -5.11045 1.47519 -5.13885
207 1 -4.61797 4.04445 -3.63765
208 1 -4.34682 4.5964 -2.41285
377 1 -5.4122 4.85128 -1.5262
378 1 -5.11751 5.23944 -0.203135
138 1 3.49718 0.565922 -5.23683
220 1 3.83881 1.93826 -5.09883
135 1 1.04303 0.905274 -5.0209
217 1 1.20577 2.25627 -4.62379
219 1 3.02181 4.10919 -3.57634
132 1 -1.39164 1.47714 -5.05068
213 1 -1.08777 2.75796 -4.56433
215 1 0.189219 3.14734 -4.2687
216 1 0.523726 4.22579 -3.35223
218 1 1.88258 4.48466 -2.86533
388 1 2.11809 5.02663 -1.57005
390 1 3.45165 5.0723 -1.03922
209 1 -3.76063 1.88873 -5.30914
211 1 -2.1022 3.56077 -4.02355
212 1 -1.85219 4.38729 -2.85629
214 1 -0.51705 4.66817 -2.50814
384 1 -0.283717 5.09 -1.2107
386 1 1.07021 5.18186 -0.694653
210 1 -2.96539 4.71193 -2.03305
381 1 -2.71931 5.12113 -0.71061
382 1 -1.34843 5.17418 -0.284973
137 1 2.15043 0.0786513 -5.16922
134 1 -0.310226 0.475022 -5.08157
130 1 -2.70808 0.997436 -5.21937
223 1 5.1369 2.3423 -4.69834
224 1 5.37773 3.46103 -3.80178
221 1 4.35455 4.22829 -3.16881
222 1 4.56237 4.7863 -1.90268
146 1 9.89723 1.33194 -4.78283
232 1 10.1489 2.56254 -4.20746
234 1 11.5235 2.96834 -3.93931
235 1 11.803 3.94806 -2.95898
140 1 5.87324 0.0210709 -5.15796
141 1 6.21627 1.40842 -4.90071
227 1 7.55552 1.75014 -4.62405
228 1 7.77438 2.98249 -3.96049
230 1 9.12287 3.31204 -3.6375
231 1 9.37353 4.29002 -2.63031
233 1 10.7097 4.46618 -2.20269
400 1 10.9719 4.9171 -0.942916
225 1 6.71272 3.68787 -3.39228
226 1 6.9131 4.4393 -2.22368
229 1 8.25388 4.66252 -1.859
397 1 8.559 5.00773 -0.535567
398 1 9.89961 5.05029 -0.0418504
393 1 5.82642 4.85185 -1.40028
394 1 6.1211 5.18502 -0.0451329
148 1 10.957 0.41696 -5.03769
144 1 8.59407 0.893744 -4.93827
158 1 19.78 0.791866 -4.95618
152 1 14.6804 0.395275 -5.02071
240 1 14.9606 1.70762 -4.58265
243 1 16.3062 2.11759 -4.39646
244 1 16.5849 3.23149 -3.65912
149 1 12.2765 0.861089 -4.87704
236 1 12.5792 2.19007 -4.45622
238 1 13.8992 2.57112 -4.23556
239 1 14.1453 3.70236 -3.40142
241 1 15.484 3.89659 -3.0328
242 1 15.8083 4.59065 -1.83005
237 1 13.124 4.25921 -2.60577
404 1 13.434 4.8607 -1.37956
406 1 14.7807 5.03712 -0.961575
402 1 12.3273 5.06378 -0.510148
151 1 13.3942 -0.0986907 -5.05946
154 1 17.085 -0.0490592 -5.022
155 1 17.3701 1.251 -4.78082
247 1 18.7186 1.62922 -4.60186
248 1 18.988 2.84748 -3.94612
245 1 17.8757 3.5239 -3.37158
246 1 18.1403 4.26411 -2.25198
249 1 19.4845 4.52224 -1.87581
413 1 19.7568 5.04462 -0.568836
409 1 17.1051 4.74648 -1.42221
410 1 17.3591 5.19103 -0.0869842
161 1 22.1689 0.438535 -5.42743
165 1 26.0271 0.364994 -5.09794
260 1 26.2849 1.70703 -4.71501
263 1 27.602 2.249 -4.67
264 1 27.87 3.41 -3.903
162 1 23.5642 0.763852 -5.07879
256 1 23.8069 2.00074 -4.4591
258 1 25.1537 2.41818 -4.24237
259 1 25.395 3.45116 -3.33009
261 1 26.7347 3.87845 -3.1348
262 1 27.0394 4.64895 -1.98899
159 1 21.117 1.18827 -4.85988
252 1 21.3787 2.40927 -4.27316
254 1 22.6934 2.72661 -3.92651
255 1 22.9479 3.69348 -2.93007
257 1 24.3219 4.02909 -2.64028
420 1 24.6215 4.81166 -1.47231
422 1 26.0007 5.0234 -1.08439
250 1 20.3649 3.16261 -3.68516
251 1 20.5903 4.01415 -2.62771
253 1 21.9324 4.31652 -2.22374
416 1 22.1899 5.00417 -1.01754
418 1 23.5333 5.04637 -0.613364
414 1 21.0876 5.17886 -0.143264
164 1 24.6956 -0.104951 -5.23062
529 1 -21.9581 -1.43158 4.91624
438 1 -20.6662 -1.92788 4.8212
439 1 -20.4341 -3.16658 4.2099
526 1 -24.6516 -0.528876 5.12458
431 1 -24.3886 -1.85415 4.76681
434 1 -23.0845 -2.3003 4.59668
435 1 -22.8042 -3.48978 3.88094
436 1 -21.4725 -3.86945 3.6106
437 1 -21.1868 -4.68646 2.49038
523 1 -27.0148 -0.951907 5.02422
427 1 -26.7793 -2.31817 4.61602
429 1 -25.4447 -2.72187 4.38763
430 1 -25.19 -3.77885 3.53046
432 1 -23.8899 -4.10018 3.17123
433 1 -23.6472 -4.83072 2.03682
273 1 -22.2748 -4.99219 1.60241
274 1 -22.006 -5.187 0.2387
425 1 -27.87 -3.047 4.193
426 1 -27.602 -4.052 3.232
428 1 -26.3145 -4.33083 2.81835
268 1 -26.0943 -4.96171 1.59655
270 1 -24.7199 -5.09417 1.13107
266 1 -27.1288 -5.0461 0.686027
536 1 -17.09 -0.702571 5.09778
532 1 -19.5325 -1.0641 5.01853
534 1 -18.1919 -1.57027 4.93475
443 1 -17.9839 -2.8927 4.53302
441 1 -19.0959 -3.61715 3.97696
442 1 -18.7927 -4.49623 2.92548
444 1 -17.429 -4.81644 2.63053
280 1 -17.1659 -5.24762 1.34414
440 1 -19.8228 -4.88375 2.0851
277 1 -19.5642 -5.30826 0.769267
278 1 -18.2137 -5.35273 0.381964
540 1 -13.3473 -0.578834 4.98717
450 1 -12.9815 -1.92382 4.98702
537 1 -15.7555 -1.17446 5.14011
447 1 -15.6272 -2.58954 5.03048
449 1 -13.8829 -4.3055 3.85753
451 1 -12.5596 -4.31687 3.4347
452 1 -12.2898 -4.90474 2.20994
445 1 -16.6481 -3.34728 4.43193
446 1 -16.3509 -4.44319 3.532
448 1 -15.0128 -4.70104 3.11586
284 1 -14.7417 -5.03177 1.77187
286 1 -13.3803 -5.12657 1.32667
282 1 -15.8511 -5.28596 0.873766
550 1 -5.81917 -0.505576 5.10045
546 1 -8.21107 -0.95056 5.02409
548 1 -6.85525 -1.38553 4.89203
462 1 -6.55707 -2.68461 4.33129
543 1 -10.6557 -1.43846 4.973
457 1 -9.303 -1.81619 4.8453
458 1 -9.004 -3.04006 4.18766
460 1 -7.66137 -3.45337 3.88352
461 1 -7.39121 -4.46492 2.91574
463 1 -6.06763 -4.63249 2.44024
296 1 -5.86584 -4.97561 1.08921
453 1 -11.7064 -2.40975 4.76466
454 1 -11.4392 -3.60632 4.0574
455 1 -10.0609 -3.85427 3.64293
456 1 -9.77983 -4.62695 2.52725
459 1 -8.44884 -4.82169 2.07808
293 1 -8.23748 -5.09434 0.720746
294 1 -6.91835 -5.12222 0.199238
289 1 -10.9361 -4.94271 1.72167
290 1 -10.6695 -5.16158 0.355117
551 1 -4.44353 -0.931063 4.98026
466 1 -4.16186 -2.2649 4.57807
464 1 -5.20106 -3.09671 4.08498
465 1 -4.95799 -4.15392 3.14088
298 1 -4.50835 -4.98964 0.63316
560 1 2.95951 -0.950439 5.14135
557 1 0.540456 -1.35478 4.94725
477 1 1.87704 -1.8238 4.86622
478 1 2.13012 -3.03976 4.14236
480 1 3.49997 -3.31152 3.85115
481 1 3.75123 -4.24236 2.8266
554 1 -2.07491 -0.420751 5.03984
470 1 -1.84154 -1.76268 4.74226
473 1 -0.537627 -2.22001 4.64762
474 1 -0.261406 -3.32774 3.83072
475 1 1.0484 -3.70689 3.47476
476 1 1.36973 -4.57087 2.38949
479 1 2.67908 -4.74819 2.06048
309 1 2.93324 -5.0242 0.686796
468 1 -2.86709 -2.68479 4.36028
469 1 -2.59951 -3.74361 3.44918
471 1 -1.26778 -4.02067 3.08063
472 1 -0.993569 -4.73073 1.88731
305 1 0.31479 -4.98447 1.52145
306 1 0.518899 -5.22055 0.155633
467 1 -3.62586 -4.36858 2.75685
300 1 -3.40795 -4.88964 1.48919
302 1 -2.0916 -4.98366 1.03708
564 1 5.33281 -0.413921 5.08024
562 1 4.2899 -1.35752 4.96276
482 1 4.57465 -2.60082 4.38638
483 1 5.0763 -4.4743 2.39006
312 1 5.33263 -4.96498 1.09879
310 1 4.24003 -5.00978 0.194474
571 1 11.776 -1.42091 5.07116
568 1 9.09439 -0.42921 5.2511
490 1 9.37466 -1.74616 4.81563
493 1 10.7031 -2.20777 4.64751
494 1 10.9562 -3.30024 3.81446
565 1 6.68387 -0.874816 5.11823
486 1 6.95033 -2.20762 4.65623
488 1 8.30186 -2.61652 4.45409
489 1 8.57964 -3.67865 3.55934
491 1 9.91302 -3.93514 3.14303
492 1 10.1418 -4.59207 1.88711
321 1 11.497 -4.72523 1.45468
322 1 11.7474 -5.17183 0.124512
484 1 5.89799 -2.99623 4.14168
485 1 6.1589 -3.94009 3.14729
487 1 7.5111 -4.23265 2.81661
316 1 7.76956 -4.78121 1.568
318 1 9.08439 -4.85323 1.06439
314 1 6.69753 -5.03445 0.691108
578 1 16.5927 -0.536026 5.27262
574 1 14.169 -1.01743 5.1798
576 1 15.5241 -1.44197 5.08489
502 1 15.7359 -2.61746 4.36787
497 1 13.1101 -1.85403 4.90397
498 1 13.3795 -2.95599 4.08359
500 1 14.688 -3.33719 3.74518
501 1 14.9597 -4.24846 2.72308
503 1 16.3241 -4.43349 2.38866
328 1 16.6335 -4.97818 1.12918
495 1 12.3009 -3.62121 3.41077
496 1 12.5554 -4.42377 2.28147
499 1 13.8807 -4.74063 1.9081
325 1 14.2106 -5.1516 0.61452
326 1 15.5581 -5.13289 0.189472
579 1 17.9251 -0.985506 5.19812
506 1 18.1192 -2.31464 4.73835
508 1 19.4482 -2.94959 4.56535
509 1 19.8001 -3.794 3.53838
504 1 17.0455 -3.0597 4.18892
505 1 17.3678 -3.92796 3.16041
507 1 18.7248 -4.21929 2.76363
332 1 19.0235 -4.80669 1.56171
330 1 17.965 -5.07578 0.6989
592 1 27.87 -0.465 5.162
588 1 25.4535 -0.893293 5.06452
590 1 26.8208 -1.37797 5.01797
521 1 27.0277 -2.68569 4.59906
585 1 23.13 -1.42043 5.06112
516 1 24.4419 -1.84114 4.85538
517 1 24.6232 -3.08451 4.22579
519 1 25.9788 -3.43212 3.98713
520 1 26.2308 -4.28385 2.85464
522 1 27.602 -4.564 2.456
344 1 27.87 -5.053 1.153
582 1 20.3735 -0.401251 5.40968
512 1 22.124 -2.33174 4.71746
513 1 22.2149 -3.49569 3.93073
514 1 23.5416 -3.79028 3.59204
515 1 23.8004 -4.52817 2.45896
518 1 25.1474 -4.69785 2.02273
341 1 25.4434 -5.05925 0.676321
342 1 26.8027 -5.08741 0.22571
510 1 21.1529 -4.07398 3.20185
511 1 21.4563 -4.72356 1.96916
337 1 22.7956 -4.88222 1.5765
338 1 23.0416 -5.10854 0.219339
334 1 20.3775 -4.98635 1.11797
355 1 -21.2164 5.13077 0.690789
351 1 -23.5616 4.96503 1.16445
353 1 -22.2704 4.81646 1.63176
604 1 -21.9542 4.22776 2.90804
606 1 -20.6497 3.98943 3.29143
607 1 -20.3173 2.93472 4.16714
347 1 -26.24 5.15733 0.190841
348 1 -25.9619 4.85824 1.54349
599 1 -24.6214 4.69296 2.05595
600 1 -24.3474 3.91718 3.22895
602 1 -23.0048 3.57637 3.53312
603 1 -22.7224 2.52266 4.41735
605 1 -21.4032 2.07366 4.59219
530 1 -21.1288 0.775045 4.99935
595 1 -27.037 4.47784 2.34323
596 1 -26.8076 3.76231 3.54963
597 1 -25.449 3.38672 3.88234
598 1 -25.194 2.24841 4.69943
601 1 -23.8238 1.74724 4.90163
527 1 -23.5478 0.395515 5.19102
528 1 -22.2269 -0.0828881 5.12375
593 1 -27.87 3.047 4.193
594 1 -27.602 1.821 4.853
524 1 -26.2496 1.40366 5.02054
525 1 -25.9508 -0.00898321 5.15349
359 1 -18.793 5.13694 0.274732
360 1 -17.365 5.0989 0.676569
612 1 -17.0918 4.62379 1.97803
357 1 -19.8924 4.98638 1.14413
608 1 -19.5944 4.50077 2.45203
610 1 -18.2127 4.2482 2.78587
611 1 -17.9094 3.28194 3.78886
609 1 -18.9706 2.51761 4.36676
533 1 -18.7467 1.21179 4.80468
535 1 -17.3982 0.725466 4.90326
531 1 -19.8147 0.315178 5.03853
367 1 -12.2755 5.15526 1.17788
363 1 -14.9609 5.33543 0.259954
364 1 -14.6842 5.04997 1.64255
619 1 -13.3754 4.84135 2.04211
620 1 -13.0852 4.02879 3.1924
615 1 -15.7356 4.51733 2.4164
616 1 -15.4939 3.66625 3.53888
617 1 -14.1241 3.29104 3.76293
618 1 -13.8619 2.05966 4.37939
621 1 -12.5336 1.65181 4.55487
541 1 -12.2599 0.331504 4.91451
613 1 -16.5619 2.89129 4.07694
614 1 -16.3211 1.64149 4.65441
538 1 -14.9721 1.1624 4.70856
539 1 -14.6767 -0.206994 5.01165
375 1 -7.51301 5.2311 0.228178
376 1 -6.17065 5.21331 0.716039
632 1 -5.85783 4.83395 2.03367
371 1 -9.89712 5.1704 0.723019
373 1 -8.56031 5.11715 1.14799
628 1 -8.24008 4.593 2.4816
630 1 -6.91194 4.37073 2.84388
631 1 -6.66239 3.40988 3.89256
369 1 -10.9444 4.99233 1.64838
624 1 -10.6369 4.38456 2.89029
626 1 -9.30696 4.06826 3.23714
627 1 -9.08403 3.00432 4.12963
629 1 -7.75665 2.64362 4.41919
547 1 -7.48679 1.35528 4.96164
549 1 -6.13363 0.876665 4.9957
622 1 -11.7136 3.74098 3.54815
623 1 -11.4471 2.59482 4.30285
625 1 -10.1338 2.1642 4.54588
544 1 -9.86858 0.862641 4.99258
545 1 -8.53178 0.410625 5.09742
542 1 -10.9322 -0.0823908 5.05596
635 1 -4.53221 4.57269 2.47333
636 1 -4.22926 3.73156 3.55831
633 1 -5.29132 3.01324 4.16605
634 1 -5.07345 1.77168 4.76427
391 1 3.72293 5.12772 0.3385
387 1 1.30209 5.12229 0.693798
389 1 2.6248 5.05837 1.2133
648 1 2.93687 4.5412 2.44749
383 1 -1.11282 4.9858 1.09095
385 1 0.221825 4.8768 1.53201
644 1 0.477942 4.31837 2.75039
646 1 1.82522 4.10311 3.18355
647 1 2.16806 3.13993 4.17735
649 1 3.51238 2.64615 4.40504
561 1 3.79175 1.38002 4.91216
379 1 -3.80315 5.23722 0.263186
380 1 -3.52028 4.93026 1.61248
639 1 -2.159 4.68939 1.97405
640 1 -1.88921 4.05462 3.19685
642 1 -0.539288 3.76214 3.54442
643 1 -0.256271 2.72389 4.44246
645 1 1.10828 2.31443 4.56841
558 1 1.38597 0.990746 4.96469
559 1 2.72383 0.488745 5.02404
637 1 -2.91869 3.42682 3.87149
638 1 -2.67112 2.26857 4.65526
641 1 -1.30165 1.87495 4.84058
555 1 -1.01412 0.514734 5.03784
556 1 0.320156 0.0282704 5.06994
552 1 -3.72959 1.37846 4.9401
553 1 -3.4096 0.0427741 5.05581
392 1 5.05108 5.19127 0.857288
652 1 5.34061 4.86613 2.18122
650 1 4.27081 4.29342 2.85227
651 1 4.56259 3.38067 3.84722
563 1 5.0622 0.916627 5.06072
399 1 10.1478 4.97421 1.31277
401 1 11.5022 4.82885 1.70913
664 1 11.7525 4.19388 2.96255
395 1 7.48654 5.16174 0.384112
396 1 7.76703 5.0054 1.74696
659 1 9.0995 4.78585 2.21072
660 1 9.32742 3.98131 3.34152
662 1 10.6648 3.67591 3.69261
663 1 10.9634 2.59388 4.52879
655 1 6.68891 4.66275 2.64652
656 1 6.96163 3.76397 3.68811
657 1 8.26138 3.4159 4.04975
658 1 8.55746 2.20303 4.78368
661 1 9.93543 1.79845 5.00287
569 1 10.1836 0.458456 5.28758
570 1 11.5235 -0.00598249 5.27993
653 1 5.89064 3.03653 4.19555
654 1 6.10058 1.79797 4.82733
566 1 7.43248 1.38388 5.07243
567 1 7.7174 0.0333749 5.32099
407 1 15.0196 5.12716 0.412984
408 1 16.3588 5.08195 0.855431
672 1 16.6011 4.64612 2.17626
403 1 12.618 5.03633 0.823952
405 1 13.9245 4.95727 1.27699
668 1 14.179 4.42012 2.53066
670 1 15.5391 4.25413 2.94442
671 1 15.786 3.44457 4.05254
666 1 13.113 3.91067 3.3179
667 1 13.3742 2.96638 4.26984
669 1 14.7215 2.65815 4.53486
575 1 14.9645 1.34752 5.10651
577 1 16.3228 0.893762 5.22561
665 1 12.3128 2.17182 4.7724
572 1 12.6017 0.84904 5.16111
573 1 13.9438 0.36915 5.18533
411 1 18.6944 5.1331 0.352511
412 1 18.9764 4.91615 1.69258
675 1 17.9367 4.52628 2.55822
676 1 18.2103 3.72945 3.68348
677 1 19.5477 3.38469 3.90151
678 1 19.7866 2.18445 4.6174
673 1 17.1415 3.04906 4.33627
674 1 17.4333 1.79598 4.96213
580 1 18.7435 1.26927 4.98502
581 1 19.0158 -0.0817046 5.27093
423 1 26.2498 5.13189 0.265733
424 1 27.602 5.136 0.696
692 1 27.87 4.766 2.037
419 1 23.8178 5.04073 0.742987
421 1 25.1579 5.07054 1.1622
688 1 25.4215 4.57514 2.45058
690 1 26.7977 4.30915 2.8712
691 1 27.0529 3.36357 3.89745
415 1 21.3642 5.03876 1.19293
417 1 22.7052 4.89118 1.6091
684 1 23.0259 4.33623 2.86792
686 1 24.365 4.05496 3.19377
687 1 24.6102 3.05619 4.15732
689 1 25.9699 2.64433 4.38633
589 1 26.2596 1.39933 5.00145
591 1 27.602 0.925 5.1
679 1 20.3232 4.79247 2.0841
680 1 20.623 4.0489 3.24439
682 1 21.9623 3.74493 3.61646
683 1 22.2075 2.63536 4.36696
685 1 23.5425 2.26746 4.62436
586 1 23.8195 0.980076 5.07607
587 1 25.1805 0.481691 5.12657
681 1 21.1575 1.78986 4.75404
583 1 21.4252 0.420892 5.15629
584 1 22.7845 -0.0126028 5.21881
ITEM: TIMESTEP
2000
ITEM: NUMBER OF ATOMS
692
ITEM: BOX BOUNDS ff ff ff
-6.0000000000000000e+01 6.0000000000000000e+01
-4.0000000000000000e+01 4.0000000000000000e+01
-4.0000000000000000e+01 4.0000000000000000e+01
ITEM: ATOMS id type x y z
275 1 -20.6871 -5.22958 -0.215914
276 1 -20.3642 -4.96839 -1.50863
271 1 -24.4103 -5.32776 -0.161587
272 1 -23.0561 -5.29742 -0.667958
8 1 -22.7501 -4.92559 -1.99466
11 1 -21.4297 -4.6074 -2.36866
12 1 -21.1182 -3.64883 -3.39235
267 1 -26.8384 -5.23096 -0.703568
269 1 -25.4958 -5.28327 -1.1199
6 1 -23.7268 -4.36319 -2.81027
7 1 -23.43 -3.34469 -3.78127
9 1 -22.114 -2.95838 -4.0643
10 1 -21.8578 -1.76174 -4.69753
108 1 -20.5499 -1.21916 -4.7927
265 1 -27.87 -4.93 -1.602
1 1 -27.602 -4.326 -2.855
3 1 -26.2944 -4.09162 -3.33865
4 1 -25.8913 -3.00236 -4.16494
5 1 -24.512 -2.63757 -4.28819
103 1 -24.3135 -1.40759 -4.83945
105 1 -22.9843 -0.96058 -4.91713
2 1 -26.9711 -2.21084 -4.72057
100 1 -26.754 -0.89921 -5.03111
101 1 -25.4142 -0.499433 -4.97615
279 1 -17.9603 -5.12212 -1.03416
15 1 -19.007 -4.77894 -1.91628
16 1 -18.7428 -3.94145 -2.95476
18 1 -17.3942 -3.56256 -3.27886
19 1 -17.1449 -2.43739 -4.12837
13 1 -19.7762 -3.22316 -3.53284
14 1 -19.5175 -2.06435 -4.32078
17 1 -18.1985 -1.63119 -4.53767
111 1 -17.9124 -0.269916 -4.89884
287 1 -13.1356 -5.25621 -0.195189
283 1 -15.5509 -5.22839 -0.647075
285 1 -14.2173 -5.04153 -1.12301
24 1 -13.9274 -4.45667 -2.37712
26 1 -12.5811 -4.20145 -2.79632
27 1 -12.3326 -3.20707 -3.73422
281 1 -16.5974 -4.96547 -1.5094
20 1 -16.344 -4.2074 -2.67579
22 1 -15.011 -3.89014 -3.04509
23 1 -14.7599 -2.85423 -3.95906
25 1 -13.4322 -2.42371 -4.20051
117 1 -13.1156 -1.11651 -4.69598
21 1 -15.787 -2.00565 -4.39931
114 1 -15.5422 -0.686066 -4.78568
115 1 -14.1973 -0.205574 -4.87732
295 1 -6.70006 -5.08738 -1.05481
291 1 -9.39102 -5.29322 -0.136554
292 1 -9.15665 -4.93169 -1.48043
35 1 -7.78026 -4.774 -1.90427
36 1 -7.57546 -3.90787 -3.02186
38 1 -6.23296 -3.62062 -3.38966
39 1 -5.95118 -2.53707 -4.2359
288 1 -11.8244 -5.11324 -0.635457
28 1 -11.5723 -4.69638 -1.93451
31 1 -10.2308 -4.43518 -2.25174
32 1 -9.97964 -3.53443 -3.28076
33 1 -8.66962 -3.22488 -3.63094
34 1 -8.39401 -2.10196 -4.42286
37 1 -7.03727 -1.70587 -4.59659
125 1 -6.72423 -0.358546 -4.91843
29 1 -10.9842 -2.83688 -3.90981
30 1 -10.7262 -1.60372 -4.55498
122 1 -9.41467 -1.21457 -4.74985
119 1 -11.748 -0.689055 -4.8121
299 1 -4.32055 -5.16656 -0.619779
297 1 -5.38143 -4.89383 -1.4595
40 1 -5.12963 -4.21356 -2.70936
41 1 -4.64836 -2.1086 -4.45097
128 1 -4.38841 -0.80603 -4.9919
307 1 1.8448 -5.14538 -0.225361
308 1 2.13165 -4.77126 -1.54439
55 1 3.42721 -4.658 -2.02196
56 1 3.65158 -4.09237 -3.33592
303 1 -1.89826 -5.23878 -0.147124
304 1 -0.58433 -5.24536 -0.606392
48 1 -0.373276 -4.77053 -1.9322
51 1 0.995736 -4.51381 -2.38199
52 1 1.29285 -3.7365 -3.52988
53 1 2.5882 -3.45318 -3.98942
54 1 2.88179 -2.27148 -4.64879
301 1 -3.03149 -5.07939 -1.07758
44 1 -2.79776 -4.48776 -2.31728
46 1 -1.44718 -4.24169 -2.68156
47 1 -1.19453 -3.31698 -3.74521
49 1 0.157494 -2.97308 -4.05145
50 1 0.509557 -1.76562 -4.70907
136 1 1.82078 -1.36435 -4.87206
42 1 -3.83313 -3.83914 -3.06192
43 1 -3.53047 -2.82958 -3.9943
45 1 -2.2095 -2.48802 -4.24346
131 1 -1.9476 -1.22651 -4.68946
133 1 -0.570603 -0.832147 -4.89387
129 1 -3.02299 -0.343821 -4.9716
311 1 4.49185 -5.0581 -1.1964
58 1 5.01515 -3.9125 -3.67999
59 1 5.31797 -2.81281 -4.50045
57 1 4.25676 -1.91901 -4.8216
139 1 4.57837 -0.530486 -5.05877
319 1 9.30091 -4.98148 -0.33033
320 1 10.6335 -4.95009 -0.800461
68 1 10.9285 -4.87894 -2.17207
315 1 6.9406 -5.01343 -0.77421
317 1 8.25533 -4.99511 -1.26893
64 1 8.52739 -4.72494 -2.61148
66 1 9.87842 -4.52845 -3.0326
67 1 10.1439 -3.67546 -4.13547
69 1 11.4067 -3.27575 -4.46686
70 1 11.7947 -2.0071 -4.89746
313 1 5.84008 -4.98783 -1.67628
60 1 6.09746 -4.48868 -3.00257
62 1 7.48413 -4.25083 -3.38418
63 1 7.73587 -3.21469 -4.30947
65 1 9.06771 -2.83141 -4.54662
145 1 9.35127 -1.49606 -4.92336
147 1 10.7275 -1.09279 -5.01152
61 1 6.66826 -2.37346 -4.73348
142 1 6.97908 -1.00776 -4.96186
143 1 8.32645 -0.549656 -4.9119
157 1 19.5188 -0.638448 -5.29345
156 1 18.2344 -1.18046 -5.14925
80 1 18.065 -2.58064 -4.96257
327 1 15.8101 -4.99376 -1.26107
323 1 13.1101 -4.95631 -0.359899
324 1 13.389 -5.03711 -1.76769
74 1 14.7603 -4.84681 -2.23296
75 1 15.0849 -4.31496 -3.52663
77 1 16.3636 -3.98817 -3.81012
78 1 16.6755 -2.99358 -4.74142
71 1 12.2672 -5.0576 -2.65894
72 1 14.0932 -3.84836 -4.3926
73 1 14.2874 -2.53618 -4.86232
76 1 15.5998 -2.07767 -4.96476
153 1 15.8676 -0.740143 -5.12639
150 1 13.192 -1.63988 -4.99581
331 1 18.1996 -5.06793 -0.723566
333 1 19.5421 -5.01102 -1.15111
83 1 19.8987 -4.63177 -2.49834
329 1 17.1542 -4.95503 -1.72124
79 1 17.4681 -4.44802 -3.01554
81 1 18.851 -4.20484 -3.36027
82 1 19.1166 -3.4271 -4.53588
160 1 22.1177 -0.572947 -6.23536
343 1 26.9911 -4.83505 -1.13181
339 1 24.3875 -5.11403 -0.214431
340 1 24.6877 -4.82589 -1.60131
93 1 25.9631 -4.6433 -2.04325
94 1 26.2382 -4.00765 -3.23168
96 1 27.602 -3.746 -3.582
97 1 27.87 -2.658 -4.45
335 1 20.5828 -5.17611 -0.236635
336 1 21.9494 -5.13846 -0.693394
87 1 22.2518 -4.73417 -2.02839
89 1 23.6093 -4.5199 -2.4693
90 1 23.774 -3.74433 -3.6444
91 1 25.1101 -3.39049 -3.92888
92 1 25.4988 -2.25153 -4.71539
95 1 26.8206 -1.84802 -4.87425
166 1 27.0295 -0.466648 -5.00386
85 1 21.1949 -4.38981 -2.91119
86 1 21.4558 -3.75028 -4.11004
88 1 22.7289 -3.3674 -4.5048
84 1 20.4502 -3.18911 -4.84083
163 1 24.482 -1.33237 -5.0992
107 1 -21.4332 0.971889 -4.97715
178 1 -21.216 2.31895 -4.63659
104 1 -23.825 1.36534 -4.84879
174 1 -23.6064 2.68527 -4.34849
176 1 -22.2661 3.13487 -4.17138
177 1 -21.9826 4.16397 -3.19884
179 1 -20.6535 4.47165 -2.8335
356 1 -20.4154 4.99435 -1.53302
98 1 -27.87 0 -5.183
99 1 -27.602 1.379 -4.996
169 1 -26.2241 1.78099 -4.82888
170 1 -26.0064 2.99099 -4.15698
172 1 -24.7154 3.37579 -3.80789
173 1 -24.3762 4.25412 -2.75884
175 1 -23.0606 4.57759 -2.36824
352 1 -22.8207 5.0495 -1.05245
354 1 -21.4695 5.09007 -0.603317
167 1 -27.0557 3.66395 -3.58779
168 1 -26.8724 4.43185 -2.41464
171 1 -25.5368 4.66566 -1.99989
349 1 -25.2666 5.1163 -0.653135
350 1 -23.9371 5.12385 -0.192758
345 1 -27.87 4.93 -1.602
346 1 -27.602 5.178 -0.233
109 1 -20.3132 0.167214 -5.00687
106 1 -22.7358 0.440283 -5.04331
102 1 -25.1667 0.903569 -4.97753
110 1 -18.9854 0.599045 -4.95416
182 1 -18.7657 1.9482 -4.71473
185 1 -17.4444 2.45833 -4.50987
186 1 -17.2423 3.71496 -3.90307
180 1 -19.8765 2.84729 -4.47846
181 1 -19.6293 3.98203 -3.63258
183 1 -18.305 4.24633 -3.23073
184 1 -17.9911 4.89484 -2.02919
358 1 -19.0655 5.04607 -1.07898
118 1 -12.606 1.61881 -4.8604
194 1 -12.3554 2.87965 -4.38387
112 1 -16.6337 0.211891 -4.89293
113 1 -16.345 1.59449 -4.8547
189 1 -15.0403 2.11263 -4.78263
190 1 -14.842 3.39052 -4.1931
192 1 -13.4524 3.64386 -3.89057
193 1 -13.1416 4.55546 -2.86902
187 1 -15.8889 4.13742 -3.70564
188 1 -15.5636 4.87073 -2.52256
191 1 -14.2349 4.94665 -2.05403
365 1 -13.9981 5.28872 -0.709354
366 1 -12.6663 5.22464 -0.284911
361 1 -16.6326 5.11475 -1.58625
362 1 -16.3875 5.08551 -0.223347
116 1 -13.9398 1.18116 -4.96428
124 1 -7.78131 0.580314 -4.95182
202 1 -7.55376 1.91013 -4.66446
205 1 -6.21882 2.40844 -4.62314
206 1 -5.98816 3.61184 -3.90257
121 1 -10.1511 1.10741 -4.77662
198 1 -9.9386 2.463 -4.47086
200 1 -8.59972 2.76939 -4.27025
201 1 -8.33235 3.91238 -3.48959
203 1 -7.01738 4.20061 -3.1705
204 1 -6.74828 4.97813 -2.01841
196 1 -11.0038 3.29266 -4.17624
197 1 -10.7259 4.28199 -3.264
199 1 -9.37607 4.55208 -2.84724
372 1 -9.16625 5.15713 -1.57971
374 1 -7.84291 5.30617 -1.11804
195 1 -11.8199 4.77966 -2.52243
368 1 -11.5587 5.16376 -1.18106
370 1 -10.2447 5.20105 -0.6815
123 1 -9.13764 0.153334 -4.80759
120 1 -11.5092 0.70801 -4.8942
126 1 -5.4003 0.156553 -5.08391
127 1 -5.16152 1.54501 -5.03994
207 1 -4.65208 3.88959 -3.55189
208 1 -4.32609 4.6208 -2.40642
377 1 -5.37553 5.07701 -1.56414
378 1 -5.09723 5.27585 -0.139738
138 1 3.5345 0.40244 -5.06916
220 1 3.88844 1.71888 -4.80796
135 1 1.03214 0.926147 -4.95073
217 1 1.27344 2.30743 -4.69051
219 1 2.98118 3.96162 -3.64915
132 1 -1.35272 1.47751 -5.0145
213 1 -1.07413 2.79474 -4.59361
215 1 0.238078 3.12298 -4.27905
216 1 0.551563 4.04932 -3.26778
218 1 1.89869 4.37671 -2.87962
388 1 2.17501 4.78201 -1.53997
390 1 3.5292 4.92483 -1.10657
209 1 -3.77232 1.91992 -5.09517
211 1 -2.05343 3.61615 -4.0074
212 1 -1.89472 4.31403 -2.78384
214 1 -0.530239 4.48431 -2.45436
384 1 -0.248603 4.99086 -1.14114
386 1 1.08083 5.04065 -0.666941
210 1 -2.98071 4.75473 -1.98213
381 1 -2.69566 5.14516 -0.650856
382 1 -1.33181 5.12598 -0.172985
137 1 2.14098 -0.00392359 -4.98516
134 1 -0.280986 0.526339 -5.0126
130 1 -2.69515 1.0364 -5.10701
223 1 5.19448 2.16581 -4.54903
224 1 5.4184 3.36326 -3.8488
221 1 4.35515 4.08681 -3.22954
222 1 4.61059 4.74612 -1.97749
146 1 10.0017 1.18255 -4.77846
232 1 10.2903 2.47761 -4.21877
234 1 11.6259 2.8038 -3.9966
235 1 11.9211 3.84743 -3.11173
140 1 5.9295 -0.0780225 -5.05226
141 1 6.26655 1.31756 -4.87217
227 1 7.5952 1.76392 -4.74641
228 1 7.8781 3.00632 -4.11577
230 1 9.20145 3.30304 -3.74203
231 1 9.50945 4.25124 -2.75982
233 1 10.8097 4.42225 -2.34347
400 1 11.063 4.97329 -1.08152
225 1 6.77009 3.74464 -3.57095
226 1 7.03548 4.52247 -2.43298
229 1 8.41448 4.66256 -2.00494
397 1 8.64695 4.96084 -0.697469
398 1 9.97579 5.04666 -0.214249
393 1 5.95357 4.85918 -1.58257
394 1 6.21084 5.15467 -0.201245
148 1 11.0307 0.239415 -4.92003
144 1 8.64472 0.81647 -4.87471
158 1 19.8913 0.75139 -5.11483
152 1 14.7936 0.147873 -5.04866
240 1 15.0872 1.53217 -4.702
243 1 16.3754 2.04082 -4.56061
244 1 16.6369 3.15201 -3.74721
149 1 12.4249 0.675738 -4.83747
236 1 12.7052 1.97833 -4.42259
238 1 14.0239 2.34312 -4.24682
239 1 14.2702 3.44616 -3.42699
241 1 15.5831 3.81608 -3.15423
242 1 15.8339 4.56917 -1.94011
237 1 13.1912 4.07874 -2.71427
404 1 13.4505 4.86346 -1.58426
406 1 14.784 4.95964 -1.10041
402 1 12.3973 5.10112 -0.648692
151 1 13.4613 -0.286363 -5.02866
154 1 17.1758 -0.220245 -5.1259
155 1 17.4487 1.15542 -4.88255
247 1 18.803 1.55455 -4.69858
248 1 19.0496 2.80834 -4.05513
245 1 17.99 3.46021 -3.39841
246 1 18.2742 4.35552 -2.28612
249 1 19.6477 4.54437 -1.89967
413 1 19.876 4.96453 -0.573813
409 1 17.1786 4.81844 -1.47598
410 1 17.4382 5.06157 -0.0917385
161 1 22.2948 0.509677 -5.4381
165 1 26.0117 0.504628 -5.18675
260 1 26.2829 1.81252 -4.80499
263 1 27.602 2.249 -4.67
264 1 27.87 3.41 -3.903
162 1 23.6373 0.914109 -5.12929
256 1 23.9038 2.18309 -4.60779
258 1 25.2344 2.56592 -4.29613
259 1 25.5143 3.68322 -3.53379
261 1 26.843 3.99375 -3.15923
262 1 27.1149 4.82481 -2.06039
159 1 21.1914 1.27026 -5.06918
252 1 21.4301 2.49798 -4.39561
254 1 22.7877 2.91008 -4.14463
255 1 23.0942 3.89482 -3.20379
257 1 24.4284 4.23259 -2.86204
420 1 24.6627 4.84167 -1.61919
422 1 25.9975 5.00232 -1.19911
250 1 20.4103 3.17843 -3.74463
251 1 20.6909 4.12446 -2.72273
253 1 22.029 4.38603 -2.4118
416 1 22.2261 4.8791 -1.13445
418 1 23.5657 5.06249 -0.698069
414 1 21.2023 4.97356 -0.176696
164 1 24.6846 0.0240111 -5.26437
529 1 -22.0204 -1.4916 5.00055
438 1 -20.7241 -1.93671 4.80324
439 1 -20.4272 -3.10213 4.08279
526 1 -24.6779 -0.513329 5.20347
431 1 -24.4557 -1.83821 4.89797
434 1 -23.1005 -2.32817 4.70875
435 1 -22.8123 -3.40466 3.861
436 1 -21.4543 -3.76877 3.49111
437 1 -21.1585 -4.64168 2.48644
523 1 -27.0953 -0.960211 5.18288
427 1 -26.8186 -2.18282 4.64191
429 1 -25.4919 -2.64199 4.43319
430 1 -25.2254 -3.76159 3.60926
432 1 -23.9073 -4.07266 3.27379
433 1 -23.5825 -4.79034 2.10035
273 1 -22.2594 -5.03667 1.65651
274 1 -22.0147 -5.27349 0.254922
425 1 -27.87 -3.047 4.193
426 1 -27.602 -4.052 3.232
428 1 -26.2942 -4.3285 2.86264
268 1 -26.0259 -4.93202 1.61061
270 1 -24.6902 -5.08185 1.23103
266 1 -27.0911 -5.09953 0.682886
536 1 -17.2289 -0.59304 5.08346
532 1 -19.6685 -1.04565 5.13257
534 1 -18.3288 -1.51245 4.96745
443 1 -18.0486 -2.78753 4.43589
441 1 -19.1208 -3.52322 3.80483
442 1 -18.7791 -4.4699 2.79683
444 1 -17.4527 -4.72741 2.42891
280 1 -17.1773 -5.27084 1.13167
440 1 -19.8685 -4.95355 2.06532
277 1 -19.64 -5.29304 0.710956
278 1 -18.2708 -5.38091 0.29625
540 1 -13.4291 -0.61819 5.08134
450 1 -13.1018 -1.99898 4.96872
537 1 -15.8954 -1.07296 5.04254
447 1 -15.701 -2.38184 4.76595
449 1 -13.9794 -4.2694 3.85337
451 1 -12.6306 -4.37986 3.38762
452 1 -12.353 -4.86549 2.0942
445 1 -16.72 -3.17721 4.2353
446 1 -16.4004 -4.19617 3.25095
448 1 -15.0154 -4.5798 2.97745
284 1 -14.7301 -5.02433 1.65579
286 1 -13.4096 -5.15269 1.17292
282 1 -15.7964 -5.24327 0.746228
550 1 -5.95327 -0.529486 4.91914
546 1 -8.31798 -0.971742 4.86808
548 1 -6.98808 -1.39789 4.73491
462 1 -6.69265 -2.68565 4.28076
543 1 -10.7372 -1.50057 4.81377
457 1 -9.35178 -1.88777 4.62699
458 1 -9.08121 -3.10637 4.03638
460 1 -7.75152 -3.51544 3.79474
461 1 -7.49992 -4.61184 2.95298
463 1 -6.14869 -4.87075 2.54999
296 1 -5.87786 -5.21656 1.19362
453 1 -11.8092 -2.44919 4.62208
454 1 -11.5416 -3.64941 3.97121
455 1 -10.1854 -3.92351 3.62651
456 1 -9.91938 -4.73913 2.49384
459 1 -8.60132 -4.94884 2.07272
293 1 -8.30678 -5.31821 0.754667
294 1 -6.9576 -5.33271 0.310725
289 1 -11.0275 -5.02819 1.6512
290 1 -10.7347 -5.24503 0.290043
551 1 -4.60367 -0.959284 4.90851
466 1 -4.3301 -2.29322 4.50923
464 1 -5.37519 -3.09703 4.0496
465 1 -5.09495 -4.2103 3.29259
298 1 -4.53972 -5.24511 0.761895
560 1 2.94689 -0.866345 5.10748
557 1 0.491393 -1.33551 4.90871
477 1 1.85664 -1.69993 4.83066
478 1 2.13735 -2.91557 4.22888
480 1 3.47562 -3.21243 3.86881
481 1 3.75831 -4.09798 2.75774
554 1 -2.21408 -0.440731 5.0497
470 1 -1.95148 -1.80869 4.80841
473 1 -0.607339 -2.23048 4.6764
474 1 -0.292941 -3.33492 3.89657
475 1 1.05978 -3.64512 3.60571
476 1 1.37198 -4.36595 2.43872
479 1 2.6534 -4.54245 1.97528
309 1 2.90332 -5.02926 0.67365
468 1 -2.95318 -2.66874 4.39056
469 1 -2.65484 -3.78457 3.55652
471 1 -1.30924 -3.99158 3.2199
472 1 -1.03503 -4.66781 2.0622
305 1 0.310799 -4.83762 1.64046
306 1 0.525478 -5.20657 0.289375
467 1 -3.74773 -4.45429 2.89592
300 1 -3.44867 -5.04188 1.66479
302 1 -2.11608 -5.03189 1.2185
564 1 5.32594 -0.432265 5.22492
562 1 4.2471 -1.33698 5.03196
482 1 4.55547 -2.49953 4.43794
483 1 5.10099 -4.41712 2.41912
312 1 5.29862 -4.87887 1.11067
310 1 4.22717 -5.09995 0.214436
571 1 11.779 -1.26336 5.09984
568 1 9.16892 -0.376057 5.37236
490 1 9.32042 -1.68474 4.93983
493 1 10.682 -2.05473 4.73005
494 1 10.9443 -3.09858 3.80721
565 1 6.69044 -0.854437 5.12878
486 1 6.93232 -2.10763 4.54436
488 1 8.28597 -2.50629 4.456
489 1 8.58786 -3.51316 3.49931
491 1 9.90143 -3.6755 3.06897
492 1 10.197 -4.38991 1.9041
321 1 11.5506 -4.51299 1.42836
322 1 11.7538 -4.89965 0.0885601
484 1 5.89431 -2.86487 4.07103
485 1 6.16564 -3.92182 3.17438
487 1 7.51851 -4.20197 2.80798
316 1 7.74087 -4.67836 1.47476
318 1 9.07318 -4.80202 1.02954
314 1 6.62434 -4.90606 0.591402
578 1 16.6212 -0.414283 5.2925
574 1 14.1489 -0.845433 5.13701
576 1 15.5362 -1.31211 5.09302
502 1 15.7631 -2.55487 4.4717
497 1 13.078 -1.70513 4.93688
498 1 13.3627 -2.85707 4.18434
500 1 14.6971 -3.26697 3.8637
501 1 14.991 -4.06341 2.7257
503 1 16.2697 -4.40742 2.35483
328 1 16.5695 -4.78905 1.01401
495 1 12.3168 -3.42723 3.45835
496 1 12.6175 -4.1456 2.29392
499 1 13.9359 -4.40136 1.91212
325 1 14.2061 -4.88083 0.571587
326 1 15.55 -4.99199 0.124723
579 1 17.9664 -0.889575 5.20187
506 1 18.155 -2.26177 4.76988
508 1 19.4439 -2.68 4.5067
509 1 19.7506 -3.61834 3.54363
504 1 17.066 -2.94906 4.16959
505 1 17.3028 -3.91749 3.17283
507 1 18.6518 -4.16295 2.76129
332 1 18.9325 -4.71331 1.51326
330 1 17.8866 -4.8948 0.607084
592 1 27.87 -0.465 5.162
588 1 25.4638 -0.89908 5.03746
590 1 26.8134 -1.38783 4.92423
521 1 27.0464 -2.63439 4.35248
585 1 23.1044 -1.316 4.9536
516 1 24.4031 -1.7879 4.77252
517 1 24.6327 -3.0356 4.12012
519 1 25.9897 -3.38477 3.84017
520 1 26.2687 -4.34574 2.82126
522 1 27.602 -4.564 2.456
344 1 27.87 -5.053 1.153
582 1 20.3524 -0.313422 5.55792
512 1 22.0818 -2.2309 4.73528
513 1 22.2046 -3.3347 3.88292
514 1 23.5469 -3.70362 3.50557
515 1 23.8197 -4.47336 2.37403
518 1 25.1608 -4.74174 2.01701
341 1 25.4505 -5.0775 0.715671
342 1 26.7917 -5.05276 0.256708
510 1 21.11 -3.90349 3.21861
511 1 21.3792 -4.65333 2.03038
337 1 22.7468 -4.86781 1.57262
338 1 23.015 -5.12126 0.252555
334 1 20.3006 -4.94668 1.15436
355 1 -21.2238 5.01068 0.743367
351 1 -23.6448 5.06119 1.1896
353 1 -22.3239 4.83233 1.61961
604 1 -22.0555 4.13524 2.79424
606 1 -20.7029 3.81442 3.12456
607 1 -20.4167 2.87167 4.13483
347 1 -26.3343 5.16554 0.302761
348 1 -26.0786 4.97182 1.68482
599 1 -24.7398 4.73872 2.07136
600 1 -24.4318 3.97961 3.26375
602 1 -23.1114 3.62862 3.54737
603 1 -22.7997 2.51938 4.38938
605 1 -21.4508 2.06829 4.56769
530 1 -21.1899 0.751456 5.02266
595 1 -27.0602 4.62624 2.56544
596 1 -26.7931 3.73776 3.63752
597 1 -25.5312 3.28481 3.92862
598 1 -25.1663 2.16324 4.68874
601 1 -23.8798 1.69637 4.84627
527 1 -23.5863 0.372011 5.22938
528 1 -22.283 -0.144813 5.21159
593 1 -27.87 3.047 4.193
594 1 -27.602 1.821 4.853
524 1 -26.2616 1.3502 5.09802
525 1 -25.9933 -0.0344853 5.32434
359 1 -18.8195 5.03638 0.304862
360 1 -17.4679 4.90014 0.71544
612 1 -17.2292 4.4615 1.99741
357 1 -19.9029 4.85678 1.14771
608 1 -19.6262 4.31276 2.39107
610 1 -18.2896 4.1132 2.82416
611 1 -18.0212 3.26341 3.93531
609 1 -19.0954 2.47087 4.41614
533 1 -18.7794 1.22827 5.01878
535 1 -17.5064 0.769982 5.07438
531 1 -19.8789 0.311654 5.17485
367 1 -12.4251 5.02152 1.02991
363 1 -15.0927 5.08785 0.231833
364 1 -14.8138 4.71255 1.54037
619 1 -13.4591 4.64814 1.89896
620 1 -13.2175 3.91182 3.11189
615 1 -15.8818 4.25677 2.36129
616 1 -15.5877 3.57133 3.54752
617 1 -14.2532 3.28114 3.79719
618 1 -14.0151 2.14237 4.56288
621 1 -12.699 1.65027 4.65954
541 1 -12.3711 0.293154 4.98555
613 1 -16.685 2.89842 4.23688
614 1 -16.4344 1.62143 4.86746
538 1 -15.0608 1.21561 4.91518
539 1 -14.7987 -0.175194 5.09626
375 1 -7.56097 5.28546 0.304066
376 1 -6.19186 5.24548 0.785503
632 1 -5.93296 4.85257 2.1123
371 1 -9.98992 5.06766 0.691942
373 1 -8.6486 5.03252 1.16815
628 1 -8.35617 4.49688 2.43062
630 1 -7.05419 4.2993 2.87493
631 1 -6.81779 3.34293 3.83241
369 1 -11.087 4.86518 1.53676
624 1 -10.8075 4.16762 2.7181
626 1 -9.46864 3.86771 3.15691
627 1 -9.21311 2.87614 4.1251
629 1 -7.85614 2.57023 4.40578
547 1 -7.578 1.27756 4.89457
549 1 -6.24299 0.82784 4.907
622 1 -11.8758 3.54469 3.3927
623 1 -11.6173 2.49471 4.27967
625 1 -10.2817 2.03315 4.50436
544 1 -9.96155 0.730548 4.97356
545 1 -8.635 0.336344 4.98677
542 1 -11.0209 -0.162224 5.00987
635 1 -4.55786 4.61603 2.50264
636 1 -4.2929 3.71133 3.55235
633 1 -5.4184 2.99289 4.09449
634 1 -5.17898 1.76045 4.74269
391 1 3.75995 5.02985 0.247771
387 1 1.34158 5.04685 0.737317
389 1 2.68689 4.98989 1.16522
648 1 2.96165 4.51462 2.4872
383 1 -1.06626 4.96946 1.18847
385 1 0.260955 4.83506 1.64363
644 1 0.503213 4.3242 2.92207
646 1 1.86948 4.11769 3.28402
647 1 2.11814 3.09418 4.2175
649 1 3.4284 2.60265 4.38255
561 1 3.71696 1.4012 4.96267
379 1 -3.7476 5.23234 0.265771
380 1 -3.47921 4.91882 1.61608
639 1 -2.12972 4.71583 2.0856
640 1 -1.89668 4.02302 3.24869
642 1 -0.559885 3.77632 3.67078
643 1 -0.285035 2.68611 4.44304
645 1 1.05093 2.26407 4.72477
558 1 1.30664 0.951383 5.03157
559 1 2.66281 0.513366 5.07331
637 1 -2.965 3.34007 3.84515
638 1 -2.73018 2.1377 4.5409
641 1 -1.34384 1.76532 4.69002
555 1 -1.12845 0.438441 5.074
556 1 0.227406 -0.00250438 5.16173
552 1 -3.83445 1.31775 4.92352
553 1 -3.56662 -0.0372462 4.99347
392 1 5.12818 5.14674 0.701364
652 1 5.38238 4.73063 2.01833
650 1 4.35312 4.30587 2.89678
651 1 4.5358 3.30897 3.84245
563 1 5.04985 0.953164 5.12519
399 1 10.1788 4.94846 1.16079
401 1 11.5269 4.93104 1.63383
664 1 11.7906 4.33728 2.92969
395 1 7.56084 5.06445 0.243662
396 1 7.8383 4.77351 1.58201
659 1 9.13468 4.69987 2.06027
660 1 9.37552 4.02265 3.2674
662 1 10.74 3.73426 3.59648
663 1 11.0432 2.71572 4.53123
655 1 6.70441 4.41231 2.38534
656 1 6.93328 3.62666 3.50097
657 1 8.27205 3.38351 3.95472
658 1 8.56646 2.32306 4.78563
661 1 9.93491 1.94034 5.0115
569 1 10.1909 0.59959 5.28726
570 1 11.5481 0.141949 5.29217
653 1 5.8598 2.9668 4.11623
654 1 6.1441 1.81669 4.87067
566 1 7.51295 1.46265 5.14763
567 1 7.78227 0.0399942 5.32895
407 1 15.0344 5.21374 0.275005
408 1 16.3523 5.0882 0.812651
672 1 16.63 4.67934 2.13823
403 1 12.6114 5.05182 0.737739
405 1 13.9445 5.05706 1.22779
668 1 14.2186 4.62501 2.56825
670 1 15.5469 4.3425 2.90781
671 1 15.8553 3.51601 4.01742
666 1 13.1709 4.12898 3.33937
667 1 13.4392 3.14976 4.32575
669 1 14.7673 2.70377 4.53172
575 1 14.9951 1.43098 5.08409
577 1 16.3279 0.967725 5.17031
665 1 12.3839 2.32718 4.7545
572 1 12.6044 1.04181 5.25227
573 1 13.9311 0.560736 5.22649
411 1 18.7942 5.04979 0.365172
412 1 19.0317 4.85178 1.70684
675 1 17.9322 4.52682 2.54628
676 1 18.2763 3.77068 3.68985
677 1 19.6025 3.38241 3.95642
678 1 19.813 2.20839 4.66391
673 1 17.2097 3.04608 4.24285
674 1 17.4302 1.81997 4.88161
580 1 18.7466 1.40174 5.02961
581 1 19.0088 0.0836725 5.3572
423 1 26.2417 5.12933 0.167393
424 1 27.602 5.136 0.696
692 1 27.87 4.766 2.037
419 1 23.8936 5.07602 0.689118
421 1 25.2223 5.02101 1.1359
688 1 25.4652 4.57872 2.46215
690 1 26.8031 4.25232 2.79857
691 1 27.0244 3.37855 3.90805
415 1 21.4882 4.9486 1.22753
417 1 22.8642 4.906 1.64877
684 1 23.1181 4.30019 2.89664
686 1 24.4282 4.04949 3.29364
687 1 24.6594 2.97032 4.16642
689 1 25.973 2.65349 4.4144
589 1 26.2877 1.37419 4.89281
591 1 27.602 0.925 5.1
679 1 20.387 4.6903 2.08723
680 1 20.6777 4.03179 3.31178
682 1 22.0274 3.69838 3.62877
683 1 22.2292 2.65215 4.47
685 1 23.5646 2.22273 4.64674
586 1 23.8914 0.935773 5.11005
587 1 25.2455 0.484107 5.11757
681 1 21.1881 1.79419 4.87647
583 1 21.4803 0.472144 5.25854
584 1 22.8207 0.0177429 5.15765
ITEM: TIMESTEP
2100
ITEM: NUMBER OF ATOMS
692
ITEM: BOX BOUNDS ff ff ff
-6.0000000000000000e+01 6.0000000000000000e+01
-4.0000000000000000e+01 4.0000000000000000e+01
-4.0000000000000000e+01 4.0000000000000000e+01
ITEM: ATOMS id type x y z
275 1 -20.6618 -5.07936 -0.182565
276 1 -20.3484 -4.87378 -1.57428
271 1 -24.4102 -5.25468 -0.183066
272 1 -23.0578 -5.12295 -0.699426
8 1 -22.6932 -4.81937 -2.05004
11 1 -21.3898 -4.53783 -2.47009
12 1 -21.1518 -3.64993 -3.57609
267 1 -26.868 -5.30265 -0.646898
269 1 -25.52 -5.43973 -1.10378
6 1 -23.6704 -4.42468 -2.92195
7 1 -23.5161 -3.37373 -3.84706
9 1 -22.1859 -2.93773 -4.12309
10 1 -21.9802 -1.76485 -4.7789
108 1 -20.6545 -1.31839 -4.91554
265 1 -27.87 -4.93 -1.602
1 1 -27.602 -4.326 -2.855
3 1 -26.2852 -4.00653 -3.31333
4 1 -25.9805 -2.98266 -4.19049
5 1 -24.6127 -2.60801 -4.35237
103 1 -24.3459 -1.35984 -4.92982
105 1 -23.0503 -0.895275 -5.01324
2 1 -27.0879 -2.18441 -4.72837
100 1 -26.7691 -0.87415 -5.13347
101 1 -25.4082 -0.420726 -5.03046
279 1 -17.9177 -4.84088 -1.07753
15 1 -19.0002 -4.60254 -1.96019
16 1 -18.7879 -3.90572 -3.19265
18 1 -17.4515 -3.54468 -3.41703
19 1 -17.1957 -2.54375 -4.29181
13 1 -19.8138 -3.37495 -3.96153
14 1 -19.5708 -2.20855 -4.65082
17 1 -18.235 -1.73947 -4.76549
111 1 -17.9714 -0.376788 -5.04925
287 1 -13.1228 -5.18236 -0.144239
283 1 -15.5154 -4.96616 -0.576187
285 1 -14.1661 -4.98259 -1.05116
24 1 -13.9807 -4.42736 -2.33928
26 1 -12.5969 -4.13438 -2.6361
27 1 -12.3493 -3.24556 -3.61784
281 1 -16.5717 -4.7663 -1.51281
20 1 -16.364 -4.18738 -2.75629
22 1 -15.0287 -3.91157 -3.12239
23 1 -14.7857 -2.90732 -3.98388
25 1 -13.4472 -2.54533 -4.1366
117 1 -13.1549 -1.32451 -4.75726
21 1 -15.8675 -2.13479 -4.45796
114 1 -15.5947 -0.875466 -4.96701
115 1 -14.2445 -0.474686 -4.99116
295 1 -6.6816 -5.05852 -1.00738
291 1 -9.39655 -5.18666 -0.0919143
292 1 -9.16504 -4.90521 -1.43357
35 1 -7.8191 -4.71211 -1.78901
36 1 -7.55857 -3.89597 -2.88967
38 1 -6.19964 -3.55885 -3.24273
39 1 -5.9235 -2.45193 -4.05966
288 1 -11.752 -5.11389 -0.52553
28 1 -11.5426 -4.67923 -1.87431
31 1 -10.2196 -4.47623 -2.29139
32 1 -9.91882 -3.53557 -3.25748
33 1 -8.6084 -3.16094 -3.50372
34 1 -8.36726 -2.0254 -4.27985
37 1 -6.99714 -1.64593 -4.49763
125 1 -6.75297 -0.284159 -4.85176
29 1 -10.9985 -2.7947 -3.81878
30 1 -10.7026 -1.59281 -4.39551
122 1 -9.39354 -1.17571 -4.63024
119 1 -11.7974 -0.813135 -4.78797
299 1 -4.29231 -5.07992 -0.587215
297 1 -5.35382 -4.86661 -1.45293
40 1 -5.08505 -4.17573 -2.64864
41 1 -4.53526 -2.03627 -4.21888
128 1 -4.28541 -0.749531 -4.7212
307 1 1.87568 -5.22422 -0.192501
308 1 2.12021 -4.88742 -1.51679
55 1 3.44556 -4.59847 -1.89194
56 1 3.70706 -3.84777 -3.03985
303 1 -1.93401 -5.26535 -0.152073
304 1 -0.603488 -5.18105 -0.59798
48 1 -0.315938 -4.70291 -1.91782
51 1 1.024 -4.37588 -2.22667
52 1 1.30301 -3.49305 -3.27706
53 1 2.61773 -3.18848 -3.59002
54 1 2.88886 -2.14225 -4.47771
301 1 -2.99142 -5.11768 -1.10103
44 1 -2.68239 -4.52054 -2.3314
46 1 -1.36423 -4.16828 -2.67244
47 1 -1.04459 -3.19367 -3.66224
49 1 0.271037 -2.87321 -4.01104
50 1 0.537758 -1.6388 -4.70856
136 1 1.87099 -1.25919 -4.86831
42 1 -3.77041 -3.85386 -3.01443
43 1 -3.47765 -2.864 -3.92761
45 1 -2.15579 -2.46539 -4.20207
131 1 -1.88251 -1.17951 -4.70282
133 1 -0.533057 -0.748359 -4.86327
129 1 -2.94947 -0.244855 -4.75866
311 1 4.53261 -4.95938 -1.05221
58 1 5.0196 -3.70204 -3.43601
59 1 5.25001 -2.62642 -4.31123
57 1 4.20656 -1.74442 -4.7226
139 1 4.56272 -0.430458 -5.04324
319 1 9.38449 -5.11507 -0.292255
320 1 10.7295 -5.17802 -0.78302
68 1 10.9827 -4.97857 -2.16028
315 1 6.96784 -5.15997 -0.694084
317 1 8.28618 -5.05899 -1.19621
64 1 8.56697 -4.70191 -2.54313
66 1 9.90341 -4.57903 -2.9751
67 1 10.0774 -3.72109 -4.12638
69 1 11.3618 -3.32269 -4.43622
70 1 11.7265 -2.08814 -5.00386
313 1 5.85033 -4.94359 -1.55414
60 1 6.0996 -4.34012 -2.79268
62 1 7.44036 -4.16907 -3.24508
63 1 7.67886 -3.17846 -4.22573
65 1 9.00632 -2.83132 -4.5474
145 1 9.29268 -1.58004 -5.1339
147 1 10.6568 -1.16568 -5.21379
61 1 6.62462 -2.2795 -4.60475
142 1 6.92461 -0.974728 -5.04161
143 1 8.24002 -0.620852 -5.24764
157 1 19.514 -0.54101 -5.5354
156 1 18.1746 -1.12355 -5.4163
80 1 17.9595 -2.49644 -4.97342
327 1 15.8273 -5.02335 -1.19031
323 1 13.1384 -5.0724 -0.294496
324 1 13.4355 -5.15094 -1.67086
74 1 14.7876 -4.96792 -2.17154
75 1 15.1042 -4.42415 -3.45721
77 1 16.438 -3.98544 -3.75475
78 1 16.6393 -2.91093 -4.67216
71 1 12.3241 -5.02518 -2.56178
72 1 14.0627 -3.73967 -4.11935
73 1 14.2129 -2.56699 -4.84029
76 1 15.5456 -2.08013 -4.99396
153 1 15.8007 -0.722265 -5.22135
150 1 13.1036 -1.7186 -5.13158
331 1 18.2996 -4.86707 -0.705
333 1 19.6534 -4.72984 -1.18959
83 1 19.8798 -4.44266 -2.52774
329 1 17.2149 -4.78255 -1.62209
79 1 17.4948 -4.36442 -2.93199
81 1 18.8064 -4.08873 -3.37407
82 1 19.0367 -3.32043 -4.53315
160 1 21.9769 -0.617095 -6.51278
343 1 26.9979 -5.04365 -1.12184
339 1 24.3991 -4.83511 -0.244398
340 1 24.6164 -4.67089 -1.65165
93 1 25.9865 -4.73972 -2.07601
94 1 26.313 -4.14385 -3.29393
96 1 27.602 -3.746 -3.582
97 1 27.87 -2.658 -4.45
335 1 20.6783 -4.74166 -0.232485
336 1 21.9894 -4.81523 -0.679787
87 1 22.2317 -4.6411 -2.0665
89 1 23.5527 -4.46443 -2.52868
90 1 23.8879 -3.90357 -3.75427
91 1 25.2805 -3.57005 -4.06109
92 1 25.5458 -2.38022 -4.86883
95 1 26.8527 -1.8424 -4.986
166 1 27.0808 -0.499288 -5.29629
85 1 21.1871 -4.30614 -2.95983
86 1 21.4601 -3.72083 -4.14437
88 1 22.8246 -3.51451 -4.57106
84 1 20.4143 -3.22771 -4.96093
163 1 24.5328 -1.49041 -5.24939
107 1 -21.4415 0.998917 -4.99501
178 1 -21.1394 2.32741 -4.64327
104 1 -23.8515 1.50284 -4.97377
174 1 -23.5468 2.80122 -4.50724
176 1 -22.2129 3.14499 -4.28936
177 1 -21.9981 4.19905 -3.26408
179 1 -20.6616 4.40792 -2.8185
356 1 -20.374 4.91615 -1.54347
98 1 -27.87 0 -5.183
99 1 -27.602 1.379 -4.996
169 1 -26.2508 1.88595 -4.79195
170 1 -25.9377 3.21839 -4.27305
172 1 -24.5955 3.60173 -3.99365
173 1 -24.3926 4.43696 -2.849
175 1 -23.0548 4.70926 -2.4416
352 1 -22.7775 5.10265 -1.10577
354 1 -21.4065 5.18805 -0.64874
167 1 -27.0258 3.83748 -3.62835
168 1 -26.8144 4.57396 -2.47316
171 1 -25.4982 4.75863 -2.04848
349 1 -25.2199 5.13064 -0.733769
350 1 -23.8842 5.17021 -0.267262
345 1 -27.87 4.93 -1.602
346 1 -27.602 5.178 -0.233
109 1 -20.4292 0.0562476 -5.07867
106 1 -22.7765 0.527796 -5.04558
102 1 -25.1444 0.999348 -4.99743
110 1 -19.051 0.549684 -5.02741
182 1 -18.7113 1.92513 -4.74927
185 1 -17.3639 2.31844 -4.53167
186 1 -17.1169 3.453 -3.73315
180 1 -19.8364 2.74044 -4.38736
181 1 -19.6138 3.82367 -3.53383
183 1 -18.2743 4.13735 -3.16414
184 1 -18.0354 4.90274 -2.02148
358 1 -19.0909 5.09837 -1.14806
118 1 -12.7356 1.46867 -4.82205
194 1 -12.4195 2.76517 -4.33426
112 1 -16.6214 0.0881902 -5.02804
113 1 -16.3415 1.44147 -4.79787
189 1 -15.0274 1.85162 -4.65259
190 1 -14.7871 3.08513 -3.99415
192 1 -13.456 3.54035 -3.81878
193 1 -13.1634 4.5139 -2.81623
187 1 -15.8088 3.731 -3.3449
188 1 -15.5276 4.64838 -2.33331
191 1 -14.1895 4.9305 -1.94123
365 1 -13.9038 5.27223 -0.638629
366 1 -12.5754 5.4072 -0.241937
361 1 -16.6635 4.99809 -1.57867
362 1 -16.3815 5.26487 -0.230619
116 1 -14.0222 0.937435 -4.95353
124 1 -7.79096 0.644981 -4.87915
202 1 -7.55282 2.0462 -4.65088
205 1 -6.22449 2.52759 -4.56364
206 1 -5.99175 3.89022 -4.10649
121 1 -10.2612 1.06592 -4.8831
198 1 -10.0403 2.41307 -4.51446
200 1 -8.68203 2.87879 -4.40318
201 1 -8.40996 4.03394 -3.65718
203 1 -7.07389 4.44165 -3.4116
204 1 -6.77271 4.96747 -2.11902
196 1 -11.1244 3.13507 -4.038
197 1 -10.7931 4.14251 -3.14017
199 1 -9.42372 4.52607 -2.90865
372 1 -9.11905 5.08544 -1.61624
374 1 -7.78972 5.08352 -1.15711
195 1 -11.8265 4.66625 -2.4231
368 1 -11.5059 5.22027 -1.16761
370 1 -10.1632 5.28568 -0.665438
123 1 -9.17783 0.187156 -4.90299
120 1 -11.5995 0.576909 -4.93984
126 1 -5.41028 0.145933 -4.85225
127 1 -5.16752 1.56106 -4.79408
207 1 -4.68884 4.3452 -3.77933
208 1 -4.29205 4.84788 -2.52839
377 1 -5.4141 5.07553 -1.63591
378 1 -5.07433 5.11964 -0.267516
138 1 3.4964 0.487622 -5.13849
220 1 3.81928 1.82026 -5.10235
135 1 1.05624 1.08607 -5.12696
217 1 1.29641 2.49479 -5.01049
219 1 3.00183 3.96236 -3.64304
132 1 -1.35945 1.53291 -4.90667
213 1 -1.00796 2.85137 -4.49879
215 1 0.333685 3.3267 -4.40054
216 1 0.603333 4.2564 -3.39579
218 1 1.90757 4.4011 -2.94712
388 1 2.1614 4.82234 -1.63816
390 1 3.51161 4.9388 -1.09166
209 1 -3.82157 2.00241 -4.89191
211 1 -1.95341 3.7262 -3.97004
212 1 -1.77554 4.58929 -2.93382
214 1 -0.456853 4.7235 -2.5414
384 1 -0.218047 4.99691 -1.15424
386 1 1.11616 4.99118 -0.718034
210 1 -2.92168 4.92843 -2.12911
381 1 -2.67709 5.10174 -0.754808
382 1 -1.31466 5.08132 -0.24905
137 1 2.12584 0.105364 -5.11182
134 1 -0.271636 0.634775 -5.0168
130 1 -2.72199 1.10601 -4.85061
223 1 5.15377 2.29266 -4.91381
224 1 5.36661 3.42955 -4.01982
221 1 4.30153 4.04269 -3.23405
222 1 4.56924 4.57863 -1.94773
146 1 9.86301 1.14363 -5.03229
232 1 10.1522 2.35155 -4.34957
234 1 11.4773 2.66297 -4.01743
235 1 11.7096 3.62246 -3.00545
140 1 5.91215 -0.0497024 -5.14203
141 1 6.205 1.35957 -5.1535
227 1 7.52508 1.7618 -4.96397
228 1 7.80408 2.88805 -4.22277
230 1 9.10291 3.10398 -3.74901
231 1 9.32877 3.96942 -2.7128
233 1 10.647 4.14998 -2.29535
400 1 10.9274 4.81866 -1.08533
225 1 6.68273 3.58635 -3.59416
226 1 6.92685 4.25288 -2.39886
229 1 8.24761 4.46318 -1.95006
397 1 8.54049 4.9681 -0.645498
398 1 9.88211 4.95069 -0.18549
393 1 5.88799 4.59196 -1.52312
394 1 6.16217 4.95368 -0.171849
148 1 10.9238 0.198247 -5.2006
144 1 8.54117 0.754812 -5.12214
158 1 19.8053 0.781189 -5.18614
152 1 14.6946 0.174676 -5.22177
240 1 14.9269 1.49465 -4.81588
243 1 16.2814 1.94208 -4.6314
244 1 16.5633 3.0536 -3.76927
149 1 12.2615 0.617388 -5.12977
236 1 12.5432 1.89679 -4.57597
238 1 13.8723 2.32441 -4.3576
239 1 14.1075 3.4182 -3.49114
241 1 15.4987 3.72633 -3.19604
242 1 15.7554 4.51113 -2.04542
237 1 13.0329 3.94472 -2.72379
404 1 13.3351 4.60925 -1.55458
406 1 14.6857 4.80814 -1.18498
402 1 12.2436 4.91372 -0.711179
151 1 13.3701 -0.324169 -5.22716
154 1 17.1199 -0.194663 -5.33875
155 1 17.3447 1.14884 -5.06025
247 1 18.7062 1.56655 -4.82172
248 1 18.9924 2.70295 -4.01673
245 1 17.9138 3.39492 -3.45635
246 1 18.2239 4.28307 -2.43004
249 1 19.5569 4.50798 -1.9665
413 1 19.8428 4.94087 -0.6397
409 1 17.094 4.68519 -1.62014
410 1 17.3686 4.98492 -0.252873
161 1 22.2634 0.472581 -5.68793
165 1 25.9747 0.421594 -5.25315
260 1 26.2995 1.7311 -4.85226
263 1 27.602 2.249 -4.67
264 1 27.87 3.41 -3.903
162 1 23.606 0.8281 -5.37725
256 1 23.864 2.10385 -4.70612
258 1 25.2138 2.55365 -4.51858
259 1 25.4584 3.58509 -3.60278
261 1 26.7973 3.90852 -3.20707
262 1 27.035 4.70156 -2.13395
159 1 21.1578 1.19652 -5.08742
252 1 21.3868 2.37935 -4.34624
254 1 22.7481 2.78948 -4.13736
255 1 23.0102 3.84778 -3.28667
257 1 24.3734 4.12302 -2.89636
420 1 24.656 4.7546 -1.64793
422 1 25.9842 4.9269 -1.22349
250 1 20.3294 3.06375 -3.73519
251 1 20.6316 4.08186 -2.78997
253 1 21.9724 4.32794 -2.4201
416 1 22.2581 4.84221 -1.1323
418 1 23.6284 4.89989 -0.698209
414 1 21.1918 5.07383 -0.23191
164 1 24.6969 -0.0583939 -5.48091
529 1 -21.9449 -1.38677 4.92812
438 1 -20.6396 -1.87393 4.85206
439 1 -20.3389 -3.11854 4.30471
526 1 -24.6299 -0.423013 5.1016
431 1 -24.3769 -1.74662 4.67036
434 1 -23.0744 -2.21684 4.59764
435 1 -22.7784 -3.39438 3.90155
436 1 -21.4158 -3.77715 3.67997
437 1 -21.2074 -4.41465 2.45759
523 1 -27.0114 -0.864199 5.04986
427 1 -26.8171 -2.19427 4.53704
429 1 -25.4713 -2.56435 4.25381
430 1 -25.1706 -3.66303 3.4631
432 1 -23.8532 -3.94925 3.15627
433 1 -23.6094 -4.67028 1.98124
273 1 -22.2828 -4.7999 1.56295
274 1 -22.0157 -5.10146 0.238937
425 1 -27.87 -3.047 4.193
426 1 -27.602 -4.052 3.232
428 1 -26.2783 -4.33375 2.86093
268 1 -26.0121 -4.9627 1.61849
270 1 -24.6712 -5.06696 1.1775
266 1 -27.1057 -5.15097 0.736616
536 1 -17.1665 -0.602901 5.09767
532 1 -19.5503 -1.01924 5.08615
534 1 -18.2078 -1.44825 5.03927
443 1 -17.9223 -2.6986 4.59112
441 1 -18.9984 -3.43616 4.05402
442 1 -18.7678 -4.19945 2.88979
444 1 -17.4259 -4.46044 2.49999
280 1 -17.153 -4.86848 1.22602
440 1 -19.8778 -4.60699 2.06978
277 1 -19.5977 -4.94209 0.764702
278 1 -18.2272 -4.95459 0.294424
540 1 -13.3734 -0.595484 5.23938
450 1 -13.0318 -1.9756 5.2656
537 1 -15.8414 -1.05375 5.13712
447 1 -15.6569 -2.41471 4.92678
449 1 -13.8704 -4.18887 3.82478
451 1 -12.5375 -4.25927 3.40252
452 1 -12.3276 -4.84127 2.17296
445 1 -16.6567 -3.19334 4.34749
446 1 -16.3513 -4.12093 3.36776
448 1 -15.0012 -4.45038 3.00111
284 1 -14.745 -4.87548 1.70424
286 1 -13.4196 -5.03038 1.25097
282 1 -15.8043 -4.96694 0.79281
550 1 -5.93915 -0.584772 5.16854
546 1 -8.33212 -0.958849 5.07466
548 1 -6.98993 -1.49786 5.0991
462 1 -6.7143 -2.80743 4.59882
543 1 -10.7014 -1.46713 5.23958
457 1 -9.39784 -1.90069 4.95592
458 1 -9.12127 -3.17767 4.37435
460 1 -7.80068 -3.51541 4.00464
461 1 -7.50305 -4.37981 2.91093
463 1 -6.15753 -4.56657 2.52174
296 1 -5.87015 -5.07145 1.26417
453 1 -11.7196 -2.43725 5.02605
454 1 -11.4861 -3.61993 4.13322
455 1 -10.1534 -3.91074 3.78732
456 1 -9.89716 -4.59782 2.55066
459 1 -8.5735 -4.78997 2.0944
293 1 -8.27351 -5.19055 0.79158
294 1 -6.94158 -5.25395 0.31165
289 1 -10.9535 -4.97223 1.75561
290 1 -10.6776 -5.18672 0.389244
551 1 -4.60156 -1.0094 5.12105
466 1 -4.29569 -2.3124 4.79233
464 1 -5.35881 -3.11812 4.30258
465 1 -5.07335 -4.07505 3.29844
298 1 -4.58015 -5.01735 0.804674
560 1 2.96081 -0.928556 5.12074
557 1 0.544779 -1.37775 5.08704
477 1 1.9047 -1.81761 4.83225
478 1 2.1408 -3.02519 4.08374
480 1 3.50105 -3.33804 3.81599
481 1 3.76932 -4.29477 2.83227
554 1 -2.17917 -0.524652 5.13509
470 1 -1.87223 -1.83843 4.85982
473 1 -0.515474 -2.26133 4.69681
474 1 -0.236719 -3.4025 3.89381
475 1 1.09285 -3.75703 3.53862
476 1 1.34977 -4.57827 2.43008
479 1 2.70208 -4.73335 2.04467
309 1 2.9385 -5.1659 0.771013
468 1 -2.93896 -2.68241 4.51811
469 1 -2.62903 -3.74719 3.63884
471 1 -1.30762 -4.08885 3.2708
472 1 -1.0888 -4.8541 2.06982
305 1 0.253444 -4.98718 1.61663
306 1 0.528933 -5.23374 0.288032
467 1 -3.73429 -4.27766 2.90324
300 1 -3.49219 -4.84904 1.68168
302 1 -2.17915 -5.08006 1.24186
564 1 5.37253 -0.351644 5.11444
562 1 4.30264 -1.26262 4.86289
482 1 4.57861 -2.51162 4.35078
483 1 5.09708 -4.47178 2.42543
312 1 5.37874 -5.1217 1.17989
310 1 4.2788 -5.22181 0.294765
571 1 11.7464 -1.17935 4.83172
568 1 9.11624 -0.300678 5.0203
490 1 9.37681 -1.6246 4.59535
493 1 10.7229 -2.08407 4.48783
494 1 11.0173 -3.25125 3.78625
565 1 6.68399 -0.845352 5.05869
486 1 6.98068 -2.0726 4.50384
488 1 8.28213 -2.46623 4.24025
489 1 8.56271 -3.54978 3.43346
491 1 9.9126 -3.92504 3.18547
492 1 10.1322 -4.64277 1.93666
321 1 11.5081 -4.73253 1.47899
322 1 11.8132 -5.09843 0.14234
484 1 5.92963 -2.8329 4.03643
485 1 6.19826 -3.86087 3.10772
487 1 7.51446 -4.17391 2.75679
316 1 7.78855 -4.94838 1.55691
318 1 9.09813 -4.99683 1.07044
314 1 6.72769 -5.24133 0.704018
578 1 16.593 -0.256388 5.15395
574 1 14.1603 -0.73598 4.99702
576 1 15.5167 -1.1478 4.94213
502 1 15.7679 -2.42301 4.37354
497 1 13.072 -1.59522 4.71311
498 1 13.4039 -2.78621 4.07398
500 1 14.7615 -3.12752 3.72628
501 1 15.0222 -3.9711 2.65987
503 1 16.3692 -4.16934 2.3369
328 1 16.6424 -4.69469 1.04848
495 1 12.381 -3.48926 3.43569
496 1 12.5988 -4.30958 2.32111
499 1 13.9256 -4.42803 1.92178
325 1 14.238 -4.87238 0.635309
326 1 15.5818 -5.0076 0.182925
579 1 17.9226 -0.714511 5.26042
506 1 18.1101 -2.04646 4.76512
508 1 19.4113 -2.52821 4.609
509 1 19.8456 -3.39177 3.5458
504 1 17.0999 -2.78909 4.18094
505 1 17.4147 -3.65731 3.08649
507 1 18.7827 -3.88353 2.74515
332 1 19.0514 -4.50927 1.52323
330 1 17.983 -4.73363 0.629153
592 1 27.87 -0.465 5.162
588 1 25.5214 -0.913673 5.24766
590 1 26.8091 -1.32658 5.00812
521 1 27.0301 -2.61025 4.58338
585 1 23.1662 -1.40605 5.39722
516 1 24.4809 -1.85362 5.1479
517 1 24.7107 -2.9639 4.3004
519 1 26.0235 -3.26682 3.96196
520 1 26.2692 -4.16892 2.8725
522 1 27.602 -4.564 2.456
344 1 27.87 -5.053 1.153
582 1 20.3552 -0.192159 5.71325
512 1 22.143 -2.36509 5.08411
513 1 22.2792 -3.23073 4.0313
514 1 23.6084 -3.53494 3.60474
515 1 23.8938 -4.24416 2.42081
518 1 25.1962 -4.5406 2.02753
341 1 25.4875 -4.84109 0.682215
342 1 26.8002 -5.04005 0.214049
510 1 21.2039 -3.66044 3.26082
511 1 21.491 -4.26034 2.00671
337 1 22.8122 -4.51336 1.58134
338 1 23.0686 -4.8895 0.265869
334 1 20.3989 -4.53299 1.11943
355 1 -21.1293 5.24856 0.736635
351 1 -23.5584 5.07647 1.12925
353 1 -22.2313 4.98098 1.62421
604 1 -21.9112 4.27984 2.78599
606 1 -20.5943 4.05179 3.14234
607 1 -20.2965 2.96808 3.99831
347 1 -26.2645 5.13948 0.190597
348 1 -25.9771 4.88111 1.51117
599 1 -24.6373 4.70408 1.93688
600 1 -24.3554 4.00578 3.12949
602 1 -23.0241 3.66891 3.39181
603 1 -22.746 2.55612 4.15663
605 1 -21.421 2.14285 4.45726
530 1 -21.1383 0.842641 4.91955
595 1 -26.9791 4.47046 2.38461
596 1 -26.7565 3.71658 3.56711
597 1 -25.4276 3.32275 3.79692
598 1 -25.1724 2.23012 4.57824
601 1 -23.8059 1.76855 4.65969
527 1 -23.5375 0.429798 5.06843
528 1 -22.2024 -0.0366405 5.03688
593 1 -27.87 3.047 4.193
594 1 -27.602 1.821 4.853
524 1 -26.2301 1.42559 5.00052
525 1 -25.9333 0.0667708 5.13527
359 1 -18.7667 5.19836 0.228446
360 1 -17.4339 5.17803 0.679105
612 1 -17.1332 4.84269 1.97694
357 1 -19.801 5.09833 1.17973
608 1 -19.5088 4.59745 2.4185
610 1 -18.168 4.35301 2.80508
611 1 -17.8998 3.26045 3.73818
609 1 -18.9936 2.50399 4.25916
533 1 -18.7103 1.2718 4.84696
535 1 -17.3787 0.818951 4.95397
531 1 -19.8172 0.386531 5.00652
367 1 -12.2836 5.1962 1.1527
363 1 -14.979 5.305 0.233179
364 1 -14.7247 5.00085 1.56621
619 1 -13.4014 4.77081 1.97694
620 1 -13.0917 3.91657 3.06445
615 1 -15.8127 4.55637 2.36658
616 1 -15.5147 3.61247 3.39222
617 1 -14.1827 3.21693 3.70498
618 1 -13.9354 2.07768 4.43745
621 1 -12.5968 1.68804 4.68706
541 1 -12.3647 0.336441 5.10308
613 1 -16.5777 2.86084 3.97465
614 1 -16.318 1.6881 4.65731
538 1 -14.9743 1.20178 4.81471
539 1 -14.7053 -0.161756 5.14631
375 1 -7.46709 5.05272 0.200901
376 1 -6.11654 5.01542 0.622435
632 1 -5.86964 4.59261 1.90527
371 1 -9.87687 5.18562 0.715719
373 1 -8.50448 5.02243 1.14647
628 1 -8.23587 4.42749 2.35679
630 1 -6.94806 4.20912 2.72394
631 1 -6.73995 3.28579 3.72812
369 1 -10.954 4.97085 1.53766
624 1 -10.6309 4.20231 2.66415
626 1 -9.30511 3.84073 3.03254
627 1 -9.1127 2.82236 3.97194
629 1 -7.75334 2.50559 4.32337
547 1 -7.52018 1.27222 4.97595
549 1 -6.21494 0.76199 5.08686
622 1 -11.7516 3.59386 3.37229
623 1 -11.5079 2.48979 4.22377
625 1 -10.1608 2.01799 4.40638
544 1 -9.9326 0.780268 4.99998
545 1 -8.58774 0.36827 5.10014
542 1 -11.0133 -0.108399 5.22278
635 1 -4.54605 4.37084 2.37612
636 1 -4.32453 3.47478 3.42518
633 1 -5.43151 2.84451 4.03968
634 1 -5.14593 1.67431 4.7665
391 1 3.72912 5.00134 0.290708
387 1 1.34752 4.93608 0.683593
389 1 2.64269 4.88153 1.19229
648 1 2.90363 4.52019 2.52878
383 1 -1.06242 4.90142 1.1237
385 1 0.278312 4.82198 1.5845
644 1 0.514192 4.23664 2.87074
646 1 1.83552 4.01254 3.29354
647 1 2.09756 3.03123 4.28162
649 1 3.43132 2.63997 4.60245
561 1 3.69489 1.39777 5.17488
379 1 -3.73302 5.06981 0.189196
380 1 -3.4549 4.77353 1.54828
639 1 -2.1426 4.57426 1.95773
640 1 -1.89601 3.8307 3.09423
642 1 -0.569 3.63413 3.51071
643 1 -0.324221 2.59955 4.45684
645 1 1.01255 2.2426 4.75509
558 1 1.26514 0.914707 5.11096
559 1 2.6533 0.468938 5.21438
637 1 -2.98272 3.16145 3.67076
638 1 -2.69894 2.12374 4.44701
641 1 -1.37606 1.74298 4.78722
555 1 -1.10637 0.389622 5.10581
556 1 0.233107 -0.0232831 5.12201
552 1 -3.75806 1.25605 4.83111
553 1 -3.5151 -0.0690858 5.08856
392 1 5.08042 4.96755 0.7617
652 1 5.31026 4.65853 2.08523
650 1 4.26202 4.26205 2.93288
651 1 4.49733 3.40712 4.00047
563 1 5.08227 0.972056 5.2146
399 1 10.1438 4.9536 1.18781
401 1 11.4527 4.94098 1.62599
664 1 11.6973 4.53687 2.92461
395 1 7.47886 5.05912 0.278922
396 1 7.72543 4.89943 1.65538
659 1 9.08231 4.7933 2.07569
660 1 9.2925 4.17968 3.32232
662 1 10.6358 3.97069 3.69486
663 1 10.9212 2.86992 4.52055
655 1 6.66043 4.5252 2.49462
656 1 6.90755 3.81825 3.73722
657 1 8.27741 3.5455 4.06684
658 1 8.54433 2.38239 4.75304
661 1 9.89026 1.98035 4.85288
569 1 10.153 0.623251 5.04507
570 1 11.4911 0.17629 5.07252
653 1 5.85307 3.13088 4.34357
654 1 6.15866 1.90826 5.07007
566 1 7.52668 1.48504 5.0569
567 1 7.763 0.108742 5.17977
407 1 14.9797 4.93713 0.196498
408 1 16.3013 4.97665 0.666932
672 1 16.5935 4.67078 2.02527
403 1 12.566 5.0162 0.671784
405 1 13.8827 4.90068 1.09385
668 1 14.1607 4.57869 2.43996
670 1 15.5242 4.24349 2.84122
671 1 15.8193 3.48339 3.99027
666 1 13.051 4.19571 3.23464
667 1 13.3146 3.21289 4.24155
669 1 14.6918 2.82194 4.52557
575 1 14.9595 1.55602 5.09984
577 1 16.3078 1.09771 5.14285
665 1 12.2478 2.38322 4.64439
572 1 12.5409 1.07057 5.06107
573 1 13.9041 0.638012 5.10776
411 1 18.7475 5.03411 0.204903
412 1 19.0026 4.82933 1.53546
675 1 17.9504 4.47785 2.393
676 1 18.2274 3.70916 3.53492
677 1 19.5843 3.37764 3.86136
678 1 19.8148 2.31265 4.75995
673 1 17.1615 3.0533 4.22188
674 1 17.3982 1.90291 4.94376
580 1 18.7127 1.47898 5.20322
581 1 19.0027 0.153351 5.4883
423 1 26.2774 5.07099 0.164411
424 1 27.602 5.136 0.696
692 1 27.87 4.766 2.037
419 1 23.8652 4.97055 0.662162
421 1 25.2195 5.01477 1.08431
688 1 25.5118 4.47173 2.35656
690 1 26.8342 4.2351 2.81651
691 1 27.1226 3.39273 3.89695
415 1 21.4693 4.94443 1.14203
417 1 22.8007 4.7761 1.56443
684 1 23.0671 4.29347 2.8462
686 1 24.4313 3.98722 3.19356
687 1 24.6936 3.02333 4.16725
689 1 26.0568 2.73116 4.47907
589 1 26.3188 1.4608 5.06226
591 1 27.602 0.925 5.1
679 1 20.374 4.73796 2.03924
680 1 20.674 3.99213 3.22324
682 1 22.0002 3.69771 3.58785
683 1 22.3053 2.60371 4.46079
685 1 23.6421 2.22059 4.6765
586 1 23.9112 0.92854 5.22165
587 1 25.2496 0.478045 5.25895
681 1 21.1802 1.87081 4.89761
583 1 21.4993 0.603376 5.44118
584 1 22.8441 0.0332605 5.46434
