LAMMPS data file via write_data, version 4 Jul 2026, timestep = 10000, units = real

3392 atoms
7 atom types
3488 bonds
13 bond types
5376 angles
22 angle types
7552 dihedrals
36 dihedral types
1792 impropers
10 improper types

-2.316452861 13.210439682 xlo xhi
-26.159999999999997 26.159999999999997 ylo yhi
-26.159999999999997 26.159999999999997 zlo zhi

Atom Type Labels

1 cp
2 hc
3 c=1
4 c=
5 c1
6 c2
7 c3

Bond Type Labels

1 cp-cp
2 cp-hc
3 cp-c1
4 hc-c=1
5 c=1-c=
6 hc-c=
7 cp-c3
8 hc-c3
9 c3-c2
10 hc-c2
11 cp-c=1
12 hc-c1
13 c1-c2

Angle Type Labels

1 cp-cp-cp
2 cp-cp-hc
3 cp-cp-c1
4 cp-c1-hc
5 cp-c1-c2
6 hc-c=1-c=
7 hc-c=-c=1
8 hc-c=-hc
9 cp-cp-c3
10 cp-c3-hc
11 cp-c3-c2
12 hc-c3-c2
13 c3-c2-c1
14 hc-c2-c3
15 hc-c2-hc
16 c1-c2-c1
17 cp-cp-c=1
18 cp-c=1-hc
19 cp-c=1-c=
20 hc-c2-c1
21 hc-c1-c2
22 c2-c1-c2

Dihedral Type Labels

1 cp-cp-cp-cp
2 hc-cp-cp-c1
3 cp-cp-cp-hc
4 cp-cp-cp-c1
5 hc-cp-cp-hc
6 cp-cp-c=1-hc
7 cp-cp-c=1-c=
8 cp-c=1-c=-hc
9 hc-c=1-c=-hc
10 hc-cp-cp-c3
11 cp-cp-cp-c3
12 cp-cp-c1-hc
13 cp-cp-c1-c2
14 cp-c1-c2-hc
15 hc-c1-c2-hc
16 c2-c1-c2-hc
17 cp-c1-c2-c1
18 hc-c1-c2-c1
19 c2-c1-c2-c1
20 hc-cp-cp-c=1
21 cp-cp-cp-c=1
22 cp-cp-c3-hc
23 cp-cp-c3-c2
24 cp-c3-c2-hc
25 cp-c3-c2-c1
26 hc-c3-c2-hc
27 hc-c3-c2-c1
28 c3-c2-c1-cp
29 c3-c2-c1-hc
30 c3-c2-c1-c2
31 hc-c2-c1-cp
32 hc-c2-c1-hc
33 hc-c2-c1-c2
34 c1-c2-c1-cp
35 c1-c2-c1-hc
36 c1-c2-c1-c2

Improper Type Labels

1 cp-cp-cp-cp
2 cp-cp-cp-hc
3 cp-cp-cp-c1
4 cp-c=1-hc-c=
5 hc-c=-hc-c=1
6 cp-cp-cp-c3
7 hc-c2-hc-c1
8 cp-c1-hc-c2
9 cp-cp-cp-c=1
10 cp-c3-hc-c2

Masses

1 12.0112
2 1.00797
3 12.0112
4 12.0112
5 12.0112
6 12.0112
7 12.0112

Pair Coeffs # lj/class2/coul/long/omp

1 0.064 4.01
2 0.02 2.7
3 0.064 4.01
4 0.064 3.9
5 0.054 4.01
6 0.054 4.01
7 0.054 4.01

Bond Coeffs # class2/omp

1 1.417 470.836 -627.618 1327.63
2 1.0982 372.825 -803.453 894.317
3 1.501 321.902 -521.821 572.163
4 1.0883 365.768 -725.54 781.662
5 1.34 543.99 -1238.2 1644.03
6 1.0883 365.768 -725.54 781.662
7 1.501 321.902 -521.821 572.163
8 1.101 345 -691.89 844.6
9 1.53 299.67 -501.77 679.81
10 1.101 345 -691.89 844.6
11 1.501 321.902 -521.821 572.163
12 1.101 345 -691.89 844.6
13 1.53 299.67 -501.77 679.81

Angle Coeffs # class2/omp

1 118.9 61.0226 -34.9931 0
2 117.94 35.1558 -12.4682 0
3 120.05 44.7148 -22.7352 0
4 111 44.3234 -9.4454 0
5 108.4 43.9594 -8.3924 -9.3379
6 124.88 35.2766 -17.774 -1.6215
7 124.88 35.2766 -17.774 -1.6215
8 115.49 29.6363 -12.4853 -6.2218
9 120.05 44.7148 -22.7352 0
10 111 44.3234 -9.4454 0
11 108.4 43.9594 -8.3924 -9.3379
12 110.77 41.453 -10.604 5.129
13 112.67 39.516 -7.443 -9.5583
14 110.77 41.453 -10.604 5.129
15 107.66 39.641 -12.921 -2.4318
16 112.67 39.516 -7.443 -9.5583
17 120.05 44.7148 -22.7352 0
18 111 44.3234 -9.4454 0
19 108.4 43.9594 -8.3924 -9.3379
20 110.77 41.453 -10.604 5.129
21 110.77 41.453 -10.604 5.129
22 112.67 39.516 -7.443 -9.5583

BondBond Coeffs

1 68.2856 1.417 1.417
2 1.0795 1.417 1.0982
3 12.0676 1.417 1.501
4 2.9168 1.501 1.0883
5 0 1.501 1.34
6 10.1047 1.0883 1.34
7 10.1047 1.0883 1.34
8 4.8506 1.0883 1.0883
9 12.0676 1.417 1.501
10 2.9168 1.501 1.101
11 0 1.501 1.53
12 3.3872 1.101 1.53
13 0 1.53 1.53
14 3.3872 1.101 1.53
15 5.3316 1.101 1.101
16 0 1.53 1.53
17 12.0676 1.417 1.501
18 2.9168 1.501 1.101
19 0 1.501 1.53
20 3.3872 1.101 1.53
21 3.3872 1.101 1.53
22 0 1.53 1.53

BondAngle Coeffs

1 28.8708 28.8708 1.417 1.417
2 20.0033 24.2183 1.417 1.0982
3 31.0771 47.0579 1.417 1.501
4 26.4608 11.7717 1.501 1.0883
5 0 0 1.501 1.34
6 19.0592 23.3588 1.0883 1.34
7 19.0592 23.3588 1.0883 1.34
8 17.9795 17.9795 1.0883 1.0883
9 31.0771 47.0579 1.417 1.501
10 26.4608 11.7717 1.501 1.101
11 0 0 1.501 1.53
12 11.421 20.754 1.101 1.53
13 8.016 8.016 1.53 1.53
14 11.421 20.754 1.101 1.53
15 18.103 18.103 1.101 1.101
16 8.016 8.016 1.53 1.53
17 31.0771 47.0579 1.417 1.501
18 26.4608 11.7717 1.501 1.101
19 0 0 1.501 1.53
20 11.421 20.754 1.101 1.53
21 11.421 20.754 1.101 1.53
22 8.016 8.016 1.53 1.53

Dihedral Coeffs # class2/omp

1 8.3667 0 1.1932 0 0 0
2 0 0 1.559 0 0 0
3 0 0 3.9661 0 0 0
4 0 0 4.4072 0 0 0
5 0 0 1.8769 0 0 0
6 0 0 0 0 0 0
7 0 0 0 0 0 0
8 0 0 0 0 0 0
9 0 0 4.8974 0 0 0
10 0 0 1.559 0 0 0
11 0 0 4.4072 0 0 0
12 -0.2801 0 -0.0678 0 -0.0122 0
13 -0.2802 0 -0.0678 0 -0.0122 0
14 -0.0228 0 0.028 0 -0.1863 0
15 -0.1432 0 0.0617 0 -0.1083 0
16 0 0 0.0316 0 -0.1681 0
17 0 0 0 0 0 0
18 0 0 0.0316 0 -0.1681 0
19 0 0 0.0514 0 -0.143 0
20 0 0 1.559 0 0 0
21 0 0 4.4072 0 0 0
22 -0.2801 0 -0.0678 0 -0.0122 0
23 -0.2802 0 -0.0678 0 -0.0122 0
24 -0.0228 0 0.028 0 -0.1863 0
25 0 0 0 0 0 0
26 -0.1432 0 0.0617 0 -0.1083 0
27 0 0 0.0316 0 -0.1681 0
28 0 0 0 0 0 0
29 0 0 0.0316 0 -0.1681 0
30 0 0 0.0514 0 -0.143 0
31 -0.0228 0 0.028 0 -0.1863 0
32 -0.1432 0 0.0617 0 -0.1083 0
33 0 0 0.0316 0 -0.1681 0
34 0 0 0 0 0 0
35 0 0 0.0316 0 -0.1681 0
36 0 0 0.0514 0 -0.143 0

AngleAngleTorsion Coeffs

1 0 118.9 118.9
2 4.4444 117.94 120.05
3 -4.8141 118.9 117.94
4 -14.4097 118.9 120.05
5 0.3598 117.94 117.94
6 0 120.05 111
7 0 120.05 108.4
8 0 108.4 124.88
9 -7.0058 124.88 124.88
10 4.4444 117.94 120.05
11 -14.4097 118.9 120.05
12 -5.8888 120.05 111
13 0 120.05 108.4
14 0 108.4 110.77
15 -12.564 110.77 110.77
16 -16.164 112.67 110.77
17 0 108.4 112.67
18 -16.164 110.77 112.67
19 -22.045 112.67 112.67
20 4.4444 117.94 120.05
21 -14.4097 118.9 120.05
22 -5.8888 120.05 111
23 0 120.05 108.4
24 0 108.4 110.77
25 0 108.4 112.67
26 -12.564 110.77 110.77
27 -16.164 110.77 112.67
28 0 112.67 108.4
29 -16.164 112.67 110.77
30 -22.045 112.67 112.67
31 0 110.77 108.4
32 -12.564 110.77 110.77
33 -16.164 110.77 112.67
34 0 112.67 108.4
35 -16.164 112.67 110.77
36 -22.045 112.67 112.67

EndBondTorsion Coeffs

1 -0.1185 6.3204 0 -0.1185 6.3204 0 1.417 1.417
2 0 -0.4879 0 0 -1.797 0 1.0982 1.501
3 0 -6.8958 0 0 -0.4669 0 1.417 1.0982
4 0 -0.6918 0 0 0.2421 0 1.417 1.501
5 0 -0.689 0 0 -0.689 0 1.0982 1.0982
6 0 0 0 0 0 0 1.417 1.0883
7 0 0 0 0 0 0 1.417 1.34
8 0 0 0 0 0 0 1.501 1.0883
9 0.7129 0.5161 0 0.7129 0.5161 0 1.0883 1.0883
10 0 -0.4879 0 0 -1.797 0 1.0982 1.501
11 0 -0.6918 0 0 0.2421 0 1.417 1.501
12 -0.5835 1.122 0.3978 1.3997 0.7756 0 1.417 1.101
13 0 0 0 0 0 0 1.417 1.53
14 0 0 0 0 0 0 1.501 1.101
15 0.213 0.312 0.0777 0.213 0.312 0.0777 1.101 1.101
16 0.2486 0.2422 -0.0925 0.0814 0.0591 0.2219 1.53 1.101
17 0 0 0 0 0 0 1.501 1.53
18 0.0814 0.0591 0.2219 0.2486 0.2422 -0.0925 1.101 1.53
19 -0.0732 0 0 -0.0732 0 0 1.53 1.53
20 0 -0.4879 0 0 -1.797 0 1.0982 1.501
21 0 -0.6918 0 0 0.2421 0 1.417 1.501
22 -0.5835 1.122 0.3978 1.3997 0.7756 0 1.417 1.101
23 0 0 0 0 0 0 1.417 1.53
24 0 0 0 0 0 0 1.501 1.101
25 0 0 0 0 0 0 1.501 1.53
26 0.213 0.312 0.0777 0.213 0.312 0.0777 1.101 1.101
27 0.0814 0.0591 0.2219 0.2486 0.2422 -0.0925 1.101 1.53
28 0 0 0 0 0 0 1.53 1.501
29 0.2486 0.2422 -0.0925 0.0814 0.0591 0.2219 1.53 1.101
30 -0.0732 0 0 -0.0732 0 0 1.53 1.53
31 0 0 0 0 0 0 1.101 1.501
32 0.213 0.312 0.0777 0.213 0.312 0.0777 1.101 1.101
33 0.0814 0.0591 0.2219 0.2486 0.2422 -0.0925 1.101 1.53
34 0 0 0 0 0 0 1.53 1.501
35 0.2486 0.2422 -0.0925 0.0814 0.0591 0.2219 1.53 1.101
36 -0.0732 0 0 -0.0732 0 0 1.53 1.53

MiddleBondTorsion Coeffs

1 27.5989 -2.312 0 1.417
2 0 3.9421 0 1.417
3 0 -1.1521 0 1.417
4 0 9.1792 0 1.417
5 0 4.8228 0 1.417
6 0 0 0 1.501
7 0 0 0 1.501
8 0 0 0 1.34
9 0.8558 6.3911 0 1.34
10 0 3.9421 0 1.417
11 0 9.1792 0 1.417
12 -5.5679 1.4083 0.301 1.501
13 0 0 0 1.501
14 0 0 0 1.53
15 -14.261 -0.5322 -0.4864 1.53
16 -14.879 -3.6581 -0.3138 1.53
17 0 0 0 1.53
18 -14.879 -3.6581 -0.3138 1.53
19 -17.787 -7.1877 0 1.53
20 0 3.9421 0 1.417
21 0 9.1792 0 1.417
22 -5.5679 1.4083 0.301 1.501
23 0 0 0 1.501
24 0 0 0 1.53
25 0 0 0 1.53
26 -14.261 -0.5322 -0.4864 1.53
27 -14.879 -3.6581 -0.3138 1.53
28 0 0 0 1.53
29 -14.879 -3.6581 -0.3138 1.53
30 -17.787 -7.1877 0 1.53
31 0 0 0 1.53
32 -14.261 -0.5322 -0.4864 1.53
33 -14.879 -3.6581 -0.3138 1.53
34 0 0 0 1.53
35 -14.879 -3.6581 -0.3138 1.53
36 -17.787 -7.1877 0 1.53

BondBond13 Coeffs

1 53 1.417 1.417
2 0.8743 1.0982 1.501
3 -6.2741 1.417 1.0982
4 2.5085 1.417 1.501
5 -1.7077 1.0982 1.0982
6 0 1.417 1.0883
7 0 1.417 1.34
8 0 1.501 1.0883
9 0 1.0883 1.0883
10 0.8743 1.0982 1.501
11 2.5085 1.417 1.501
12 -3.4826 1.417 1.101
13 0 1.417 1.53
14 0 1.501 1.101
15 0 1.101 1.101
16 0 1.53 1.101
17 0 1.501 1.53
18 0 1.101 1.53
19 0 1.53 1.53
20 0.8743 1.0982 1.501
21 2.5085 1.417 1.501
22 -3.4826 1.417 1.101
23 0 1.417 1.53
24 0 1.501 1.101
25 0 1.501 1.53
26 0 1.101 1.101
27 0 1.101 1.53
28 0 1.53 1.501
29 0 1.53 1.101
30 0 1.53 1.53
31 0 1.101 1.501
32 0 1.101 1.101
33 0 1.101 1.53
34 0 1.53 1.501
35 0 1.53 1.101
36 0 1.53 1.53

AngleTorsion Coeffs

1 1.9767 1.0239 0 1.9767 1.0239 0 118.9 118.9
2 0 3.4601 0 0 -0.1242 0 117.94 120.05
3 0 2.5014 0 0 2.7147 0 118.9 117.94
4 0 3.8987 0 0 -4.4683 0 118.9 120.05
5 0 2.4501 0 0 2.4501 0 117.94 117.94
6 0 0 0 0 0 0 120.05 111
7 0 0 0 0 0 0 120.05 108.4
8 0 0 0 0 0 0 108.4 124.88
9 -1.8911 3.254 0 -1.8911 3.254 0 124.88 124.88
10 0 3.4601 0 0 -0.1242 0 117.94 120.05
11 0 3.8987 0 0 -4.4683 0 118.9 120.05
12 0.2251 0.6548 0.1237 4.6266 0.1632 0.0461 120.05 111
13 0 0 0 0 0 0 120.05 108.4
14 0 0 0 0 0 0 108.4 110.77
15 -0.8085 0.5569 -0.2466 -0.8085 0.5569 -0.2466 110.77 110.77
16 -0.2454 0 -0.1136 0.3113 0.4516 -0.1988 112.67 110.77
17 0 0 0 0 0 0 108.4 112.67
18 0.3113 0.4516 -0.1988 -0.2454 0 -0.1136 110.77 112.67
19 0.3886 -0.3139 0.1389 0.3886 -0.3139 0.1389 112.67 112.67
20 0 3.4601 0 0 -0.1242 0 117.94 120.05
21 0 3.8987 0 0 -4.4683 0 118.9 120.05
22 0.2251 0.6548 0.1237 4.6266 0.1632 0.0461 120.05 111
23 0 0 0 0 0 0 120.05 108.4
24 0 0 0 0 0 0 108.4 110.77
25 0 0 0 0 0 0 108.4 112.67
26 -0.8085 0.5569 -0.2466 -0.8085 0.5569 -0.2466 110.77 110.77
27 0.3113 0.4516 -0.1988 -0.2454 0 -0.1136 110.77 112.67
28 0 0 0 0 0 0 112.67 108.4
29 -0.2454 0 -0.1136 0.3113 0.4516 -0.1988 112.67 110.77
30 0.3886 -0.3139 0.1389 0.3886 -0.3139 0.1389 112.67 112.67
31 0 0 0 0 0 0 110.77 108.4
32 -0.8085 0.5569 -0.2466 -0.8085 0.5569 -0.2466 110.77 110.77
33 0.3113 0.4516 -0.1988 -0.2454 0 -0.1136 110.77 112.67
34 0 0 0 0 0 0 112.67 108.4
35 -0.2454 0 -0.1136 0.3113 0.4516 -0.1988 112.67 110.77
36 0.3886 -0.3139 0.1389 0.3886 -0.3139 0.1389 112.67 112.67

Improper Coeffs # class2/omp

1 0 0
2 4.8912 0
3 7.8153 0
4 0 0
5 2.8561 0
6 7.8153 0
7 0 0
8 0 0
9 7.8153 0
10 0 0

AngleAngle Coeffs

1 0 0 0 118.9 118.9 118.9
2 0 0 0 118.9 117.94 117.94
3 0 0 0 118.9 120.05 120.05
4 0 0 0 111 124.88 108.4
5 0 0 0 115.49 124.88 124.88
6 0 0 0 118.9 120.05 120.05
7 0 0 0 107.66 110.77 110.77
8 0 0 0 111 110.77 108.4
9 0 0 0 118.9 120.05 120.05
10 0 0 0 111 110.77 108.4

Atoms # full

1991 114 1 -0.1734 2.2868355058895697 -18.79132092061484 -25.007454773597548 0 0 1
1989 114 1 -0.129 3.648886501467479 -18.927452030538692 -25.274154258708496 0 0 1
1992 114 2 0.1403 1.770872129105485 -19.683493963760597 -24.660110655555155 0 0 1
1990 114 2 0.1237 4.205214281195188 -19.792683339260734 -25.11087427281898 0 0 1
1987 114 1 0.0266 4.373016366357952 -17.834928023693838 -25.804860735325363 0 0 1
3101 183 2 0.0518 -0.5319925312612652 -25.441309488139794 -22.4317094953295 1 0 1
3258 193 2 0.1288 -1.9803100125987845 -21.758748144511507 -22.194952876788545 0 0 0
3260 193 2 0.1403 -2.071530247877511 -23.463820974680498 -23.717288494649733 0 0 0
3103 183 2 0.0354 1.3075004896750309 -25.35312718921871 -23.685531857155397 1 0 1
3104 183 2 0.0354 1.1989572540446662 25.043162846235905 -24.046666026544205 1 -1 1
3102 183 4 -0.0696 0.8108641216689905 25.986918716624213 -23.59312234233525 1 -1 1
2837 167 1 -0.129 4.37022613213312 -24.040364087911303 -21.785468539879712 0 0 0
1599 89 2 0.0354 1.0154639698942611 -22.091382764305212 -22.579568215096913 1 0 0
1598 89 4 -0.0696 0.6537123974506873 -21.078612082919232 -22.5539200658502 1 0 0
2839 167 1 -0.1734 4.704597435522282 -22.753559611645304 -22.11592844839862 0 0 0
2840 167 2 0.1403 3.9972567256938945 -21.853076013047133 -22.11588559851096 0 0 0
1988 114 3 -0.0182 5.900677819857898 -17.836433831931146 -26.047887501212823 0 0 1
2838 167 2 0.1237 3.2840004525410462 -24.172416118035628 -21.500644156675268 0 0 0
1600 89 2 0.0354 -0.1242628661342787 -20.72706489831823 -23.332835893917405 1 0 0
1997 114 2 0.0518 6.10348165193791 -17.394620184719987 25.195756819855102 0 0 0
2835 167 1 0.0266 5.329956623712375 -25.015771026859365 -22.082907119266167 0 0 0
2833 167 1 -0.129 6.567005589790027 -24.670379148244372 -22.58180975766384 0 0 0
3251 193 1 0.0266 10.533294964145671 -22.091169559505968 -24.669262062386284 -1 0 0
3249 193 1 -0.129 11.791095185557793 -22.662181070905238 -24.791603379391475 -1 0 0
3259 193 1 -0.1734 12.673779825897816 -22.684746960285644 -23.71070214609421 -1 0 0
3257 193 1 -0.1134 12.560839968975506 -21.856502011717087 -22.655223091708628 -1 0 0
3253 193 1 -0.129 10.330518592740544 -21.50393130476859 -23.418551194503014 -1 0 0
3254 193 2 0.1237 9.249107379409194 -21.081172956725823 -23.111335235102707 -1 0 0
3255 193 1 -0.1734 11.336355694830427 -21.315554442765375 -22.522371482512227 -1 0 0
3256 193 2 0.1403 11.147606295395436 -20.65248364394868 -21.695403356818186 -1 0 0
2843 167 1 -0.1734 6.917092967179025 -23.3633246791519 -22.907719250087204 0 0 0
2841 167 1 -0.1134 6.059976905107672 -22.363249762851503 -22.522583048206858 0 0 0
2842 167 2 0.1288 6.210272941986779 -21.302517544528218 -22.86999385786677 0 0 0
2844 167 2 0.1403 7.660887980774268 -23.100801100691363 -23.639582303595887 0 0 0
3261 193 2 0.0518 9.319158032590325 -21.108875684785488 26.08133765673625 -1 0 -1
662 31 2 0.1237 5.601538926214452 -20.052691986776793 -18.14839681923209 0 0 1
1206 65 2 0.1237 -1.0352765378597681 -25.7669575206327 22.487538164206683 -1 0 0
1210 65 2 0.1288 10.997404864811031 -25.33011815946058 25.162007717986747 -2 0 0
1207 65 1 -0.1734 12.822864317869836 -25.53327844381975 23.739914812691122 -2 0 0
1208 65 2 0.1403 13.083923326449181 -24.4994216741238 23.672503942884 -2 0 0
1993 114 1 -0.1134 1.6249007711141528 -17.565418771968314 -25.201898070104747 0 0 1
1994 114 2 0.1288 0.5649313804899219 -17.479896047975757 -24.936646641721055 0 0 1
1995 114 1 -0.1734 2.4461349002513204 -16.448726830356918 -25.55279525161578 0 0 1
1985 114 1 -0.129 3.7748476780459517 -16.624570417600104 -25.923390839316134 0 0 1
1996 114 2 0.1403 2.0535060125544278 -15.433807063504512 -25.81058927553746 0 0 1
1589 89 1 -0.129 -1.2627830505068123 -19.453648116404512 -21.033908306354057 1 0 0
1590 89 2 0.1237 -1.4743645204806384 -19.129380421244306 -22.090218995780575 1 0 0
1594 89 2 0.1288 13.128983632845594 -18.34740281968828 -17.96637105635911 0 0 0
1593 89 1 -0.1134 -1.7876933995792041 -18.8173556533631 -18.71532228531672 1 0 0
1591 89 1 -0.1734 -2.162695736063258 -19.027926847436373 -20.029292286608957 1 0 0
1592 89 2 0.1403 12.340424293264334 -18.801253086888252 -20.330807636276116 0 0 0
1595 89 1 -0.1734 -0.510605732003644 -19.179413709966635 -18.389614759889096 1 0 0
1585 89 1 -0.129 0.33243946389630674 -19.76728996944902 -19.354507852533978 1 0 0
1587 89 1 0.0266 -0.00024455965187681304 -19.816439391016182 -20.6764348914045 1 0 0
1596 89 2 0.1403 0.15987500053220466 -19.03054726642354 -17.622491519113616 1 0 0
2000 114 2 0.0354 6.778262236425238 -17.87035061022012 -24.242571184007428 0 0 1
665 31 1 -0.1134 4.319837814166831 -18.504085505135023 -20.947064873553515 0 0 1
668 31 2 0.1403 5.360837888379097 -18.229948951330513 -22.850288941331318 0 0 1
1101 58 2 0.0518 12.603869291524513 -16.347136717405384 -22.62349746843273 -1 0 0
3252 193 3 -0.0182 9.487695064060116 -22.008729565982026 -25.671648915259432 -1 0 0
1998 114 4 -0.0696 6.676450678020704 -17.388968881527173 -25.12063756966567 0 0 1
1999 114 2 0.0354 7.487042799370561 -16.714252709723365 -25.43232801159611 0 0 1
2591 151 2 0.0354 5.974882525098265 -10.686834882922197 -24.230787721531446 0 0 1
2592 151 2 0.0354 6.477641646265811 -11.688376531573752 -22.546404065704944 0 0 1
2590 151 4 -0.0696 5.78718720100115 -11.445569919169218 -23.39772166293894 0 0 1
661 31 1 -0.129 5.543907165951004 -19.64357125889386 -19.206286593988516 0 0 1
1104 58 2 0.0354 10.364250039550777 -18.1387112936162 -23.71947071188261 -1 0 0
3182 188 4 -0.0696 7.4793597864527674 -15.935420454957562 -21.09191273801916 0 0 0
669 31 2 0.0518 7.843467256057207 -21.49869942096289 -19.947019881295937 0 0 1
671 31 2 0.0354 9.849202287192435 -19.870728662453406 -19.673712546904323 0 0 1
660 31 3 -0.0182 7.7579979013914215 -20.481413814791022 -19.561029520227763 0 0 1
659 31 1 0.0266 6.687154726772338 -19.676992945767914 -20.058713538832013 0 0 1
670 31 4 -0.0696 8.827032111171535 -19.71662041341161 -19.477846102531796 0 0 1
658 31 2 0.1237 7.514656694222786 -19.28709252208992 -21.897534439975765 0 0 1
657 31 1 -0.129 6.6626274203685965 -19.00238330682635 -21.278811138255115 0 0 1
667 31 1 -0.1734 5.437895807123706 -18.51650228500336 -21.769450062799777 0 0 1
3184 188 2 0.0354 8.140169131109907 -16.774158349546664 -21.420040576857016 0 0 0
1103 58 2 0.0354 10.458980152543443 -17.926487782987717 -22.01794110646884 -1 0 0
1092 58 3 -0.0182 12.037708488529622 -17.04107183601384 -23.273329916591667 -1 0 0
1102 58 4 -0.0696 10.920888868343 -17.70683382410592 -22.92383988636051 -1 0 0
2584 151 2 0.1403 3.145146627280217 -14.932268862314107 -19.534251086352185 0 0 1
2583 151 1 -0.1734 3.3239453148632987 -13.835336258245158 -20.081100259211087 0 0 1
2581 151 1 -0.129 3.8064886418516246 -13.791062434887495 -21.398223505129206 0 0 1
2582 151 2 0.1237 3.998231801352322 -14.749555606564 -21.884511285191625 0 0 1
3175 188 1 -0.1734 10.669320802116877 -12.331400226453407 -21.566008142476175 0 0 0
3176 188 2 0.1403 11.237772865330339 -11.595393426226748 -20.962949233123304 0 0 0
3178 188 2 0.1288 11.959304058775132 -12.209513316572503 -23.300281719713837 0 0 0
3177 188 1 -0.1134 11.122645290874587 -12.70907151719203 -22.79463996455469 0 0 0
3179 188 1 -0.1734 10.484001883964007 -13.799866977640097 -23.34199943676451 0 0 0
2586 151 2 0.1288 3.035163927667354 -12.555711435544854 -18.37174119446376 0 0 1
3308 196 2 0.1403 0.28890886113413117 -13.853761853793825 25.004247679349398 -1 0 0
3180 188 2 0.1403 10.739471302570383 -14.01397811788794 -24.40412782153084 0 0 0
2585 151 1 -0.1134 3.0957074719700852 -12.611628990774554 -19.42167104425799 0 0 1
2587 151 1 -0.1734 3.2120953600357813 -11.390523091910405 -20.099890860590868 0 0 1
2588 151 2 0.1403 3.0470720671651845 -10.366695100335141 -19.7311927632051 0 0 1
1372 75 2 0.1403 -0.3185593931163595 -8.070060333906156 -25.078898920739615 0 0 0
3309 196 2 0.0518 3.4553859385711334 -10.201064686240287 -25.78321180215972 -1 0 1
3298 196 2 0.1237 0.8106592763692281 -11.37774269643291 25.452641447228036 -1 0 0
3297 196 1 -0.129 1.5848247069899277 -12.106370002556183 25.129018690190406 -1 0 0
1371 75 1 -0.1734 -0.735014387027613 -8.717070806263871 -25.834406024632784 0 0 0
3170 188 2 0.1237 8.871984655363727 -15.350461819168618 -23.44287902258211 0 0 0
2580 151 3 -0.0182 4.6705739474406585 -12.194155980961767 -23.38995113636933 0 0 1
2579 151 1 0.0266 3.979661010024 -12.586959212419737 -22.05911352477994 0 0 1
3173 188 1 -0.129 9.489291167991556 -12.912707910735893 -20.967720754476982 0 0 0
3171 188 1 0.0266 8.921580315504876 -14.015154707987737 -21.578100080920375 0 0 0
242 5 2 0.1237 10.463465730512414 -8.404296971602482 -24.09394189457559 0 0 0
1362 75 2 0.1237 -0.8084213474484184 -10.363627540957072 -24.638434870720836 0 0 0
3169 188 1 -0.129 9.360692078834356 -14.422950249836639 -22.816524078199443 0 0 0
241 5 1 -0.129 9.546424894384568 -8.559313469747293 -24.641286826278264 0 0 0
251 5 1 -0.1734 9.16326844946442 -9.829112087503814 -25.063097120286997 0 0 0
252 5 2 0.1403 9.695369408363195 -10.695691105944588 -24.64488618473479 0 0 0
2589 151 2 0.0518 3.9191331135378027 -12.173515263378656 -24.17071970601466 0 0 1
2577 151 1 -0.129 3.7100994327849697 -11.370472204985631 -21.411843679323468 0 0 1
2578 151 2 0.1237 3.7304144782263147 -10.358961845008333 -22.022030252287962 0 0 1
3172 188 3 -0.0182 7.706161972036055 -14.600241664725148 -20.85443518822402 0 0 0
3181 188 2 0.0518 6.853168525977156 -13.997471109971437 -20.62474032498911 0 0 0
255 5 2 0.0354 10.8195921243371 -5.140736222641732 -23.819846322595616 0 0 0
1052 55 2 0.1403 6.608270659397319 -9.084252017324108 -21.031985206135488 1 0 1
1361 75 1 -0.129 -1.1593668284953285 -10.016253638037016 -25.61670169993007 0 0 0
1375 75 2 0.0354 11.10817394535621 -12.417122721436863 25.391281197531853 -1 0 -1
867 44 1 0.0266 2.4622954620738486 -6.51635056893416 -23.9791608078462 -1 0 0
868 44 3 -0.0182 2.4450660267885413 -7.9283876802936675 -24.557575556274475 -1 0 0
866 44 2 0.1237 4.631423603856773 -6.2311793082075635 -24.338899467423165 -1 0 0
878 44 4 -0.0696 2.0905646210205897 -9.011258133656622 -23.743213138731463 -1 0 0
880 44 2 0.0354 2.2561805451325485 -9.091571547578951 -22.565188257562227 -1 0 0
879 44 2 0.0354 1.7946574150683035 -9.858201312672712 -24.271795257907772 -1 0 0
865 44 1 -0.129 3.669403120890224 -5.781000095305412 -23.889381561933998 -1 0 0
877 44 2 0.0518 2.505710702122724 -7.999479825829187 -25.640528275930755 -1 0 0
2770 163 2 0.1237 12.178209809219169 -3.3760411803870842 25.298137696663026 0 0 0
2769 163 1 -0.129 12.972223505115094 -3.1582054191794726 25.90452474836342 0 0 0
2779 163 1 -0.1734 12.712670198850088 -2.8164847936854036 -25.113917614318364 0 0 1
2780 163 2 0.1403 11.682305277550304 -2.620424063188957 -24.717430706892205 0 0 1
871 44 1 -0.1734 1.528071573819444 -4.801222111091945 -22.462775511108823 -1 0 0
869 44 1 -0.129 1.3507781107463919 -5.951150641022339 -23.285621308755083 -1 0 0
870 44 2 0.1237 0.43021973422960974 -6.502162862441904 -23.03744500005159 -1 0 0
296 8 2 0.1403 5.031658168002474 -3.4943857336332322 -25.791213259323243 0 0 1
1696 95 2 0.0354 -1.168278929454605 -9.302390327196541 -23.056801327949163 1 0 1
875 44 1 -0.1734 3.7953326912657315 -4.575018415837796 -23.24487592603365 -1 0 0
873 44 1 -0.1134 2.7693915173514307 -4.099102812836724 -22.454126432757043 -1 0 0
876 44 2 0.1403 4.844520143039176 -4.171270707151217 -23.260374548926396 -1 0 0
250 5 2 0.1288 7.639572453847853 -11.013000682726153 -26.031687114932506 0 0 0
874 44 2 0.1288 2.9611647727588903 -3.1578495819157553 -21.906936900574113 -1 0 0
253 5 2 0.0518 8.40900932132254 -5.494703679017085 -24.223893303514753 0 0 0
243 5 1 0.0266 8.750594725355194 -7.447851201240435 -25.058178415696858 0 0 0
256 5 2 0.0354 11.114207256896819 -6.2228087676433015 -25.378796066470372 0 0 0
244 5 3 -0.0182 9.207692968790596 -5.991323491931624 -24.762151456505674 0 0 0
254 5 4 -0.0696 10.506442163728696 -5.843632877688716 -24.57957720071396 0 0 0
249 5 1 -0.1134 7.9942492620206 -10.021435766687322 -25.773914388360687 0 0 0
245 5 1 -0.129 7.7208089054839455 -7.701761412130331 -25.904319337228745 0 0 0
246 5 2 0.1237 7.301117855520829 -6.9412185770692005 25.757413555343348 0 0 -1
248 5 2 0.1403 6.266889189333526 -9.231201411260065 25.582035545530776 0 0 -1
247 5 1 -0.1734 7.230561857888278 -8.986832317256564 26.04204139608111 0 0 -1
1120 59 2 0.0354 7.198730406103627 -2.50233692431437 -23.735242353306006 -1 0 1
1111 59 1 -0.1734 9.940588397240884 0.3301175343741015 25.96083680616692 -1 0 0
1109 59 1 -0.129 9.805594223352696 -0.9143011741265455 -25.671536722164113 -1 0 1
1110 59 2 0.1237 10.189218283492556 -1.7697945254533722 26.159791374841113 -1 0 0
1453 80 2 0.0518 1.8768959443067403 2.4125242518014747 -21.124587781813844 0 0 0
1444 80 3 -0.0182 1.8404635595628835 1.4793986999372104 -21.689690479772498 0 0 0
1441 80 1 -0.129 3.591766622643913 -0.05881206196423678 -22.89074289006292 0 0 0
1442 80 2 0.1237 2.836320128925208 -0.8168648646399277 -22.975186718256033 0 0 0
3035 179 1 -0.1734 -2.016619555257157 2.387417800009005 -23.055451479955316 1 0 0
3036 179 2 0.1403 13.185644333368268 1.6099100385846274 -23.839052816179496 0 0 0
3026 179 2 0.1237 -0.3417535483023747 2.910588979160216 -24.30825183921558 1 0 0
1690 95 2 0.1288 -0.3675743533591505 -5.261271209619668 -19.095171928166103 1 0 1
1456 80 2 0.0354 0.8439519526124148 -0.04870646900041119 -22.690481600424793 0 0 0
1454 80 4 -0.0696 0.7856943972212047 0.8441339986671089 -22.23060908929276 0 0 0
2777 163 1 -0.1134 -1.8639410652740787 -2.521014878031471 -24.195616486326237 1 0 1
2778 163 2 0.1288 -2.1414948486940437 -2.255465594684697 -23.192933072900964 1 0 1
1443 80 1 0.0266 3.2486014043068145 1.2657563638557556 -22.290180250045072 0 0 0
1516 84 2 0.1403 -1.6794094095240186 0.6599891103616191 24.02728025610677 0 0 0
1688 95 2 0.1403 -0.964618402253383 -7.61926340349794 -18.21963023788863 1 0 1
1455 80 2 0.0354 -0.25669342589071176 1.210754358149233 -22.00367325198562 0 0 0
1545 86 1 -0.1134 1.0497230096273398 0.7134044534374528 -26.02002337728183 0 0 1
2775 163 1 -0.1734 -0.5645656414938662 -2.681075285760475 -24.501503434445723 1 0 1
2776 163 2 0.1403 0.16046516610449146 -2.064373921021849 -24.008806001530804 1 0 1
1546 86 2 0.1288 0.14109757631980482 -0.01129021566842788 -26.075200487784528 0 0 1
1105 59 1 -0.129 8.918512153203322 0.2768422700908077 -23.71951025991203 -1 0 1
1106 59 2 0.1237 8.576236367785867 0.2756064168192021 -22.547402803034863 -1 0 1
1118 59 4 -0.0696 8.095991791578172 -2.9386811048699983 -23.225745846638123 -1 0 1
1119 59 2 0.0354 7.91596821690856 -3.9556631671164513 -22.74114299838428 -1 0 1
1108 59 3 -0.0182 9.210572335990728 -2.239154255260224 -23.375459416405782 -1 0 1
1117 59 2 0.0518 10.225859875402854 -2.441760537660676 -22.78829404971244 -1 0 1
1107 59 1 0.0266 9.294404066967834 -0.9531565807655502 -24.3646789696307 -1 0 1
3034 179 2 0.1288 11.820221249888581 1.9998397406506743 -21.76128547433099 0 0 0
1452 80 2 0.1403 5.174634746520771 -1.2618270094035413 -23.77863735340555 0 0 0
1115 59 1 -0.1734 9.032222682584946 1.4384026484510837 -24.388053073811644 -1 0 1
1116 59 2 0.1403 8.642496682555576 2.3173449836126214 -23.87861530225889 -1 0 1
1451 80 1 -0.1734 4.918887027132611 -0.2011748345221215 -23.395527912634172 0 0 0
1449 80 1 -0.1134 5.906796194643664 0.8933517517917362 -23.191595758006947 0 0 0
1450 80 2 0.1288 6.875930447283353 0.8023934344019019 -23.58860639117767 0 0 0
1354 74 2 0.1288 6.564598282074363 1.0366579008484103 -19.3898280397818 0 0 0
1352 74 2 0.1403 8.540071863079088 2.6456800793355053 -19.0918353728604 0 0 0
1543 86 1 -0.1734 0.814258095317315 2.098518474496383 -26.13799971876323 0 0 1
1541 86 1 -0.129 1.926106224329289 3.049971094904535 26.019935856526246 0 0 0
1542 86 2 0.1237 1.742651092654835 4.176287075883676 26.09553610940204 0 0 0
3033 179 1 -0.1134 12.653858055027731 2.6409818285142803 -21.957973506831856 0 0 0
3025 179 1 -0.129 -0.8543992021966087 3.190848610585069 -23.362039397777043 1 0 0
3029 179 1 -0.129 -1.4424623134891768 4.4184354624403435 -21.353087971637684 1 0 0
3031 179 1 -0.1734 12.964185113585476 3.718474776650645 -21.091887433197964 0 0 0
3030 179 2 0.1237 -1.2667789382901642 5.22350019563818 -20.72087709948873 1 0 0
3040 179 2 0.0354 2.1135785730161367 4.607817643041647 -22.38888651917341 1 0 0
3028 179 3 -0.0182 0.2942601140838118 5.459712567341126 -23.04681027501557 1 0 0
3038 179 4 -0.0696 1.5223054831764684 5.44589720297964 -22.614639924320667 1 0 0
3039 179 2 0.0354 1.9719250988075057 6.426326721241034 -22.297620322068205 1 0 0
3027 179 1 0.0266 -0.5277101907883118 4.289243349887162 -22.492021863004602 1 0 0
1506 84 2 0.1237 -1.5112665424686207 2.997591782079396 24.68114049937578 0 0 0
583 26 1 -0.1734 2.3413533197280394 9.29003662823646 -24.617278174244333 0 -1 1
581 26 1 -0.129 3.016038862538918 8.793879264432181 -25.74463478575155 0 -1 1
584 26 2 0.1403 1.3106372576257395 9.045660946059634 -24.32677261903697 0 -1 1
3037 179 2 0.0518 -0.2903380510179687 6.25223188697188 -23.598774656325396 1 0 0
587 26 1 -0.1734 4.408552045212098 10.470074223001093 -24.0656463002122 0 -1 1
585 26 1 -0.1134 3.0512907681263584 10.221552554726001 -23.785978883807594 0 -1 1
586 26 2 0.1288 2.5853540775802246 10.779138505568836 -23.006520670579473 0 -1 1
577 26 1 -0.129 4.961746258723772 9.842343111545869 -25.209434469615765 0 -1 1
579 26 1 0.0266 4.324195159513364 8.963074718003693 -26.05698661351432 0 -1 1
1037 54 2 0.0518 9.733768830491872 4.6590225456554135 -22.83152558532018 1 0 1
1030 54 2 0.1237 9.377041246547588 6.328075018782955 -20.592929521265898 1 0 1
3032 179 2 0.1403 12.42522307700908 3.918761001289631 -20.18183410631768 0 0 0
2447 142 2 0.0354 8.54878612473013 9.739217373832604 -22.844356488021386 1 0 0
2446 142 4 -0.0696 9.373201375430039 10.221956878331934 -22.47416787290374 1 0 0
2436 142 3 -0.0182 10.646083592124834 9.740515477578093 -22.38934362439576 1 0 0
1035 54 1 -0.1734 5.601489702227771 5.497492491095698 -21.344563251810925 1 0 1
1036 54 2 0.1403 4.5213588211599856 5.180137845623292 -21.526475002008716 1 0 1
1026 54 2 0.1237 6.160832153872374 5.177780199369511 -23.234892959221444 1 0 1
1025 54 1 -0.129 6.504547070404481 5.429778338738998 -22.323223586454883 1 0 1
1032 54 2 0.1403 7.7745263607471635 6.617020228017747 -18.920317474549975 1 0 1
1029 54 1 -0.129 8.35769099978096 6.15151098497604 -20.903734478042434 1 0 1
1031 54 1 -0.1734 7.457713470886279 6.243569757137203 -19.848690594558914 1 0 1
1033 54 1 -0.1134 6.113094310589353 5.872083592045822 -20.100055088754893 1 0 1
1027 54 1 0.0266 7.8582379607973065 5.614410540556517 -22.036097399296573 1 0 1
2808 165 2 0.1403 7.261651621256453 8.573686412855531 -18.50188070151303 -1 -1 0
2445 142 2 0.0518 10.955733955479289 8.85140943964392 -22.873010212348635 1 0 0
1028 54 3 -0.0182 8.850541383041843 5.285582260170678 -23.19142926266261 1 0 1
1038 54 4 -0.0696 8.461220285421975 5.054682372072859 -24.41612278759749 1 0 1
1520 84 2 0.0354 12.692102233461917 4.306962938639128 -26.05780514746925 -1 0 1
578 26 2 0.1237 5.960767731012894 10.028415102938792 -25.444125866837382 0 -1 1
1544 86 2 0.1403 -0.17516276655784782 2.531733116257753 26.1400874889263 0 0 0
1040 54 2 0.0354 7.578769871378677 5.482382630309862 -24.9460360968422 1 0 1
1764 100 3 -0.0182 0.9356769031345621 10.153138669679517 -20.54400222059478 -1 0 1
1138 61 2 0.1237 -0.6171489562770982 10.888514093629212 -24.15731752966635 1 0 1
1137 61 1 -0.129 -1.1554064466296277 10.168668157429536 -24.86096829599366 1 0 1
1139 61 1 0.0266 -0.903126673011284 10.388456713196183 26.113973253319546 1 0 0
1141 61 1 -0.129 -1.5678312197046487 9.669975107472345 25.132103375840074 1 0 0
1774 100 4 -0.0696 0.40011150059876566 9.820676196561339 -21.701586881846197 -1 0 1
1775 100 2 0.0354 -0.24669128931936657 10.436217113905883 -22.253461196987598 -1 0 1
1148 61 2 0.1403 13.012243032397784 9.301359404847947 -23.402748500594782 0 0 1
1147 61 1 -0.1734 -2.1168722643744675 9.25632458262125 -24.42755379251536 1 0 1
1918 109 4 -0.0696 1.913620807419177 15.456369920882153 -24.49536783313698 0 0 1
1920 109 2 0.0354 1.683783480165498 15.758414677309393 -25.529000484853405 0 0 1
1919 109 2 0.0354 1.2031512931932247 14.702194606265516 -24.04537328984822 0 0 1
1145 61 1 -0.1134 12.716096487799176 8.485364189445589 -25.42559708467621 0 0 1
1143 61 1 -0.1734 12.996052036664377 8.701149871361281 25.563311851007374 0 0 0
1144 61 2 0.1403 12.562869374238428 8.165528859107251 24.711914365742917 0 0 0
1142 61 2 0.1237 -1.536771404283505 10.02685548273813 24.019968346959796 1 0 0
1776 100 2 0.0354 0.3852161493726404 8.807949172727543 -22.189547351573708 -1 0 1
588 26 2 0.1403 5.136129056342837 11.047863747917468 -23.52887677490187 0 -1 1
1150 61 4 -0.0696 -0.018418112240959263 12.608757544309983 -25.818307024940157 1 0 1
1140 61 3 -0.0182 0.22566419321877837 11.555810922634866 25.788756245551237 1 0 0
1149 61 2 0.0518 1.21172020071087 11.142114179414135 25.68540318934066 1 0 0
1151 61 2 0.0354 0.615391644393745 13.006339399174143 -25.071703514129858 1 0 1
2448 142 2 0.0354 9.10326189157798 11.215026922937682 -22.028198560954394 1 0 0
2746 161 2 0.1288 8.068911565972 8.138968529549935 24.580686164404668 -1 -1 -1
2812 165 2 0.1403 6.117399678480208 11.281355473217053 -21.581230644803707 -1 -1 0
1146 61 2 0.1288 12.125453005909705 7.685834686250396 -25.129308836838245 0 0 1
2741 161 1 -0.129 9.604777084991836 11.072875816547954 25.570329243134 -1 -1 -1
2744 161 2 0.1403 8.303157382814657 9.722440667065179 -25.79705348116703 -1 -1 0
2810 165 2 0.1288 6.2077098180227175 9.150061057606626 -20.887019457704834 -1 -1 0
2801 165 1 -0.129 7.39501900110145 12.207503449417905 -20.098397706133667 -1 -1 0
2807 165 1 -0.1734 7.453643197248561 9.579203572649046 -19.038558394826993 -1 -1 0
2809 165 1 -0.1134 6.792711684339081 9.904527887879748 -20.224209994359594 -1 -1 0
2811 165 1 -0.1734 6.738189889656435 11.19216447690487 -20.7063318746958 -1 -1 0
2742 161 2 0.1237 9.491337724071213 11.750436824149382 -25.811588210605084 -1 -1 0
2002 115 2 0.1237 11.290197309543302 14.581341772697803 -19.677844431962857 -1 -1 1
2013 115 2 0.0518 10.53897944775456 12.647546735855121 -22.39822576185894 -1 -1 1
2015 115 2 0.0354 11.104374882757236 13.687520145790366 -24.509220368622408 -1 -1 1
2004 115 3 -0.0182 10.871784887327486 13.695964431631436 -22.32817945728625 -1 -1 1
2743 161 1 -0.1734 8.838728467284922 9.932451826938076 25.55574741217268 -1 -1 -1
2745 161 1 -0.1134 8.739876844054455 9.071088849264093 24.44628619296772 -1 -1 -1
1480 82 2 0.1403 7.0875483975915845 12.553107282069222 23.066969709594595 0 0 0
2001 115 1 -0.129 12.205009819340649 14.34333656447968 -20.262194640992472 -1 -1 1
2003 115 1 0.0266 12.08633475532267 13.768238476825356 -21.51880630389414 -1 -1 1
1260 68 2 0.1403 6.382871948108176 13.122471621064587 -23.99034257371937 -1 0 1
1478 82 2 0.1237 5.806404016954374 11.74251837473754 21.36888735477505 0 0 0
1908 109 3 -0.0182 3.1942287006966454 15.338456412267014 -24.05520835772769 0 0 1
1907 109 1 0.0266 3.6314789693134264 16.839379348336255 -23.901206074315613 0 0 1
2530 148 2 0.1237 -0.9254605620554116 15.72291253960091 -23.273480198135076 1 -1 0
2529 148 1 -0.129 -1.2523965314276246 16.868622738865955 -23.185924675344573 1 -1 0
1909 109 1 -0.129 2.9259301248911336 17.634414334666484 -22.997320979233915 0 0 1
2539 148 1 -0.1734 -1.3137907966678157 17.408231872946484 -21.889261016103912 1 -1 0
1905 109 1 -0.129 4.600916174076509 17.415637131277105 -24.715964790530688 0 0 1
1913 109 1 -0.1134 4.081699472908879 19.598668692714526 -23.745898901592838 0 0 1
1914 109 2 0.1288 4.352629570699674 20.537423850735898 -23.46992508655122 0 0 1
1915 109 1 -0.1734 4.708677534303302 18.75842678706251 -24.66241365473731 0 0 1
1916 109 2 0.1403 5.662692021379769 19.156120567842507 -25.046993656350157 0 0 1
1912 109 2 0.1403 3.023119201729647 19.69341963540027 -21.969400276961597 0 0 1
1911 109 1 -0.1734 3.1101267276036935 19.00533830861558 -22.8809481755065 0 0 1
2537 148 1 -0.1134 -1.8752803388769923 18.6190205275699 -21.74791005765882 1 -1 0
1910 109 2 0.1237 2.167020284003744 17.216684718419636 -22.24390479454584 0 0 1
2542 148 4 -0.0696 -2.138602368954148 15.769268180654192 -25.91757851383481 1 -1 0
2531 148 1 0.0266 -1.7217198030351668 17.53303462167576 -24.310170579706895 1 -1 0
2534 148 2 0.1237 12.67159676452197 19.358770770989157 -24.9462687744299 0 -1 0
2533 148 1 -0.129 13.049987404092414 18.7247729252057 -24.067114253984467 0 -1 0
2535 148 1 -0.1734 13.043059754602448 19.26370381193592 -22.8258627606014 0 -1 0
2541 148 2 0.0518 -0.5417333447820171 17.190658310711218 -26.052042222201397 1 -1 0
2532 148 3 -0.0182 -1.5170658282504856 16.921092235431782 -25.66012058890725 1 -1 0
986 51 2 0.1288 4.603232460406663 21.393673870623648 -19.239931629719738 0 -1 1
2540 148 2 0.1403 -0.7526307840362882 16.92601936040598 -21.06622123014491 1 -1 0
2538 148 2 0.1288 -1.8369340151389992 19.12883151557093 -20.764828950034275 1 -1 0
1906 109 2 0.1237 5.196837804482736 16.77426579566305 -25.36212540241225 0 0 1
987 51 1 -0.1734 5.739250990452455 21.79486001898745 -20.90779807346862 0 -1 1
988 51 2 0.1403 4.943160760257441 22.518726339707957 -21.078591977558727 0 -1 1
1256 68 2 0.1403 9.150541773350929 16.218928319600565 -25.66437304369223 -1 0 1
978 51 2 0.1237 6.5887209916180725 21.948619090159 -22.858367434289313 0 -1 1
1258 68 2 0.1288 8.193624529724621 13.785227344912082 -25.575872503351277 -1 0 1
1257 68 1 -0.1134 7.8740430791748235 14.531782006757735 -24.941884909067667 -1 0 1
1255 68 1 -0.1734 8.362439705028983 15.85765613885352 -24.971623728827556 -1 0 1
1254 68 2 0.1237 8.301976962367297 17.777761317382584 -23.95200546264675 -1 0 1
1259 68 1 -0.1734 6.902338135538662 14.129607693114911 -23.973064928609745 -1 0 1
1251 68 1 0.0266 7.107404428820447 16.249166143162316 -22.949721469553058 -1 0 1
1253 68 1 -0.129 7.99320883968425 16.673501030996036 -23.922152809194923 -1 0 1
636 29 2 0.1403 10.967609094269696 20.764158546255036 25.872228043624997 -1 -1 0
983 51 1 -0.1734 6.807434571400453 20.481629802197283 -19.154358093766938 0 -1 1
985 51 1 -0.1134 5.687431965722688 21.210461743657856 -19.62021031844265 0 -1 1
977 51 1 -0.129 6.750521802515925 21.533424377410917 -21.794563481524087 0 -1 1
2016 115 2 0.0354 11.466184322959336 15.317963224581039 -23.58137792325601 -1 -1 1
2014 115 4 -0.0696 11.094537589973312 14.229666864091403 -23.493329540269247 -1 -1 1
2005 115 1 -0.129 -2.2734917772643533 13.185777898367737 -22.043174082068674 0 -1 1
2006 115 2 0.1237 -2.2049255664143175 12.655851180142761 -22.979210293155838 0 -1 1
1249 68 1 -0.129 6.534534077938583 14.972378581391872 -22.918811148324437 -1 0 1
634 29 2 0.1288 9.555156658281227 19.004941306613482 24.81129371284879 -1 -1 0
3092 183 3 -0.0182 -0.23499706158842507 25.870085152496895 -22.73525102827801 1 -1 1
3098 183 2 0.1288 3.1141316420992204 23.605154218903984 -18.996874349175517 1 -1 1
2536 148 2 0.1403 12.721896709657027 20.267945513041003 -22.691618040515806 0 -1 0
3100 183 2 0.1403 2.307009053882991 22.47579373148866 -20.922394420324117 1 -1 1
3097 183 1 -0.1134 2.247571043613331 23.961596300667605 -19.583588408152796 1 -1 1
3096 183 2 0.1403 2.0584417692591708 25.712294676078816 -18.501218387561607 1 -1 1
3089 183 1 -0.129 1.0110676740869424 23.93167949622149 -21.706897634983505 1 -1 1
3099 183 1 -0.1734 1.832578330463802 23.421958696394956 -20.771149754201982 1 -1 1
3095 183 1 -0.1734 1.6727137376323877 25.247601261134594 -19.387698918911493 1 -1 1
3090 183 2 0.1237 0.6211112759382156 23.211267484367404 -22.439945434966575 1 -1 1
3093 183 1 -0.129 0.9576280007828515 25.88483104612961 -20.38020407877695 1 -1 1
3091 183 1 0.0266 0.5682334876377806 25.19651770533124 -21.57497949548591 1 -1 1
3094 183 2 0.1237 0.6498534254774844 -25.43210888594704 -20.05022750597708 1 0 1
984 51 2 0.1403 6.986611483993421 19.93260609926977 -18.281536042742726 0 -1 1
2848 167 2 0.0354 3.437290270919603 25.51006725776251 -22.717696056310164 0 -1 0
2846 167 4 -0.0696 4.436801725316026 25.103866663087825 -22.45082472500604 0 -1 0
1204 65 3 -0.0182 -1.1910237372482384 23.683569351565986 22.095598757608624 -1 -1 0
2847 167 2 0.0354 4.62793515871958 24.045671706150234 -22.66117955164682 0 -1 0
1500 83 2 0.1403 -2.231648785375544 22.294624595963537 -22.727960119726408 0 -1 1
1498 83 2 0.1288 12.876665549628903 21.42970531062191 -20.452018921406935 -1 -1 1
1213 65 2 0.0518 -1.5437560163514137 22.66425771308025 22.295976853726412 -1 -1 0
1490 83 2 0.1237 12.301614302846797 24.50552552147756 -23.429630788870714 -1 -1 1
1501 83 2 0.0518 9.325277410006198 26.034759201133777 -21.88599831476349 -1 -1 1
2834 167 2 0.1237 7.216675388656942 -25.40684682990465 -23.066378478078704 0 0 0
989 51 2 0.0518 8.328281905127305 19.513142945705386 -23.128989842522376 0 -1 1
980 51 3 -0.0182 8.775732591594817 20.086882775354056 -22.35045615320433 0 -1 1
982 51 2 0.1237 8.567681292085387 19.546619734357407 -19.784527254373323 0 -1 1
981 51 1 -0.129 7.77713575687602 20.239515750291073 -20.13835269396768 0 -1 1
992 51 2 0.0354 10.166369749371496 21.63755805070543 -21.949150386674063 0 -1 1
990 51 4 -0.0696 9.716377686440172 20.959254510120363 -22.658231319584473 0 -1 1
979 51 1 0.0266 7.75262555589026 20.737502373655712 -21.424201053704138 0 -1 1
1491 83 1 0.0266 10.915857454848812 24.531544079945675 -21.612913141853706 -1 -1 1
1489 83 1 -0.129 11.991730147257988 24.005671676698636 -22.387629361287445 -1 -1 1
991 51 2 0.0354 10.04139672022912 21.20664748439926 -23.65216211933965 0 -1 1
2845 167 2 0.0518 6.2216787072859026 25.33720296307884 -21.426807049192217 0 -1 0
2836 167 3 -0.0182 5.329137989254203 25.835629957089917 -21.732862230545138 0 -1 0
1499 83 1 -0.1734 12.712027492777997 22.881425174306372 -21.957493080656217 -1 -1 1
1497 83 1 -0.1134 12.379696208864592 22.31289091278802 -20.762503855083672 -1 -1 1
1201 65 1 -0.129 12.051806208330866 24.19398486350103 23.28056585914175 -2 -1 0
1211 65 1 -0.1734 11.389864513374661 25.04006387838433 24.25116521466614 -2 -1 0
1203 65 1 0.0266 -2.2145521668617034 24.572396957528504 22.739618028431494 -1 -1 0
1209 65 1 -0.1134 11.719042503851961 -25.966207819073333 24.525994573062427 -2 0 0
1205 65 1 -0.129 -1.9135794668460802 25.920020799821113 22.967078101890433 -1 -1 0
1597 89 2 0.0518 1.9208002942809301 -20.61040077861913 -21.038886452811173 1 0 0
1588 89 3 -0.0182 1.0451863258403338 -20.25045451458072 -21.574913987540185 1 0 0
2322 135 2 0.1237 0.00190901995985677 -24.473204005781483 -18.254217716930455 1 0 0
2629 154 1 -0.129 2.242738069108357 -22.372401454148147 -17.894838865297245 1 1 0
2630 154 2 0.1237 1.329138460784428 -21.62312991062673 -18.10952876166153 1 1 0
3058 181 2 0.1237 8.299892163640257 -18.673504149390233 -17.11219623737056 1 0 0
2332 135 2 0.1403 -0.5511736044616555 -22.148112663910574 -19.296003108843294 1 0 0
2625 154 1 -0.129 4.143496453118343 -22.81882381202702 -16.578161793532686 1 1 0
2626 154 2 0.1237 4.913427580813187 -22.63991629517301 -15.919679664063304 1 1 0
2627 154 1 0.0266 2.982648915954631 -22.04991317042819 -16.783049819810337 1 1 0
2638 154 4 -0.0696 3.366053109516217 -19.67553815698202 -16.095515407609277 1 1 0
2637 154 2 0.0518 2.151299577882621 -21.278471929499553 -15.043225466685017 1 1 0
2628 154 3 -0.0182 2.5707504277029853 -20.80531097790522 -16.006159017642073 1 1 0
2640 154 2 0.0354 3.7879004937482557 -19.466539182166205 -17.025637545872343 1 1 0
2639 154 2 0.0354 3.627960340478476 -18.98797413876156 -15.299651965792973 1 1 0
664 31 2 0.1403 3.4451536527730786 -18.97934240949009 -19.051609759330326 0 0 1
2323 135 1 0.0266 -2.1080205866692454 -24.95262518588068 -17.889260984773784 1 0 0
2324 135 3 -0.0182 -1.6986229366457295 26.07977306855819 -17.319896698054755 1 -1 0
2333 135 2 0.0518 -0.9284095093584136 25.543158402562128 -17.854467959288954 1 -1 0
2334 135 4 -0.0696 -1.5234559431025745 -26.087080338715303 -16.060072136496057 1 0 0
2336 135 2 0.0354 -2.287907661060994 -25.626265285274044 -15.411816383944497 1 0 0
2321 135 1 -0.129 -1.0324034924450782 -24.0211364164306 -18.331990830700846 1 0 0
2326 135 2 0.1237 11.342333973334442 -25.002060283526337 -17.641109280759917 0 0 0
2331 135 1 -0.1734 -1.3824993793498384 -22.760457949544875 -18.88920273015261 1 0 0
2325 135 1 -0.129 12.143539914636166 -24.422898436522317 -18.05247068724194 0 0 0
2327 135 1 -0.1734 11.786020323563871 -23.272435110266546 -18.732008968225088 0 0 0
2329 135 1 -0.1134 12.785055739110014 -22.55863576491039 -19.201939303335397 0 0 0
2330 135 2 0.1288 12.554146339822125 -21.796895966144277 -19.866054066536197 0 0 0
2328 135 2 0.1403 10.778173873487715 -22.865695417284943 -18.676256383997746 0 0 0
3060 181 3 -0.0182 10.170673533306008 -20.47752196628681 -16.32590875306671 1 0 0
3059 181 1 0.0266 8.894019052142323 -20.113359124000603 -15.710742151491413 1 0 0
3069 181 2 0.0518 10.08311058213495 -21.29103848684554 -17.094605064584826 1 0 0
2831 166 2 0.0354 10.333397064017454 -24.05557832671078 -14.722658603948137 0 0 0
3057 181 1 -0.129 7.950585017506838 -19.27661794972454 -16.26842775141045 1 0 0
1586 89 2 0.1237 1.3639432473138495 -19.961854151568556 -19.117737803471822 1 0 0
1130 60 2 0.1288 6.54275389909834 -12.702310648998157 -17.859933888209927 1 0 0
1136 60 2 0.0354 2.2421672051915222 -15.847852421892497 -16.437766928789213 1 0 0
1134 60 4 -0.0696 2.6740957377795684 -16.372833817962984 -15.599381263182485 1 0 0
1124 60 3 -0.0182 3.949499254830099 -16.510142086028967 -15.263027107555473 1 0 0
1133 60 2 0.0518 4.378936821898564 -17.10239758270335 -14.402929271789795 1 0 0
1123 60 1 0.0266 4.8141701685292135 -15.495537106728591 -15.984501185361813 1 0 0
1125 60 1 -0.129 5.3670822075487274 -14.400923942600414 -15.34726291880242 1 0 0
1128 60 2 0.1403 6.133187954647059 -12.438104102810444 -15.540917413264346 1 0 0
1126 60 2 0.1237 5.45857139309186 -14.553496775666343 -14.28106116742101 1 0 0
1121 60 1 -0.129 5.103338223895764 -15.65503587269006 -17.27220993450714 1 0 0
1127 60 1 -0.1734 5.877257720872221 -13.34852426894195 -16.052426966342843 1 0 0
1131 60 1 -0.1734 5.845036757657744 -14.731721907278203 -18.071834099426244 1 0 0
1132 60 2 0.1403 5.940571654359875 -14.949590740504954 -19.183249630747028 1 0 0
1129 60 1 -0.1134 6.126997994370086 -13.51856800114422 -17.399687707978828 1 0 0
1122 60 2 0.1237 4.606266612547231 -16.510528889436507 -17.905306420445015 1 0 0
666 31 2 0.1288 3.4262174447900775 -18.121019924709266 -21.340295968538765 0 0 1
562 25 2 0.1237 -1.6501347202262315 -13.1471626907358 -20.947386483220225 0 0 0
572 25 2 0.1403 -0.06021344313320315 -11.19372142507442 -21.443281111113013 0 0 0
663 31 1 -0.1734 4.339645570287464 -19.034438393427642 -19.665950571320757 0 0 1
3183 188 2 0.0354 6.465717287360398 -16.244424844950263 -21.020629150295385 0 0 0
3070 181 4 -0.0696 11.005816202177703 -19.535949628190867 -16.59299655416141 1 0 0
3072 181 2 0.0354 11.380351901633842 -18.711869388821693 -15.936611492148826 1 0 0
3071 181 2 0.0354 11.63959682917428 -19.425938236051145 -17.406527641845898 1 0 0
575 25 2 0.0354 -1.2780046883825942 -16.31826849704306 -17.707515588316358 0 0 0
672 31 2 0.0354 8.704951041228641 -18.60848875774139 -19.092391192207906 0 0 1
683 32 1 -0.1734 9.289049853657934 -15.446094731374002 -18.22040181875813 0 0 0
684 32 2 0.1403 9.271522656105239 -15.802565630452586 -19.23486449473246 0 0 0
680 32 2 0.1403 7.699952551887341 -16.402251035937564 -15.34052115710291 0 0 0
682 32 2 0.1288 7.749957981754326 -16.963505310982956 -17.711669151879523 0 0 0
679 32 1 -0.1734 8.464791217980467 -15.933020242906577 -16.038810811117276 0 0 0
681 32 1 -0.1134 8.461141958409463 -16.198295931795627 -17.411491212393038 0 0 0
574 25 4 -0.0696 -1.2651723300977666 -15.58789015923888 -18.51204613403604 0 0 0
576 25 2 0.0354 -0.5260809290658464 -15.804408776761392 -19.26566310762783 0 0 0
677 32 1 -0.129 9.109000279154845 -14.878866891776575 -15.499265763433678 0 0 0
566 25 2 0.1237 -1.0956453965577433 -12.716204079434286 -16.85812734573996 0 0 0
563 25 1 0.0266 -1.2396940894101194 -13.078493116144417 -18.880665716548858 0 0 0
565 25 1 -0.129 -0.7726969617859727 -12.353211362193077 -17.78887458137647 0 0 0
567 25 1 -0.1734 -0.16399911006867676 -11.149537462409917 -17.993014029849924 0 0 0
571 25 1 -0.1734 -0.37929103715290685 -11.491380045531448 -20.383073818114003 0 0 0
569 25 1 -0.1134 -0.09194156719526793 -10.664393737044112 -19.3126750583141 0 0 0
561 25 1 -0.129 -1.106359384946674 -12.597819972454035 -20.183586497831538 0 0 0
570 25 2 0.1288 0.5422402540250691 -9.740707611516882 -19.407872954114502 0 0 0
1932 110 2 0.1403 3.519775557222203 -10.451577651871146 -14.54280021530408 1 0 0
3226 191 2 0.1288 6.025169300205874 -8.44807918264042 -16.719236059001556 0 0 0
568 25 2 0.1403 0.10912615228855724 -10.512054231400608 -17.217015196975133 0 0 0
3174 188 2 0.1237 9.035487983104911 -12.654843996892948 -19.99846636065641 0 0 0
1050 55 2 0.1288 6.538389181155767 -10.715019464185737 -19.1164279573021 1 0 1
564 25 3 -0.0182 -2.007991083473584 -14.349037849512055 -18.514699568533917 0 0 0
573 25 2 0.0518 12.744039918169772 -14.071623333348178 -17.737264305639222 -1 0 0
1049 55 1 -0.1134 7.321199475388515 -10.092852105635837 -19.20065237097912 1 0 1
1047 55 1 -0.1734 8.193473967098692 -9.988391712341574 -18.089479026904222 1 0 1
1051 55 1 -0.1734 7.373594603414762 -9.157109786957758 -20.22216559298112 1 0 1
1046 55 2 0.1237 9.97963614793614 -8.995179859486177 -17.352583239717454 1 0 1
1045 55 1 -0.129 9.211911639186548 -9.040430038666045 -18.210896248943325 1 0 1
1043 55 1 0.0266 9.355153857232063 -8.082184471137538 -19.216045469797617 1 0 1
1041 55 1 -0.129 8.374765777547958 -8.191487268786254 -20.164110409600813 1 0 1
1053 55 2 0.0518 10.874248135067972 -7.220638440162381 -18.18899274444643 1 0 1
1042 55 2 0.1237 8.266630014160356 -7.476106109114859 -20.982224167292816 1 0 1
674 32 2 0.1237 10.65759729639954 -13.663596614568894 -18.131420015906418 0 0 0
673 32 1 -0.129 9.994703207322711 -14.391579644351902 -17.57999462606389 0 0 0
675 32 1 0.0266 9.963478670293277 -14.084354475073718 -16.260087798949694 0 0 0
1048 55 2 0.1403 8.102673852580024 -10.762697147033393 -17.37553321904194 1 0 1
872 44 2 0.1403 0.7464751478303847 -4.322750564201984 -21.99651882629628 -1 0 0
1691 95 1 -0.1734 -1.3891535375901465 -5.646583929862245 -20.97410695222785 1 0 1
1689 95 1 -0.1134 -1.1128793275671276 -5.891666913726678 -19.590788581519856 1 0 1
1686 95 2 0.1237 -2.2308964076925393 -9.202877057948738 -19.697540297623917 1 0 1
1685 95 1 -0.129 -1.9696309889651924 -8.155184661203824 -19.972691990166894 1 0 1
1681 95 1 -0.129 -1.9650934318267785 -6.630466408767512 -21.75579064992264 1 0 1
1683 95 1 0.0266 -2.243925095673141 -7.861522745766672 -21.258148330570652 1 0 1
1694 95 4 -0.0696 -2.0991608458118995 -9.704792797521035 -22.671738252722385 1 0 1
1684 95 3 -0.0182 12.562290566490017 -8.853008631719739 -22.091954107402692 0 0 1
2097 121 1 -0.129 1.2621836388812544 -6.6590880836944795 -14.190713100289729 1 0 0
2107 121 1 -0.1734 1.4015954285961996 -5.484308670241541 -14.880058974692155 1 0 0
2098 121 2 0.1237 1.619624262891801 -7.494811261464483 -14.807121195324157 1 0 0
2108 121 2 0.1403 1.8252548157793846 -5.45954878212059 -15.88705963808797 1 0 0
1682 95 2 0.1237 -2.03020201382321 -6.317022574567556 -22.837333141316996 1 0 1
1693 95 2 0.0518 11.653022755012332 -9.09261051793481 -21.58499702533212 0 0 1
1695 95 2 0.0354 13.18055069049198 -10.727925947362596 -22.886995024409657 0 0 1
1232 66 2 0.0354 3.383764650496389 -7.350663281288369 -18.150552946120584 -1 0 0
1231 66 2 0.0354 1.8595605477550148 -8.34905548941003 -18.14563243769439 -1 0 0
1220 66 3 -0.0182 2.28397615179408 -6.968275456286831 -19.80419452009086 -1 0 0
1229 66 2 0.0518 1.6178704396086625 -7.446003139579917 -20.43335156136585 -1 0 0
1230 66 4 -0.0696 2.411807190185309 -7.61028353893465 -18.595264103275927 -1 0 0
1687 95 1 -0.1734 -1.4347413228288735 -7.193935660506968 -19.097858416580053 1 0 1
2105 121 1 -0.1134 0.91183265852475 -4.2791250900758016 -14.313795296971774 1 0 0
1224 66 2 0.1403 6.301624045657923 -7.51694336839796 -22.072347455819955 -1 0 0
1692 95 2 0.1403 -1.2061976277960162 -4.6484777793355265 -21.46646779933042 1 0 1
1044 55 3 -0.0182 10.62070844492075 -7.192146794182008 -19.236250075285266 1 0 1
1054 55 4 -0.0696 10.49376215441289 -5.893993955688617 -19.74649731804836 1 0 1
1056 55 2 0.0354 10.098573707755556 -5.7646771478619945 -20.76566925236931 1 0 1
1055 55 2 0.0354 10.626151279898075 -4.928147361017786 -19.205567847775665 1 0 1
1226 66 2 0.1288 7.033601659015578 -5.377836823327919 -21.453608008224975 -1 0 0
1223 66 1 -0.1734 5.587812923724169 -6.947709477711822 -21.580769578793074 -1 0 0
1225 66 1 -0.1134 6.091254446633484 -5.735171873049925 -21.05897922700009 -1 0 0
1228 66 2 0.1403 5.6144830763536255 -4.006894920936933 -19.669784521557293 -1 0 0
1227 66 1 -0.1734 5.36988054635947 -4.991066476672938 -20.20607103643284 -1 0 0
1222 66 2 0.1237 3.872687118230433 -8.272242811103911 -21.52450409343907 -1 0 0
1221 66 1 -0.129 4.315134936714111 -7.3928809951730825 -21.16484303944963 -1 0 0
1219 66 1 0.0266 3.537300543784238 -6.618008222263922 -20.287906993441904 -1 0 0
1218 66 2 0.1237 3.68817276559499 -4.817969549215803 -19.00790649051516 -1 0 0
1217 66 1 -0.129 4.173021309779303 -5.449086079553904 -19.769315814682614 -1 0 0
2415 140 2 0.0354 12.410168753478994 -2.0528644233148126 -17.152129836754835 -1 0 0
2414 140 4 -0.0696 11.478202107414603 -2.215529909768838 -16.646707477472788 -1 0 0
2404 140 3 -0.0182 11.663520574413655 -2.8685962754309915 -15.472363759269015 -1 0 0
2413 140 2 0.0518 12.605269308474883 -3.0240513884090268 -14.959268032719796 -1 0 0
1445 80 1 -0.129 4.231559471551005 2.3026521373162288 -22.078964910146478 0 0 0
1446 80 2 0.1237 3.844903364994133 3.2442938321844292 -21.484342539988454 0 0 0
2298 133 2 0.1288 0.058663710200798844 -2.570864032981186 -19.61661687130768 1 0 0
1717 97 1 -0.129 4.954943697497645 1.9140695166047992 -15.444414022316021 1 0 0
1715 97 1 0.0266 4.443665914260137 2.913794755087609 -16.28111259826893 1 0 0
1725 97 2 0.0518 6.286868415328996 3.786970801443164 -16.87671090866914 1 0 0
1716 97 3 -0.0182 5.26150576386796 3.842155580497421 -17.202123199330064 1 0 0
1726 97 4 -0.0696 4.955129588894712 3.6978461807972143 -18.48986882429114 1 0 0
1728 97 2 0.0354 3.9800127295746894 3.5246255806351994 -18.859751876377988 1 0 0
1718 97 2 0.1237 6.0114101493504615 1.9112413195006153 -15.314249993069518 1 0 0
1721 97 1 -0.1134 2.667873485254924 1.1115295195085901 -15.101975222400016 1 0 0
1719 97 1 -0.1734 3.989189390199863 1.1257122850946828 -14.78241363180771 1 0 0
1722 97 2 0.1288 1.8773070090015986 0.6621778643653538 -14.4289219868644 1 0 0
2300 133 2 0.1403 0.5243871309762754 -3.600848805896306 -17.2661970412 1 0 0
2289 133 1 -0.129 2.6060239256389264 -3.1192868957514364 -17.285892081816225 1 0 0
2299 133 1 -0.1734 1.351502092235267 -3.2443678253735837 -17.867481548079923 1 0 0
1348 74 3 -0.0182 11.623130163480154 -0.6717549555560505 -20.18917105435331 0 0 0
1357 74 2 0.0518 11.725990814860983 -1.8140475264859277 -20.274483355581218 0 0 0
1359 74 2 0.0354 -2.2854598504652444 -0.959421758863714 -18.782646620210908 1 0 0
1358 74 4 -0.0696 12.452867579575766 -0.3074472159145183 -19.25868642344482 0 0 0
1350 74 2 0.1237 10.65744618315359 1.9936951650502954 -19.799857811331325 0 0 0
2106 121 2 0.1288 0.7734124562187706 -3.314137296252371 -14.954345314367192 1 0 0
1720 97 2 0.1403 4.330080684321711 0.4689356060568255 -13.982309841899554 1 0 0
1447 80 1 -0.1734 5.508484807965031 2.108432105837042 -22.59545751070428 0 0 0
1448 80 2 0.1403 6.344728619941075 2.715410830075686 -22.38872117603313 0 0 0
1353 74 1 -0.1134 7.563434713773518 0.7357835124833184 -19.48717652373532 0 0 0
1355 74 1 -0.1734 7.704558884742832 -0.6321148654301985 -19.848760026159628 0 0 0
1356 74 2 0.1403 6.957018731645387 -1.4867162029234808 -19.939560726794753 0 0 0
1349 74 1 -0.129 9.846444378660895 1.204808059708128 -19.715990457132396 0 0 0
1351 74 1 -0.1734 8.614569174799005 1.5995285018805845 -19.44382520708305 0 0 0
2291 133 1 0.0266 3.625834260553068 -2.4553078222803424 -17.97051699767698 1 0 0
2294 133 2 0.1237 4.192296762923691 -1.1496966458928615 -19.729136020065457 1 0 0
2293 133 1 -0.129 3.389278627477145 -1.7260938664205983 -19.055859296847167 1 0 0
2297 133 1 -0.1134 1.0612437301434412 -2.4192926804494466 -19.00724310164106 1 0 0
2184 126 2 0.1403 12.135870180364156 0.1291663731397801 -15.83411704236827 -1 0 0
2295 133 1 -0.1734 2.08702358862321 -1.6197187519948142 -19.48239487421751 1 0 0
2296 133 2 0.1403 1.9453511177337273 -1.0129581820719886 -20.327442165374066 1 0 0
2183 126 1 -0.1734 11.821529409458183 1.226504188736195 -16.079662426626655 -1 0 0
1345 74 1 -0.129 9.080402103238276 -1.0598862460398257 -19.959704595544085 0 0 0
1346 74 2 0.1237 9.302957570273124 -2.086543806902625 -20.114536935743782 0 0 0
1347 74 1 0.0266 10.152766603776957 -0.2093292347143431 -19.91977235519442 0 0 0
2182 126 2 0.1237 10.354501049577012 0.8963812925576965 -14.878424143352774 -1 0 0
2181 126 1 -0.129 10.684045210562934 1.6712251848996695 -15.532552233402486 -1 0 0
1360 74 2 0.0354 12.753074986540563 0.7752635392044323 -19.330846422191684 0 0 0
1766 100 2 0.1237 3.4927789501391144 9.219369295363897 -20.82097070553676 -1 0 1
1713 97 1 -0.129 3.0395880495911514 2.937283621758456 -16.537018231614898 1 0 0
1714 97 2 0.1237 2.470373540499786 3.6827513575076605 -17.093171662988464 1 0 0
1724 97 2 0.1403 1.1275385774551328 2.3056836078766887 -16.291330545339786 1 0 0
1723 97 1 -0.1734 2.166990030377553 2.126147104882151 -15.945851988239685 1 0 0
1727 97 2 0.0354 5.631259825925628 3.447615266879256 -19.306873424889577 1 0 0
1765 100 1 -0.129 2.897649217436706 8.662848369857134 -20.15636109275735 -1 0 1
1763 100 1 0.0266 1.6525792650265756 9.15836383192369 -19.74662802445151 -1 0 1
1769 100 1 -0.1134 2.876316904379609 6.9331925221632735 -18.54009999687674 -1 0 1
1768 100 2 0.1403 4.53804390942458 7.363137349245291 -19.769872459354165 -1 0 1
1767 100 1 -0.1734 3.507675573929871 7.63790965827966 -19.502860782944698 -1 0 1
1771 100 1 -0.1734 1.7041930323790841 7.352592591668764 -18.105947867406222 -1 0 1
1772 100 2 0.1403 1.2561024731995747 6.719523887545218 -17.312283283384716 -1 0 1
1770 100 2 0.1288 3.2896603966435776 6.06203596663995 -17.92618992220469 -1 0 1
1793 102 1 -0.129 -1.719872937177842 5.930725925450206 -13.618875082095974 1 0 0
1804 102 2 0.1403 -0.44959324572237797 4.408668800131809 -12.986785375165404 1 0 0
1803 102 1 -0.1734 -0.4156062495827175 5.395811197950885 -13.458098653987724 1 0 0
1802 102 2 0.1288 1.6111752116283387 5.4151514750469145 -14.210593494135537 1 0 0
1801 102 1 -0.1134 0.6124517373616842 5.9556661076013055 -14.106384589205824 1 0 0
1574 88 2 0.1237 2.158255661635721 10.481652724121046 -17.19592117809703 0 0 0
1583 88 2 0.0354 4.558231468840222 11.700742711660567 -18.653034329623527 0 0 0
1034 54 2 0.1288 5.4779481993542545 5.863986353105777 -19.229617592941036 1 0 1
2438 142 2 0.1237 11.841516413082235 7.55387316553203 -21.52611903429688 1 0 0
2186 126 2 0.1288 -2.142625969361049 1.6243847435270293 -17.712118689477037 0 0 0
2185 126 1 -0.1134 12.563669543571852 2.116391574158542 -16.97738145176534 -1 0 0
1794 102 2 0.1237 12.867553145267768 5.545496895694582 -13.074217044276388 0 0 0
2435 142 1 0.0266 11.145804281044315 9.493599898397383 -21.04132560062378 1 0 0
2188 126 2 0.1403 12.573813975288308 4.15555178108474 -17.831501194619506 -1 0 0
2187 126 1 -0.1734 12.12758128898106 3.4022299258469957 -17.169551853343407 -1 0 0
2439 142 1 -0.1734 12.433420092734869 8.050596765571507 -19.502275071177316 1 0 0
2437 142 1 -0.129 11.740426293360333 8.28931111011325 -20.771522156821533 1 0 0
2177 126 1 -0.129 11.012029063867162 3.836001210529141 -16.484257162648056 -1 0 0
2440 142 2 0.1403 12.855198069789049 7.095574249507954 -19.20968801324536 1 0 0
1805 102 2 0.0518 12.329530719891508 8.861563131262374 -14.089851419654442 0 0 0
1773 100 2 0.0518 0.8394079222010552 11.170936799350644 -20.11491444274214 -1 0 1
2380 138 2 0.1403 1.9071274986366273 12.56321152376313 -18.22647495935908 0 0 0
1761 100 1 -0.129 0.9680514684122025 8.39206347988576 -18.758234471254816 -1 0 1
2816 165 2 0.0354 7.405719425457651 14.845461404696687 -18.54482822669053 -1 -1 0
1762 100 2 0.1237 -0.026153137058663446 8.642065067803093 -18.41382165504558 -1 0 1
2376 138 2 0.1403 1.2209308839061728 15.342560478172809 -15.078526561532758 0 0 0
2378 138 2 0.1288 0.9500417156898154 13.107894149648713 -15.884454877468803 0 0 0
2379 138 1 -0.1734 1.9163408564712565 13.623220592272078 -17.85147860795892 0 0 0
2377 138 1 -0.1134 1.4525433528811476 13.8446957371887 -16.605764938096986 0 0 0
2375 138 1 -0.1734 1.4861147557083056 15.17377917818889 -16.092830657493362 0 0 0
2373 138 1 -0.129 1.8715406312859357 16.23637390593626 -16.976306165423484 0 0 0
2374 138 2 0.1237 1.7592091139232497 17.305009112128587 -16.630038767102892 0 0 0
1584 88 2 0.0354 4.711652577787783 12.955398446974224 -17.173501967236195 0 0 0
2666 156 2 0.1288 -2.0512134717465256 13.638403075999063 -17.170172092967668 1 0 0
1582 88 4 -0.0696 4.684483130576845 11.860549230430884 -17.570404134286758 0 0 0
1572 88 3 -0.0182 4.8813202891123595 10.874435601254994 -16.669010093422266 0 0 0
2805 165 1 -0.129 7.984268776006651 10.658457861226006 -18.358243395561093 -1 -1 0
2434 142 2 0.1237 10.773949546100452 11.456536887688456 -20.156162099252416 1 0 0
2433 142 1 -0.129 11.070757260478054 10.374271977286869 -19.96521093724049 1 0 0
2443 142 1 -0.1734 11.6002004242226 10.107323881038576 -18.737560764999618 1 0 0
2442 142 2 0.1288 12.360862612036254 8.769957336559813 -17.39991161511692 1 0 0
2441 142 1 -0.1134 12.144087991050617 8.889780702715418 -18.439817006795813 1 0 0
2444 142 2 0.1403 11.556134382642727 10.799767835060475 -17.869684054443486 1 0 0
2802 165 2 0.1237 7.324196483911899 13.267795759188711 -20.521228489488948 -1 -1 0
2806 165 2 0.1237 8.44603521495994 10.463282307884787 -17.33167116767408 -1 -1 0
2803 165 1 0.0266 8.027377795606665 11.983965422566758 -18.881020880864604 -1 -1 0
2804 165 3 -0.0182 8.770522858078884 13.139855566889212 -18.224619155752528 -1 -1 0
2814 165 4 -0.0696 7.985534913709265 14.201174792740636 -17.937595500198736 -1 -1 0
2813 165 2 0.0518 9.626378248857172 12.917455752150943 -17.587636523224127 -1 -1 0
2668 156 2 0.1403 11.818532888093083 15.24193752872835 -16.616489222816586 0 0 0
2815 165 2 0.0354 7.912149939340958 14.6410916937446 -16.930319588515026 -1 -1 0
2667 156 1 -0.1734 11.62772016769668 14.280064799731369 -16.30820297243816 0 0 0
2665 156 1 -0.1134 12.610093355884182 13.379266780141165 -16.479786837260868 0 0 0
2658 156 2 0.1237 9.764517165788615 14.82591179333399 -15.316990500502797 0 0 0
2657 156 1 -0.129 10.590093942481964 14.029476869866297 -15.498759483143436 0 0 0
2011 115 1 -0.1734 -2.036858167265957 14.532015246630351 -19.582940382542436 0 -1 1
2012 115 2 0.1403 -1.7999088872123294 15.07164030655836 -18.62797826841796 0 -1 1
2010 115 2 0.1288 0.1383344503369945 14.455236122800503 -20.014643163192222 0 -1 1
2009 115 1 -0.1134 -0.8738713142993654 14.151164961281912 -20.333094729717434 0 -1 1
1164 62 2 0.1403 5.9674291430484905 12.983669193073517 -13.794053898663986 1 0 0
1917 109 2 0.0518 3.509095879361257 14.718535338651964 -23.153304852794623 0 0 1
3014 178 2 0.1237 -0.14147352835373336 20.60959969374407 -19.008638430626352 2 -1 0
3016 178 2 0.1403 13.173633743626398 21.570855367389623 -18.172704459405477 1 -1 0
2371 138 1 0.0266 2.3118175916407036 15.968858590797225 -18.28339901380281 0 0 0
2384 138 2 0.0354 4.406412047867249 17.478663282466556 -18.158368585581172 0 0 0
2370 138 2 0.1237 2.506801069544843 14.527870726135742 -19.730021986898404 0 0 0
2369 138 1 -0.129 2.3784169778948403 14.675603270519375 -18.648863093705668 0 0 0
2382 138 4 -0.0696 3.9081088288016637 17.69316636687386 -19.018168915859476 0 0 0
2372 138 3 -0.0182 2.6882268217313117 17.092359568899226 -19.24179610185166 0 0 0
2381 138 2 0.0518 2.0303024253776543 17.248467998246724 -20.04435834387142 0 0 0
2383 138 2 0.0354 4.5207791879211285 18.41893272715414 -19.57710333128995 0 0 0
2023 116 1 -0.1734 10.724974038014583 18.23512514219919 -18.15684063225636 0 0 0
2025 116 1 -0.1134 11.932728335352945 17.68543678840888 -18.58609099586044 0 0 0
3022 178 4 -0.0696 2.699688763557971 20.137714581392363 -17.380207247072402 2 -1 0
3024 178 2 0.0354 1.9980691390416965 19.2937245880901 -17.683716056061673 2 -1 0
2024 116 2 0.1403 9.864612115886757 18.381923085071243 -18.840336492342512 0 0 0
3023 178 2 0.0354 3.5614354515835784 19.886101949605912 -16.83525893631261 2 -1 0
2027 116 1 -0.1734 13.02852276617032 17.604146961675422 -17.711797816740997 0 0 0
2028 116 2 0.1403 -1.593728988695038 17.29714766811453 -18.020626951828934 1 0 0
2026 116 2 0.1288 11.862831018852228 17.04446323238793 -19.455936387413853 0 0 0
1264 68 2 0.0354 8.312509058881668 17.120406487213963 -20.903990830115823 -1 0 1
2029 116 2 0.0518 11.320873137076806 20.352896668511562 -14.809858800706829 0 0 0
2022 116 2 0.1237 9.587451662359461 19.035142087649437 -16.560525869611038 0 0 0
2020 116 3 -0.0182 11.462527182095661 19.307515826358777 -14.617238380027352 0 0 0
2019 116 1 0.0266 11.655721547968868 18.66550695762337 -16.0163329940559 0 0 0
2021 116 1 -0.129 10.579097807479139 18.595533184272213 -16.909205471805357 0 0 0
2007 115 1 -0.1734 -1.0582173064275404 13.50943131087813 -21.517836245841266 0 -1 1
2008 115 2 0.1403 -0.12294353998444814 13.192640664875444 -22.021050670697193 0 -1 1
1165 62 2 0.0518 8.40993392197194 16.546120456957915 -15.769751647099264 1 0 0
1261 68 2 0.0518 5.4571402436415335 17.19061668050565 -21.824657071485355 -1 0 1
1252 68 3 -0.0182 6.5161110931596555 17.20224435122662 -21.964541584533297 -1 0 1
1250 68 2 0.1237 5.848667320578253 14.594644051696156 -22.183020232598324 -1 0 1
2017 116 1 -0.129 12.913634756966626 18.203228614850413 -16.453147774850763 0 0 0
1166 62 4 -0.0696 7.05558049724438 18.217984139066733 -15.70203784658028 1 0 0
1156 62 3 -0.0182 7.414958728454479 16.95027024426175 -15.630308642990368 1 0 0
1263 68 2 0.0354 6.873995847170762 16.866109301666274 -19.818096134532592 -1 0 1
1262 68 4 -0.0696 7.277167842069684 16.9850443434011 -20.827625530785795 -1 0 1
1155 62 1 0.0266 6.9268663750122 16.247811207934706 -14.354929597252431 1 0 0
1154 62 2 0.1237 6.398307429797081 14.60251700350772 -15.530012252331947 1 0 0
1167 62 2 0.0354 7.588727833538926 19.08953115261562 -15.71445970982134 1 0 0
1163 62 1 -0.1734 6.353968145317385 14.034801917205941 -13.522872296373384 1 0 0
1153 62 1 -0.129 6.423524054919674 14.964057942465923 -14.52931711757123 1 0 0
1168 62 2 0.0354 6.052558184272927 18.39837474121645 -15.473555264346947 1 0 0
2633 154 1 -0.1134 3.626534995514892 -24.315080261041714 -18.447767845304824 1 1 0
2631 154 1 -0.1734 2.4900948153044467 -23.525254752135 -18.65337699607891 1 1 0
2632 154 2 0.1403 1.7633968136424116 -23.846860912167937 -19.445544368928136 1 1 0
2635 154 1 -0.1734 4.518166883074551 -23.849290692424034 -17.461046430041943 1 1 0
3012 178 3 -0.0182 2.4973179535400263 21.380323348934663 -17.82450981485178 2 -1 0
2634 154 2 0.1288 3.9967664880362537 -25.13676077735229 -19.183183252203094 1 1 0
3013 178 1 -0.129 -0.18016382362132932 21.388607567765465 -18.267587634414266 2 -1 0
3021 178 2 0.0518 3.2622909457835614 22.106817462200432 -17.585241714703447 2 -1 0
3011 178 1 0.0266 1.0140795016508295 21.88238834440022 -17.671925090232936 2 -1 0
3009 178 1 -0.129 0.8924797221761778 22.89432383236774 -16.75807827910039 2 -1 0
3017 178 1 -0.1134 -1.476985348234228 22.518211514642005 -16.539623824012516 2 -1 0
3015 178 1 -0.1734 -1.3816494220115543 21.859614307975615 -17.761135344903018 2 -1 0
3018 178 2 0.1288 13.089083969005209 22.656444556439457 -15.967506712318817 1 -1 0
3010 178 2 0.1237 1.8545471062084244 23.34522721103826 -16.472730493417814 2 -1 0
3019 178 1 -0.1734 -0.3255778335655338 23.07777666691081 -16.04872830637278 2 -1 0
3020 178 2 0.1403 -0.29011281043972703 23.812970992062862 -15.222717601241174 2 -1 0
2636 154 2 0.1403 5.508274063083748 -24.363040208715347 -17.413604354516536 1 1 0
2045 117 2 0.0518 4.170508083667458 24.705258641443745 -13.756719997519488 0 -1 0
1503 83 2 0.0354 10.700848758382774 -24.366575313696256 -22.197141817556105 -1 0 1
1502 83 4 -0.0696 11.131048430516719 -25.37808930079622 -22.153072325647337 -1 0 1
1492 83 3 -0.0182 10.373295031872306 25.919631754597106 -21.903510185420966 -1 -1 1
1494 83 2 0.1237 9.74557499096363 24.373706164782163 -20.03376874879088 -1 -1 1
1493 83 1 -0.129 10.593013780499145 23.863815797302642 -20.497007336858303 -1 -1 1
1496 83 2 0.1403 11.19485584903591 22.41129813876253 -19.040390405718394 -1 -1 1
1495 83 1 -0.1734 11.308257584199964 22.76886679471478 -20.011397177929158 -1 -1 1
2335 135 2 0.0354 -0.668578160616758 25.8835460182781 -15.55077692018381 1 -1 0
1199 64 2 0.0354 8.389225259262961 22.036619234820105 -17.143751833096136 0 -1 0
2047 117 2 0.0354 4.589058205577842 23.17704488679962 -15.642090524126601 0 -1 0
1194 64 2 0.1288 8.832875008579196 -23.947570993480447 -19.142497683875238 0 0 0
1504 83 2 0.0354 12.193117244280522 -25.240676349640072 -22.480101305522318 -1 0 1
1192 64 2 0.1403 8.752437427807909 -23.85121373146544 -16.774224821111368 0 0 0
1190 64 2 0.1237 8.268107545324412 -25.595425200623687 -15.348485329664587 0 0 0
1191 64 1 -0.1734 8.62895394642133 -24.90280694081306 -17.257411984025957 0 0 0
1193 64 1 -0.1134 8.609221382564181 -24.941775440970027 -18.659753968485997 0 0 0
1189 64 1 -0.129 8.474272229287852 -25.968474661934646 -16.358721186120697 0 0 0
1185 64 1 -0.129 8.124692613154977 25.06842856071024 -18.293398449816696 0 -1 0
1187 64 1 0.0266 8.185507091479835 25.098796381483286 -16.899710702302745 0 -1 0
1198 64 4 -0.0696 8.772662601804916 22.893540630199112 -16.594257846616323 0 -1 0
1200 64 2 0.0354 9.853948536943385 22.914030171293597 -16.484569615636744 0 -1 0
1188 64 3 -0.0182 8.060675487984996 23.86745764531262 -15.963013927035941 0 -1 0
1197 64 2 0.0518 7.031618292127467 23.72564783827217 -15.872029662926616 0 -1 0
1196 64 2 0.1403 8.035739249374528 25.87332719685083 -20.165702840872942 0 -1 0
1195 64 1 -0.1734 8.217143725143405 -26.153247412987234 -19.197440853664055 0 0 0
1186 64 2 0.1237 7.879914341703182 24.037718181638674 -18.765351994693827 0 -1 0
2824 166 2 0.1403 1.179133042763767 -24.188532213594176 -13.10708415756955 1 0 0
2823 166 1 -0.1734 0.27339996573987846 -23.624956250362867 -12.92357985908513 1 0 0
2821 166 1 -0.129 -0.7991496172457241 -23.51725702238453 -13.797430586168215 1 0 0
2822 166 2 0.1237 -0.716750756955043 -24.016050011323813 -14.82755215498784 1 0 0
623 28 2 0.0354 1.5813580848205138 24.9411311685944 -11.068827526594838 1 0 0
2826 166 2 0.1288 0.7115366792901245 -23.366339292358813 -10.930287952581276 1 0 0
2825 166 1 -0.1134 -0.10187864815820744 -23.30488389840688 -11.618425903741205 1 0 0
2827 166 1 -0.1734 -1.4237878270425615 -23.034770982331846 -11.2340099914999 1 0 0
2828 166 2 0.1403 -1.5041246809891338 -22.841440949877576 -10.205736390929633 1 0 0
2905 171 1 -0.1134 3.8780581250495816 -20.61220301739595 -12.001995805648283 0 0 0
2906 171 2 0.1288 3.8454153501708075 -20.8992331955493 -13.132445641435593 0 0 0
2817 166 1 -0.129 13.138654556752211 -22.72529409240554 -12.215958534825718 0 0 0
3067 181 1 -0.1734 6.643171752756153 -19.31817784204307 -15.69701518797874 1 0 0
3068 181 2 0.1403 5.802872708917579 -18.605915920284804 -16.022061767324555 1 0 0
624 28 2 0.0354 0.4487050906791477 25.493374654265985 -12.61048997658168 1 0 0
3044 180 3 -0.0182 5.291597026572428 -25.162044420184145 -13.225834893729854 0 1 0
3053 180 2 0.0518 4.248878067571431 -25.513912487482443 -13.270709018617756 0 1 0
2901 171 1 -0.129 4.953315577462885 -20.536187678504962 -9.86043169017771 0 0 0
2902 171 2 0.1237 5.799441403467328 -20.848127465623033 -9.126068313446115 0 0 0
2903 171 1 -0.1734 4.88920212570682 -21.047184046510143 -11.160041008462613 0 0 0
2904 171 2 0.1403 5.671815905535422 -21.592902964901445 -11.577169828729545 0 0 0
2832 166 2 0.0354 10.660413780432062 -22.986300528640662 -13.26903924211574 0 0 0
2830 166 4 -0.0696 11.071755430487695 -23.36683354710599 -14.239893536509053 0 0 0
813 40 2 0.0518 -1.2012647010361452 -17.725497142552157 -14.379083537710901 2 0 0
2819 166 1 0.0266 -2.0647732348317342 -23.099044474631864 -13.494386055414399 1 0 0
2818 166 2 0.1237 12.114949563945828 -22.442976004963263 -11.875516739933348 0 0 0
3066 181 2 0.1288 5.393756371918172 -19.76809677328674 -14.035367337698059 1 0 0
3065 181 1 -0.1134 6.39618656234814 -19.912201548662807 -14.459808223348638 1 0 0
3061 181 1 -0.129 8.579040771118866 -20.89914094069065 -14.595590256184536 1 0 0
3063 181 1 -0.1734 7.384809007173312 -20.764785206281463 -13.949044432058297 1 0 0
3064 181 2 0.1403 7.073084675747136 -21.337768166091738 -13.041493399881327 1 0 0
3088 182 2 0.0354 10.766005172438717 -21.756414438005127 -9.894455522199294 -1 0 0
2829 166 2 0.0518 12.687756900002384 -23.525284219151803 -15.562495469121833 0 0 0
2820 166 3 -0.0182 12.336235526048139 -23.044273477241465 -14.63371287983728 0 0 0
3042 180 2 0.1237 8.095402541638327 -25.13525711114494 -12.861789352707317 0 1 0
3052 180 2 0.1403 9.446472365510074 -25.706745752698257 -11.129459482451445 0 1 0
804 40 3 -0.0182 -0.6502185151911609 -18.653391751914317 -14.089274057493824 2 0 0
802 40 2 0.1237 12.386554515255838 -19.922312105983163 -13.562147975694497 1 0 0
3062 181 2 0.1237 9.387398994666874 -21.503662043875295 -14.239442202319246 1 0 0
3041 180 1 -0.129 7.564678545797668 -25.61423887976093 -12.053942727618928 0 1 0
3087 182 2 0.0354 9.107290469545623 -22.177899327176064 -8.953921422501828 -1 0 0
3086 182 4 -0.0696 9.969355825690084 -22.429883604356863 -9.507838586255243 -1 0 0
801 40 1 -0.129 12.884610289442145 -19.527797449238772 -12.679262672398918 1 0 0
1135 60 2 0.0354 1.9186436071754915 -16.51560451548426 -14.78696763678239 1 0 0
716 34 2 0.1403 5.295795927551723 -17.847516341026527 -11.793324670826127 0 0 0
715 34 1 -0.1734 5.803637242590085 -16.972705348881103 -11.89199249704541 0 0 0
706 34 2 0.1237 4.354397397809506 -15.845912431876952 -10.937785491756296 0 0 0
705 34 1 -0.129 5.348539547838089 -15.85104436532238 -11.369627831503244 0 0 0
2907 171 1 -0.1734 2.7724795826099182 -20.005933215367666 -11.483403284644018 0 0 0
2908 171 2 0.1403 1.878845824148799 -19.815986250213143 -12.139345154395686 0 0 0
1933 110 2 0.0518 0.48837068455872507 -13.77632818120845 -15.791844773786046 1 0 0
1934 110 4 -0.0696 0.03925916111462932 -14.983112344891985 -14.189250740204754 1 0 0
1924 110 3 -0.0182 0.7682266594875817 -14.068865460695493 -14.745219759799257 1 0 0
1923 110 1 0.0266 1.4707076461746493 -13.038017775498075 -13.947349569042686 1 0 0
1935 110 2 0.0354 -0.6656172856088025 -15.482107725737158 -14.820189999514897 1 0 0
1936 110 2 0.0354 0.014111203920973316 -15.362604815589137 -13.133226404499299 1 0 0
2897 171 1 -0.129 2.7633383117916828 -19.568878032894983 -10.158978079359683 0 0 0
2698 158 2 0.1288 0.7605565350123861 -16.692115750440674 -9.934459102166253 1 0 0
1926 110 2 0.1237 0.7703882989464361 -13.802495221474262 -11.936652450499258 1 0 0
714 34 2 0.1288 7.603717894866004 -18.016056863663678 -12.32760707020349 0 0 0
713 34 1 -0.1134 7.172411533356002 -17.0561697808458 -12.119575546932644 0 0 0
805 40 1 -0.129 -0.7469245550292876 -18.64760924459254 -11.614212674239893 2 0 0
806 40 2 0.1237 0.2727725438578677 -18.071450363050655 -11.796877209709631 2 0 0
711 34 1 -0.1734 7.950548040477038 -15.870896287251309 -12.242307145099188 0 0 0
709 34 1 -0.129 7.401592430422731 -14.636959979121045 -11.876456144991641 0 0 0
710 34 2 0.1237 8.046654283363164 -13.716654605575819 -11.904103586632164 0 0 0
712 34 2 0.1403 8.996219487124046 -15.863136297907406 -12.534447774499041 0 0 0
707 34 1 0.0266 6.023311645659653 -14.681851922398304 -11.455479024414267 0 0 0
815 40 2 0.0354 -1.1571977832576008 -19.809676787409707 -15.834426187387624 2 0 0
803 40 1 0.0266 -1.3189870555657925 -18.999409981868563 -12.80713102367041 2 0 0
814 40 4 -0.0696 -0.5563737650526251 -19.75728796877824 -14.835990954700781 2 0 0
816 40 2 0.0354 0.1999501028610543 -20.478242119631425 -14.469931268820098 2 0 0
2892 170 2 0.1403 11.449822338334686 -16.038898856399744 -12.338161172618715 0 0 0
811 40 1 -0.1734 12.227340609336421 -19.79389996749782 -11.492530931463524 1 0 0
2891 170 1 -0.1734 11.849102011738339 -15.94715272084212 -11.383954624053885 0 0 0
1922 110 2 0.1237 2.0364951479587576 -12.206887003339693 -15.773624391960443 1 0 0
1929 110 1 -0.1134 2.977960939667346 -11.201744541301743 -12.508348822063486 1 0 0
1930 110 2 0.1288 3.619834257200753 -10.410409170339065 -12.061434728662645 1 0 0
1931 110 1 -0.1734 2.854846982135563 -11.138395739762421 -13.961389016417629 1 0 0
3223 191 1 -0.1734 5.281617389150364 -7.773881210289314 -14.634189762423945 0 0 0
3225 191 1 -0.1134 6.051683398484777 -8.586782585607919 -15.574006994243211 0 0 0
1921 110 1 -0.129 2.0429358406064773 -12.040150821121765 -14.657997707990472 1 0 0
1925 110 1 -0.129 1.454619697281611 -13.095608833594731 -12.501613323364884 1 0 0
1244 67 2 0.1403 -0.6100573886596794 -10.098414481547374 -15.403041182334082 2 0 0
1928 110 2 0.1403 2.3925282544639512 -12.193756990786085 -10.638181261752402 1 0 0
1927 110 1 -0.1734 2.2482934901102594 -12.162347673147513 -11.758690672650863 1 0 0
1242 67 2 0.1288 -1.6278215744774522 -8.60268777755464 -16.736523076424476 2 0 0
1241 67 1 -0.1134 -2.2128816661899817 -8.90177414229747 -15.840344312855368 2 0 0
1243 67 1 -0.1734 -1.5730435621582513 -9.8234161030077 -15.040881523361492 2 0 0
1239 67 1 -0.1734 12.04352497291275 -8.412990836992522 -15.670370130432131 1 0 0
3221 191 1 -0.129 5.27084482011081 -8.112739848419682 -13.313650194451514 0 0 0
2882 170 2 0.1237 -2.0297073048237535 -14.54365091254054 -11.908054989066883 1 0 0
398 14 4 -0.0696 0.6690277681978399 -9.836510585137159 -8.521934914705119 0 0 0
400 14 2 0.0354 1.3676215181009372 -9.04957626551147 -8.967864134032034 0 0 0
2884 170 3 -0.0182 -0.9580574425331054 -13.839724045007832 -9.528211493073103 1 0 0
2894 170 4 -0.0696 -1.6563058365989607 -12.643063001622103 -9.49136737753615 1 0 0
2893 170 2 0.0518 -0.04298341727740357 -13.95789894480596 -10.099066351035864 1 0 0
2883 170 1 0.0266 -1.9853487563695784 -14.941870413317902 -9.867490719636274 1 0 0
2895 170 2 0.0354 -1.3789286374398173 -11.833889859058344 -10.107301842053237 1 0 0
3227 191 1 -0.1734 7.004444605563431 -9.365859032675848 -14.991926029419432 0 0 0
3228 191 2 0.1403 7.737904619531427 -9.877073518214303 -15.593915737579293 0 0 0
685 32 2 0.0518 9.738340981115273 -12.388497873488738 -15.162123796866597 0 0 0
676 32 3 -0.0182 10.608061531887257 -12.897418839927573 -15.61996543401164 0 0 0
687 32 2 0.0354 11.559031124869177 -13.568065377304181 -13.863901063143588 0 0 0
686 32 4 -0.0696 11.62790744560491 -13.560429645215812 -14.941590663135864 0 0 0
688 32 2 0.0354 12.356323989041254 -14.154948945673404 -15.371261795475125 0 0 0
678 32 2 0.1237 8.866829910517628 -14.604039775724388 -14.40987768592057 0 0 0
720 34 2 0.0354 5.663038645486128 -13.677534544627468 -8.885092972135245 0 0 0
717 34 2 0.0518 4.8227282438033665 -13.020150153255203 -11.772836032117826 0 0 0
3229 191 2 0.0518 4.977525358952315 -9.578592359539945 -11.012631932890542 0 0 0
3218 191 2 0.1237 7.690204317085129 -10.32520216440968 -13.118487511704336 0 0 0
3217 191 1 -0.129 7.100135643273814 -9.545244922459114 -13.655177022758236 0 0 0
718 34 4 -0.0696 5.0058244228873665 -13.247945980043095 -9.72742287852718 0 0 0
719 34 2 0.0354 3.939331249184545 -13.21000390058195 -9.591873659254787 0 0 0
708 34 3 -0.0182 5.449658178306819 -13.277737617844233 -11.030961976174067 0 0 0
1234 67 2 0.1237 -2.01515260905104 -11.28183173218999 -13.553669315149483 2 0 0
3220 191 3 -0.0182 5.9874917823364235 -9.183898478492914 -11.302157905998577 0 0 0
1248 67 2 0.0354 12.278434641351215 -9.051453112138256 -11.54109093262409 1 0 0
1246 67 4 -0.0696 11.301033270745862 -9.495812377990717 -11.725884682369825 1 0 0
1247 67 2 0.0354 10.374025613920836 -9.016208624085186 -11.303869631736479 1 0 0
1236 67 3 -0.0182 11.10203967698468 -10.484979184076805 -12.569110112741894 1 0 0
1237 67 1 -0.129 11.292067901594166 -9.025669339365669 -14.741154798338112 1 0 0
1235 67 1 0.0266 11.849655763860524 -9.946344411903743 -13.81680202642856 1 0 0
1233 67 1 -0.129 13.107818220568406 -10.501923752974252 -14.181424319795791 1 0 0
1245 67 2 0.0518 10.034410769726309 -10.831453915940047 -12.806230931890491 1 0 0
3219 191 1 0.0266 6.2159248636791355 -8.922593775978028 -12.77717978208698 0 0 0
2896 170 2 0.0354 13.122097881140588 -12.472447186056892 -8.70924438491761 0 0 0
2881 170 1 -0.129 13.002558045442171 -15.211023695041442 -11.161134986450037 0 0 0
2111 121 2 0.0354 2.0766123430250962 -9.006747096408587 -10.52461646953922 1 0 0
3224 191 2 0.1403 4.551578314316421 -7.058609589308025 -15.031895611354413 0 0 0
1240 67 2 0.1403 11.68711945094886 -7.545550743050905 -16.378125588087872 1 0 0
2110 121 4 -0.0696 1.8974529329046892 -8.204891740917425 -11.292358933600912 1 0 0
2109 121 2 0.0518 0.19978113691631846 -8.75081651099489 -12.39732469741697 1 0 0
2100 121 3 -0.0182 0.9852392363273692 -8.053115841786033 -12.17785160098213 1 0 0
2112 121 2 0.0354 2.6740109270933234 -7.5558828784419 -10.98446501532259 1 0 0
2099 121 1 0.0266 0.9095539177124229 -6.718268042202763 -12.87991265984318 1 0 0
2101 121 1 -0.129 0.3696307894334267 -5.572471494181183 -12.328960618423306 1 0 0
2102 121 2 0.1237 -0.27567641008027827 -5.640229499294716 -11.337534627571545 1 0 0
1562 87 2 0.1288 5.9409314506376765 -4.5616316710659595 -13.044568314809528 1 0 0
1553 87 1 -0.129 4.053879271046222 -4.413778187758177 -10.490109120543835 1 0 0
1563 87 1 -0.1734 4.893848895520806 -4.865401912064221 -11.430909145852594 1 0 0
1561 87 1 -0.1134 5.097327160498005 -4.188028360722675 -12.60869441182732 1 0 0
399 14 2 0.0354 -0.35101056552330595 -9.747859746918154 -8.951552933828754 0 0 0
1564 87 2 0.1403 5.581506084462027 -5.650317326669749 -11.024796802256835 1 0 0
1554 87 2 0.1237 4.187509523203829 -4.774615187615461 -9.407190311692286 1 0 0
3222 191 2 0.1237 4.592757905051905 -7.595996465304463 -12.701732868129715 0 0 0
1559 87 1 -0.1734 4.2543813359676905 -3.119777371229443 -12.98319432004528 1 0 0
703 33 2 0.0354 -0.39535999396542043 -5.113226466197358 -9.373067768021102 0 0 0
1555 87 1 0.0266 3.2456535456363116 -3.314928673834547 -10.816182849338803 1 0 0
3230 191 4 -0.0696 6.926042316556208 -8.406599945798876 -10.593110168603838 0 0 0
3232 191 2 0.0354 7.9826531560732406 -8.278838260962765 -10.92606632266279 0 0 0
1238 67 2 0.1237 10.237140574440561 -8.807466921756873 -14.66748014066226 1 0 0
3231 191 2 0.0354 6.627831303714228 -8.202699035008406 -9.49466717589367 0 0 0
3391 201 2 0.0354 12.170527192968676 -6.499799011082134 -4.402413133574097 1 0 0
2416 140 2 0.0354 10.568189937266414 -2.080999818294326 -17.194662486091786 -1 0 0
2406 140 2 0.1237 9.168487427781606 -3.2206280452217975 -16.528019985497554 -1 0 0
2405 140 1 -0.129 9.30176732195271 -3.976901202085205 -15.74309283957659 -1 0 0
2408 140 2 0.1403 7.77984817615147 -5.246984354070981 -16.350856755932742 -1 0 0
2301 133 2 0.0518 5.612819118698871 -3.5333282836303055 -17.40450099185748 1 0 0
2407 140 1 -0.1734 8.55593085929372 -5.111861388765838 -15.592905070291822 -1 0 0
2409 140 1 -0.1134 8.808652046453217 -6.007686549773883 -14.530021838184444 -1 0 0
2410 140 2 0.1288 8.210327587205006 -6.963464186823671 -14.393791072909641 -1 0 0
2403 140 1 0.0266 10.623070589819022 -3.8622385265005303 -15.112160513671052 -1 0 0
2401 140 1 -0.129 10.831107215330945 -4.88471857988026 -14.081002893171547 -1 0 0
2412 140 2 0.1403 10.260705255721074 -6.602018345969803 -13.071474362096478 -1 0 0
2411 140 1 -0.1734 9.968672098306962 -5.916760633479936 -13.806041271719593 -1 0 0
2402 140 2 0.1237 11.82267005672123 -4.908124221949997 -13.511421715424929 -1 0 0
2674 157 2 0.1237 12.505510215835809 -2.7704558653972584 -11.237434078129802 -1 0 0
1082 57 2 0.1288 7.105625626521935 -1.862089228554804 -14.49397924001364 0 0 0
1081 57 1 -0.1134 7.810133653332863 -1.61459298928949 -13.666966810779833 0 0 0
1080 57 2 0.1403 7.721338575970927 -3.502921733936832 -12.752920546765559 0 0 0
1079 57 1 -0.1734 8.10507149355632 -2.529978508978279 -12.599635752761026 0 0 0
2684 157 2 0.1403 -1.8231852167490055 -3.5260180951459255 -9.212772840467638 0 0 0
2290 133 2 0.1237 2.9156837432906277 -3.717963008045375 -16.480296654161524 1 0 0
2104 121 2 0.1403 0.03555441428247876 -3.5252454354969505 -12.483751162163294 1 0 0
2103 121 1 -0.1734 0.4414238390482606 -4.365004329086692 -12.997964041884394 1 0 0
1560 87 2 0.1403 4.400437984418629 -2.5895572453841726 -13.95593238323612 1 0 0
1557 87 1 -0.129 3.361289236763653 -2.789361866641934 -12.051539358985078 1 0 0
1558 87 2 0.1237 2.710417181086801 -1.9803594938891498 -12.284094502176588 1 0 0
1945 111 1 -0.1134 5.314544107541467 3.171701934628874 -12.516732949118145 1 0 0
1943 111 1 -0.1734 4.042432394977731 3.484201620202958 -12.660459900019719 1 0 0
2679 157 1 -0.1734 -0.6715263373163124 -0.33247191964115413 -9.212893486471163 0 0 0
2681 157 1 -0.1134 -0.9500533529793513 -1.5954904374244974 -8.7017289401362 0 0 0
2677 157 1 -0.129 -1.25628103672854 0.012955609920337804 -10.466431995376409 0 0 0
2678 157 2 0.1237 -1.1069047404594534 0.9736036197517195 -10.84629596652594 0 0 0
1941 111 1 -0.129 2.9562137381498 2.8710336012714994 -12.056973203123256 1 0 0
1946 111 2 0.1288 6.0941589459728895 3.7628957006763883 -13.017809955792499 1 0 0
2683 157 1 -0.1734 -1.6845485612608535 -2.4654739768822123 -9.576575692130678 0 0 0
2685 157 2 0.0518 -2.070445803978682 -0.7260417193776891 -13.40718832111413 0 0 0
2675 157 1 0.0266 -2.1657016468233357 -0.8215413709345757 -11.211404820326399 0 0 0
1944 111 2 0.1403 3.7882926217449917 4.32848400821169 -13.308953013202768 1 0 0
1947 111 1 -0.1734 5.666830413200404 2.2355809930683503 -11.523497018057677 1 0 0
1084 57 2 0.1403 7.675163945598448 0.19655746888026884 -14.444406666441845 0 0 0
1948 111 2 0.1403 6.71899644723732 1.9018532752484703 -11.33427873322363 1 0 0
1937 111 1 -0.129 4.649786491677698 1.6677117831725852 -10.834214867258838 1 0 0
1939 111 1 0.0266 3.2728506281067853 1.8732729409912583 -11.091207379886539 1 0 0
1938 111 2 0.1237 4.844159303427082 0.7648751621994784 -10.15780389734691 1 0 0
2141 123 2 0.0518 -0.7188557972509132 4.8959895449881 -10.363457465585702 0 0 0
2303 133 2 0.0354 6.65016556233132 -1.3555501967436299 -16.57691206994322 1 0 0
2292 133 3 -0.0182 5.109550420890784 -2.5413044165023146 -17.454596520997203 1 0 0
2302 133 4 -0.0696 5.648686010678603 -1.452926492119796 -17.03122565081661 1 0 0
2304 133 2 0.0354 5.080919253790719 -0.424881091222717 -17.15656679674584 1 0 0
2179 126 1 0.0266 10.230797042458402 2.9365727467694946 -15.767087634651087 -1 0 0
2192 126 2 0.0354 9.94512331849125 3.251602002747859 -13.24301057592836 -1 0 0
2673 157 1 -0.129 13.20957661813886 -2.0786584684207035 -10.792973957639514 -1 0 0
2189 126 2 0.0518 8.566681867085842 4.1272237293251886 -15.745353693030987 -1 0 0
2687 157 2 0.0354 12.728015176256676 1.4799834662408589 -13.495287474235747 -1 0 0
1083 57 1 -0.1734 8.174489659608053 -0.31431213701114025 -13.619547826748052 0 0 0
1075 57 1 0.0266 9.10095584669318 -0.6650926864241276 -11.395819084540674 0 0 0
1077 57 1 -0.129 8.712510846308884 -1.9901274723381026 -11.46557474488664 0 0 0
2676 157 3 -0.0182 12.80365650752134 -0.37141055289480907 -12.596647154221658 -1 0 0
2686 157 4 -0.0696 12.326440640819458 0.8802177393424332 -12.64497335323103 -1 0 0
2688 157 2 0.0354 11.965280918979312 1.456709312488347 -11.798308399723167 -1 0 0
1073 57 1 -0.129 8.882851240140218 0.23025712794746153 -12.48817577836716 0 0 0
1078 57 2 0.1237 9.1328189789696 -2.703323098283252 -10.78014689444272 0 0 0
2190 126 4 -0.0696 9.473236600534419 3.913394440123951 -13.992200543213674 -1 0 0
2191 126 2 0.0354 9.426961009813818 5.011092669262738 -13.684984407819492 -1 0 0
2180 126 3 -0.0182 9.02745011231057 3.4119900566427614 -15.128881339683561 -1 0 0
1086 57 4 -0.0696 10.236364574356903 -0.9726179957167072 -9.176093740969474 0 0 0
1088 57 2 0.0354 10.764163330130074 -1.8374875149986711 -9.544321231470779 0 0 0
1087 57 2 0.0354 10.259908103356397 -0.928659446354501 -8.114315599310503 0 0 0
1795 102 1 0.0266 -1.924020126105806 7.159893622834341 -14.238378851608452 1 0 0
1942 111 2 0.1237 1.882895077059181 3.0984098943910907 -12.268836943633572 1 0 0
320 9 2 0.0354 3.9183187570698883 6.86839823109327 -11.461782715369877 0 0 0
318 9 4 -0.0696 3.17547652562207 6.928091354431912 -12.189190984738605 0 0 0
308 9 3 -0.0182 3.527833972666101 7.275518681868201 -13.44271451996795 0 0 0
319 9 2 0.0354 2.214219847603994 6.57106836741928 -11.902113759520612 0 0 0
1800 102 2 0.1403 1.1044144380536027 7.362422864744705 -15.608368054542408 1 0 0
1799 102 1 -0.1734 0.38597761571142863 6.981056814150623 -14.92448318106866 1 0 0
1797 102 1 -0.129 -0.8479336470069678 7.595577964737594 -14.974157768309523 1 0 0
317 9 2 0.0518 3.1287196143575993 7.014417794247971 -14.360562502042452 0 0 0
1798 102 2 0.1237 -0.8749644259701722 8.659139022760561 -15.386851585453572 1 0 0
2134 123 2 0.1237 0.4757339828900355 6.656774021528605 -9.338510234247245 0 0 0
1952 111 2 0.0354 2.675039676137087 2.570504899767046 -8.676146525666342 1 0 0
2136 123 2 0.1403 0.5868015524723997 8.182101629979172 -7.474224979976783 0 0 0
2133 123 1 -0.129 -0.26045257486396517 6.514642380497486 -8.505727441741145 0 0 0
2135 123 1 -0.1734 -0.15207176668801686 7.363024457723803 -7.432583059392791 0 0 0
2137 123 1 -0.1134 -0.8650460999593639 7.19383254651998 -6.214701900907409 0 0 0
2131 123 1 0.0266 -1.2269368483441592 5.476109104548354 -8.389519209165535 0 0 0
1581 88 2 0.0518 4.96388081237783 9.86330888612881 -17.046380580164875 0 0 0
1949 111 2 0.0518 1.345275366020441 0.8189304021409382 -10.763691154790006 1 0 0
1951 111 2 0.0354 0.8586971380083895 2.3703908369549747 -9.006456948281855 1 0 0
1950 111 4 -0.0696 1.9107028138413846 2.1000961717437217 -9.218721629021404 1 0 0
1940 111 3 -0.0182 2.192257144672081 1.2801403913231062 -10.21805990193888 1 0 0
2178 126 2 0.1237 10.575799974891972 4.844516340917509 -16.812480083120505 -1 0 0
1807 102 2 0.0354 10.96298188755569 7.738886511631428 -15.7955727453359 0 0 0
1796 102 3 -0.0182 12.25541555006892 7.8287060751352895 -14.128950749362984 0 0 0
1808 102 2 0.0354 11.087515728132663 6.141412892693581 -14.730790512091087 0 0 0
1806 102 4 -0.0696 11.293112756671036 7.197145273343121 -14.82240164933335 0 0 0
316 9 2 0.1403 7.484436007835725 9.460206615371021 -11.792581778661537 0 0 0
2143 123 2 0.0354 12.633032553908452 3.8997856654360827 -11.07659045402302 -1 0 0
2144 123 2 0.0354 12.308110619239637 3.9167366854239543 -9.131423743598528 -1 0 0
306 9 2 0.1237 5.074385214836557 9.449298941241775 -12.189385006331294 0 0 0
307 9 1 0.0266 4.971011188545837 7.540023120911967 -13.459494194836516 0 0 0
305 9 1 -0.129 5.5317755307342855 8.594202781083203 -12.63915536611406 0 0 0
309 9 1 -0.129 5.8483892761542915 6.811237021921132 -14.267355185836529 0 0 0
310 9 2 0.1237 5.579168830638519 6.218514619566444 -15.139462344711983 0 0 0
315 9 1 -0.1734 6.962797108214465 8.705320827679817 -12.535745090936985 0 0 0
314 9 2 0.1288 8.866959264595959 7.719429441190272 -13.085209643203719 0 0 0
313 9 1 -0.1134 7.767927598471605 7.821523771478613 -13.183405267092002 0 0 0
312 9 2 0.1403 8.015400445178528 6.479477759774609 -14.612416476031706 0 0 0
311 9 1 -0.1734 7.194825559260101 6.918156898656973 -14.025181144444984 0 0 0
2142 123 4 -0.0696 12.965787324451846 4.129650354118749 -10.033765968162772 -1 0 0
2132 123 3 -0.0182 -1.4130898595376964 4.595705804998989 -9.596705203817589 0 0 0
1010 53 2 0.1237 11.832542168310168 8.148869247473622 -10.072407172092879 1 0 0
1020 53 2 0.1403 9.549548108672381 9.137153995309818 -10.798110824920013 1 0 0
1576 88 2 0.1403 0.23618336023807163 10.841981904716052 -15.743920775867336 0 0 0
1575 88 1 -0.1734 1.24203084093198 10.655510912117837 -15.366919255322635 0 0 0
1577 88 1 -0.1134 1.3347951197712251 10.752403726152997 -13.983630058295963 0 0 0
1578 88 2 0.1288 0.5477889695850363 10.532767198312088 -13.23460592617609 0 0 0
1580 88 2 0.1403 2.870492928691859 10.857240286599707 -12.258072288486774 0 0 0
1579 88 1 -0.1734 2.6533707217886957 10.848235800738818 -13.436362950812134 0 0 0
1569 88 1 -0.129 3.820361991203419 10.987446206329937 -14.299107061538015 0 0 0
1570 88 2 0.1237 4.781886102676954 11.09966841461595 -13.77212681942046 0 0 0
1573 88 1 -0.129 2.391628826281927 10.52258899493607 -16.12131586888013 0 0 0
1571 88 1 0.0266 3.6862074971123566 10.812242567646697 -15.71131528675202 0 0 0
2267 131 1 -0.1734 2.4793125535767633 13.113353022102354 -10.229408522174007 0 0 0
2271 131 2 0.0354 2.696455766787664 7.457645341929416 -9.45964144428096 0 0 0
1023 53 2 0.0354 -1.176217587136049 7.625573619574828 -11.20471436437167 2 0 0
1024 53 2 0.0354 -0.9970458238671519 9.053547162723232 -12.279743245540244 2 0 0
1022 53 4 -0.0696 -1.0884208574962586 8.760782035160696 -11.266293680168808 2 0 0
2258 131 2 0.1237 3.910445341460246 11.580445227464882 -10.26049398335933 0 0 0
2257 131 1 -0.129 2.9359593606913976 11.824200909307987 -9.949274950961057 0 0 0
2272 131 2 0.0354 3.660484069015199 8.77891725812965 -10.352465904478715 0 0 0
2270 131 4 -0.0696 3.0243012708568053 8.588736337644951 -9.491057058050448 0 0 0
2259 131 1 0.0266 2.3029124710751665 10.951049855899472 -9.114928623592721 0 0 0
2260 131 3 -0.0182 2.8760052807538994 9.580077952404109 -8.60557883904664 0 0 0
2269 131 2 0.0518 2.2844358511359575 9.436979815766506 -7.711099435078202 0 0 0
3332 198 3 -0.0182 -0.592574802614619 15.27517005111925 -12.709624113380228 1 -1 0
1012 53 3 -0.0182 -1.364595201049195 9.42771230164874 -10.127089543460087 2 0 0
2664 156 2 0.1403 -2.07940184035976 11.485646145241303 -15.84185998879045 1 0 0
2663 156 1 -0.1734 12.569538226713028 12.097756399535292 -15.979163762549252 0 0 0
2672 156 2 0.0354 9.052138903602385 10.519548509159575 -14.907630971774262 0 0 0
1018 53 2 0.1288 9.229482092953692 11.364824587543861 -11.452115306059582 1 0 0
1017 53 1 -0.1134 10.270635784686267 11.046565209674457 -11.353361758300116 1 0 0
1019 53 1 -0.1734 10.49447360602432 9.754295786196888 -10.939697961072023 1 0 0
1016 53 2 0.1403 11.262908394708155 12.973170867149129 -11.33210125113618 1 0 0
1015 53 1 -0.1734 11.316716951141574 11.939863318071891 -11.092663844547339 1 0 0
2659 156 1 0.0266 10.470616136948287 12.767952604077875 -14.978493736868614 0 0 0
2669 156 2 0.0518 8.840933137848515 13.281081509638286 -13.585739427358565 0 0 0
2660 156 3 -0.0182 9.28242744827766 12.41428848936411 -14.11775219906051 0 0 0
2661 156 1 -0.129 11.490181942367673 11.81596605660769 -15.092903142789208 0 0 0
2662 156 2 0.1237 11.430253282571485 10.937831776497456 -14.440896505603963 0 0 0
2670 156 4 -0.0696 8.561078746080245 11.390875744811378 -14.579094025467377 0 0 0
2671 156 2 0.0354 7.530901792240895 11.248765353706863 -14.563471311282765 0 0 0
3341 198 2 0.0518 -0.5006926992976238 15.951006873455137 -13.523596112039582 1 -1 0
1162 62 2 0.1288 6.480432080639881 13.949679401298106 -11.321109380756374 1 0 0
1009 53 1 -0.129 11.69120106666108 9.222540437154278 -10.468879961152151 1 0 0
1011 53 1 0.0266 12.763465244740104 10.108356915512116 -10.376547883790995 1 0 0
1013 53 1 -0.129 12.574167563263869 11.421223844193568 -10.664950066092285 1 0 0
1014 53 2 0.1237 -2.0954324177669053 12.064736063780604 -10.519689157019533 2 0 0
655 30 2 0.0354 2.0130234071746176 15.697513410753386 -10.738796122168683 1 0 0
2268 131 2 0.1403 3.1394773950584915 13.795482972148664 -10.703360835201996 0 0 0
656 30 2 0.0354 2.018727650263868 16.16475163674468 -12.56144623570207 1 0 0
642 30 2 0.1237 2.4625525972752693 19.569872768908095 -13.582997644862155 1 0 0
653 30 2 0.0518 3.1519296596004307 18.024810531094893 -10.431135240672145 1 0 0
644 30 3 -0.0182 2.742875153654918 17.6363032721228 -11.345296016203731 1 0 0
654 30 4 -0.0696 2.3067897633442938 16.358289020702575 -11.491168550939323 1 0 0
646 30 2 0.1237 0.49638968363663216 17.8542855169357 -10.169425224750533 1 0 0
647 30 1 -0.1734 -0.5495432887862042 19.420310360759323 -11.233940531846217 1 0 0
645 30 1 -0.129 0.5515915416634645 18.579753837834716 -11.013324485063348 1 0 0
641 30 1 -0.129 1.655127928600496 19.423806276144603 -12.882072097554461 1 0 0
643 30 1 0.0266 1.6044089176717595 18.490512647669433 -11.82553271636285 1 0 0
1160 62 2 0.1403 6.7955336086059726 16.264113842506127 -10.93171753198472 1 0 0
649 30 1 -0.1134 -0.5697545519245439 20.23542151313526 -12.364915893527591 1 0 0
651 30 1 -0.1734 0.5589955655011382 20.18761019715728 -13.184239417128438 1 0 0
652 30 2 0.1403 0.6268145016256653 20.792602133265582 -14.102370899373414 1 0 0
3334 198 2 0.1237 -0.5470512099180687 15.983472734705142 -10.106515599129981 1 -1 0
3344 198 2 0.0354 -0.7912558847050739 13.113323075606761 -12.165792346683409 1 -1 0
3342 198 4 -0.0696 -0.22092131092637862 13.973721234761715 -12.73865044263142 1 -1 0
3343 198 2 0.0354 0.28283408579324415 13.620239094421365 -13.642716301420702 1 -1 0
2031 116 2 0.0354 9.71377530369405 18.971099690857987 -13.300757111169736 0 0 0
1158 62 2 0.1237 7.8067945212683 17.628625033678745 -13.005462421893066 1 0 0
2018 116 2 0.1237 -1.7935149165617812 18.373909983904525 -15.86052410055404 1 0 0
2030 116 4 -0.0696 10.702831037895793 18.584362363498276 -13.832601677237866 0 0 0
1157 62 1 -0.129 7.210177884178294 16.64770647431578 -13.109595534419727 1 0 0
3330 198 2 0.1237 12.145170216805155 15.266794439252934 -13.306570807547862 0 -1 0
3331 198 1 0.0266 -1.8595136735529336 15.57065856102718 -11.748581941350071 1 -1 0
3340 198 2 0.1403 10.25826283350795 15.892041977314978 -11.84217912320142 0 -1 0
3329 198 1 -0.129 12.341049423470787 15.564258558603056 -12.314366236771678 0 -1 0
3339 198 1 -0.1734 11.268476548904781 15.880319615625282 -11.518867079887793 0 -1 0
1159 62 1 -0.1734 6.817768344479241 15.89870530507901 -11.949698025850566 1 0 0
650 30 2 0.1288 -1.2787900897687818 21.013781791762387 -12.54641956601839 1 0 0
2032 116 2 0.0354 10.790213512361271 17.511303385729445 -13.79926152246665 0 0 0
1161 62 1 -0.1134 6.562168953529389 14.495518325386687 -12.244696020276184 1 0 0
1302 71 2 0.1237 8.410041090262832 19.48156403344323 -12.02974922500788 1 -1 0
1300 71 3 -0.0182 8.473645962339873 22.312292936338682 -11.944816333904829 1 -1 0
1299 71 1 0.0266 8.758198939680417 21.25543382604748 -10.792031327956183 1 -1 0
1301 71 1 -0.129 8.763946129033746 19.876911885515785 -11.077677830740035 1 -1 0
1310 71 4 -0.0696 9.02206749765722 21.996861615237176 -13.099892219692256 1 -1 0
3335 198 1 -0.1734 12.791810213617705 16.159956453114553 -9.650118382750586 0 -1 0
3337 198 1 -0.1134 11.498845498325158 16.155584326104446 -10.186377940196403 0 -1 0
3333 198 1 -0.129 -1.620170290032617 15.9856047386897 -10.415913980079004 1 -1 0
1312 71 2 0.0354 8.656100600759537 21.184501898041002 -13.721842159735138 1 -1 0
1303 71 1 -0.1734 8.938745303788917 18.942721491080373 -10.074178626632989 1 -1 0
1304 71 2 0.1403 9.029353609818545 17.864050164231454 -10.427878275119927 1 -1 0
1311 71 2 0.0354 9.812112142894712 22.56778685229973 -13.548693262930342 1 -1 0
621 28 2 0.0518 -0.46029421898898043 24.70685969204921 -9.66908290565286 1 0 0
2037 117 1 -0.129 2.717395511830789 22.55035133433933 -11.84697253305466 0 -1 0
2040 117 2 0.1403 1.9284472272510045 21.28786116391309 -10.14504860228117 0 -1 0
2038 117 2 0.1237 1.707538137000188 22.89135087354544 -12.182660398390212 0 -1 0
2039 117 1 -0.1734 2.7768446877889805 21.761376453844296 -10.677785221899667 0 -1 0
2042 117 2 0.1288 4.1746539151282285 20.90703382594835 -9.342397267674874 0 -1 0
622 28 4 -0.0696 0.6615016954263457 25.333321279894513 -11.527570891840648 1 0 0
610 28 2 0.1237 -1.6838379577237181 -25.62177487406967 -12.271380932273951 1 1 0
614 28 2 0.1237 -2.038425873820619 22.643266463258712 -10.822973408077443 1 0 0
2041 117 1 -0.1134 4.0569006486625465 21.48984438150186 -10.178211761572124 0 -1 0
2035 117 1 0.0266 3.8303453695883296 22.924600513236335 -12.627093387869381 0 -1 0
2036 117 3 -0.0182 3.671695181611028 23.74242417297037 -13.888711157267807 0 -1 0
2043 117 1 -0.1734 5.187323238692518 22.12210112878884 -10.812690460514878 0 -1 0
2044 117 2 0.1403 6.177206551134435 21.792618028080025 -10.567025051649383 0 -1 0
2033 117 1 -0.129 5.087902918818318 22.698553893163414 -12.0434013745435 0 -1 0
612 28 3 -0.0182 -0.45867074839567357 24.92209851123261 -10.809544698446887 1 0 0
611 28 1 0.0266 -1.7374459039218417 24.70643567195269 -11.49950681290139 1 0 0
3055 180 2 0.0354 5.556431280673687 -25.21088104171851 -15.31662826829061 0 1 0
3054 180 4 -0.0696 5.956921337653793 -25.096565823772114 -14.368996582534649 0 1 0
3056 180 2 0.0354 6.949426885311158 -24.764949075361585 -14.433615673976751 0 1 0
609 28 1 -0.129 -2.2962627626812453 25.785076524962975 -12.165003952413143 1 0 0
613 28 1 -0.129 13.044227431619984 23.587357560317333 -11.358759491250098 0 0 0
615 28 1 -0.1734 11.73706763426098 23.461823429202916 -11.871533065519905 0 0 0
2048 117 2 0.0354 3.6035802997096855 21.80432551396624 -14.714871185763803 0 -1 0
2046 117 4 -0.0696 4.008822352106036 22.870258978403438 -14.800494716168505 0 -1 0
2034 117 2 0.1237 5.995986188081812 23.05232538346562 -12.631404659968286 0 -1 0
620 28 2 0.1403 11.6945179651213 -25.903205707932777 -13.477506397884092 0 1 0
619 28 1 -0.1734 11.950871063200134 25.686874117008184 -12.768397598289436 0 0 0
1309 71 2 0.0518 8.845036002503845 23.229625702189946 -11.445090891534305 1 -1 0
3048 180 2 0.1403 6.126051630461024 24.86818565110237 -9.073028906183476 0 0 0
3046 180 2 0.1237 4.602803544135785 25.44698035879343 -10.943823415609115 0 0 0
3050 180 2 0.1288 8.159671226508769 25.50678197717576 -8.962242731815474 0 0 0
3049 180 1 -0.1134 7.784003297092509 25.59011817733808 -9.977716362844241 0 0 0
3051 180 1 -0.1734 8.362604612296034 -26.065155077478927 -11.009361591502993 0 1 0
3043 180 1 0.0266 6.148314351174281 -25.74579405104696 -12.138232448758075 0 1 0
3047 180 1 -0.1734 6.448221552335604 25.295977950049778 -10.023939108222054 0 0 0
3045 180 1 -0.129 5.681163884644872 25.761601978788924 -11.05355126738457 0 0 0
617 28 1 -0.1134 11.234414766685703 24.51141015965876 -12.645795721765056 0 0 0
618 28 2 0.1288 10.30912290587656 24.482060383830216 -13.204132861803872 0 0 0
3082 182 2 0.1288 -0.5823842015141563 -24.585050551425486 -6.793421111776179 0 0 0
415 15 2 0.0354 6.390098737713346 -24.04619442088341 -8.998800343561177 0 0 0
410 15 2 0.1288 0.905867320613916 -23.11577537297632 -4.957967432651797 0 0 0
2244 130 3 -0.0182 6.689274664242373 -21.966119316315336 -2.413487833239778 0 1 0
2254 130 4 -0.0696 5.847628505243349 -22.941178405256338 -2.61675660539131 0 1 0
409 15 1 -0.1134 1.6975072437936949 -23.258448974898783 -5.669995330239291 0 0 0
408 15 2 0.1403 3.343591297557089 -23.98004236630708 -4.286890989109852 0 0 0
407 15 1 -0.1734 2.895978289029201 -23.932598652950645 -5.356556197215807 0 0 0
2256 130 2 0.0354 6.30779938460565 -23.89273345300819 -2.9489152210093525 0 1 0
411 15 1 -0.1734 1.490567828024574 -22.746457317287458 -6.906061068325957 0 0 0
401 15 1 -0.129 2.3434526136455327 -23.058879581814924 -8.004047527506627 0 0 0
2242 130 2 0.1237 5.56293574223515 -20.86582686122264 -4.927350957928244 0 1 0
405 15 1 -0.129 3.5844854379833127 -24.390683472184925 -6.479205270291475 0 0 0
414 15 4 -0.0696 5.303918332731283 -23.75563153399166 -9.020569870798925 0 0 0
416 15 2 0.0354 5.169592745721678 -22.684743717985125 -8.76417808521553 0 0 0
403 15 1 0.0266 3.3948641138276128 -24.003371581529592 -7.8395505907081295 0 0 0
404 15 3 -0.0182 4.179226415013356 -24.493606504772313 -8.960508359674359 0 0 0
2253 130 2 0.0518 6.396823847181614 -21.037200946430772 -1.8841039342800896 0 1 0
412 15 2 0.1403 0.5986847598743497 -22.092571755086674 -7.002046287838128 0 0 0
2255 130 2 0.0354 4.783408522485827 -22.962638629820795 -2.3518178225672046 0 1 0
402 15 2 0.1237 2.2142884675930796 -22.56045147309001 -8.996543322231162 0 0 0
2911 171 2 0.0354 3.90130803665322 -19.45139179376167 -6.139824107553685 0 0 0
2910 171 4 -0.0696 3.5191003991379137 -19.424706042242075 -7.12900925433571 0 0 0
2912 171 2 0.0354 2.5431080036898854 -19.877813103725288 -7.12848975339339 0 0 0
812 40 2 0.1403 11.259725475537033 -20.368775749543563 -11.639949068589495 1 0 0
406 15 2 0.1237 4.431139258415604 -25.0223279464121 -6.16546080494619 0 0 0
413 15 2 0.0518 4.285392027540377 -25.529139060718336 -8.955006931911269 0 0 0
2243 130 1 0.0266 7.3257079109148 -21.605638198206083 -3.7265051153373765 0 1 0
3078 182 2 0.1237 12.0620197937762 -25.772861573685287 -9.784935249906816 -1 0 0
3077 182 1 -0.129 12.390275529676499 -25.0870361746073 -8.986736818989366 -1 0 0
3081 182 1 -0.1134 -1.5565751813417095 -24.40746585488011 -7.2660789533504655 0 0 0
3079 182 1 -0.1734 -1.9653409782808482 -25.35042150790764 -8.27083915356492 0 0 0
2241 130 1 -0.129 6.646409176367522 -21.046987250767334 -4.923828799313742 0 1 0
3076 182 3 -0.0182 10.343306642360309 -23.734755316322566 -9.424652741529739 -1 0 0
3074 182 2 0.1237 11.553973739538643 -21.980477699835394 -7.529420608944669 -1 0 0
3075 182 1 0.0266 11.630088147953657 -23.934034844412537 -8.633540896833866 -1 0 0
3073 182 1 -0.129 12.033985691516405 -23.024942623420827 -7.67704390078435 -1 0 0
3084 182 2 0.1403 -1.9495398504675945 -22.682346695019262 -6.093372513241274 0 0 0
3083 182 1 -0.1734 13.200321652835692 -23.327123597036984 -6.854799422209451 -1 0 0
2431 141 2 0.0354 11.23355509446898 -25.202455329040887 -4.206301193731004 0 0 0
2430 141 4 -0.0696 11.580818926964517 -24.352704503811157 -3.6030233101526923 0 0 0
3279 194 2 0.0354 8.14751683768941 -19.46321126707143 -8.965391991918471 -1 0 0
2432 141 2 0.0354 11.506695170709353 -23.430313014473597 -4.144052452013343 0 0 0
2422 141 2 0.1237 -1.4963568215152099 -22.8449358714254 -1.616701773594777 1 0 0
2251 130 1 -0.1734 7.453548496473486 -20.668477828564903 -6.042931827476757 0 1 0
862 43 4 -0.0696 9.179692086307439 -24.563242353813457 -6.253266896718273 0 1 0
864 43 2 0.0354 9.829417203454522 -24.906670735830055 -5.410652782647658 0 1 0
3085 182 2 0.0518 9.699771885838963 -24.478927697383764 -8.881433424991613 -1 0 0
863 43 2 0.0354 9.507804104569132 -23.824775313085805 -6.996703491059398 0 1 0
2696 158 2 0.1403 2.404170324635276 -15.136882036677076 -10.188699097052133 1 0 0
2898 171 2 0.1237 1.9837550020758312 -18.848876595104223 -9.798052539136352 0 0 0
2899 171 1 0.0266 3.9318084535783635 -19.77369026886394 -9.34058702464083 0 0 0
2900 171 3 -0.0182 4.182520122795471 -18.962791024253935 -8.157475341314827 0 0 0
2909 171 2 0.0518 5.112653681795365 -18.36992698158976 -8.1221404215394 0 0 0
2694 158 2 0.1237 3.73389183236787 -14.333633613364073 -8.007155455916042 1 0 0
2693 158 1 -0.129 3.0353160375618637 -15.124325171670435 -8.057795555724647 1 0 0
2695 158 1 -0.1734 2.2925029556039145 -15.511849871746199 -9.20600279369388 1 0 0
2702 158 4 -0.0696 3.934170699225864 -16.20405934950447 -4.924827048323929 1 0 0
2691 158 1 0.0266 2.6190603052534893 -15.585959403639432 -6.827761196952347 1 0 0
2689 158 1 -0.129 1.5096208421428472 -16.48696128722268 -6.7118906014574495 1 0 0
2697 158 1 -0.1134 1.2137206196248627 -16.386141137165296 -9.062392312419004 1 0 0
2699 158 1 -0.1734 0.857242070120965 -16.934216663545648 -7.843999916968491 1 0 0
2704 158 2 0.0354 3.605033053154525 -17.182656101549757 -5.0158702737039285 1 0 0
3270 194 2 0.1237 7.075100737216234 -18.212985705732084 -6.512224768118396 -1 0 0
2472 144 2 0.1403 -1.6701451397177065 -21.4968069430392 -4.570773502026842 1 0 0
2473 144 1 -0.1134 -0.3949710230614365 -19.901291050324012 -4.160874325188056 1 0 0
2471 144 1 -0.1734 -1.5665493921114255 -20.43697238594697 -4.622080391861483 1 0 0
2475 144 1 -0.1734 -0.1198703586036267 -18.53528640718305 -3.9583140123221248 1 0 0
2476 144 2 0.1403 0.8329833748355463 -18.262446332991185 -3.4455483532825006 1 0 0
2700 158 2 0.1403 0.04057878321274287 -17.581242375885644 -7.655499269470886 1 0 0
3266 194 2 0.1237 7.9468374795993775 -14.572963406709357 -8.863798876990346 -1 0 0
3280 194 2 0.0354 9.398635377283439 -18.471473153364954 -7.98733134651608 -1 0 0
808 40 2 0.1403 -1.0470687880352967 -18.655624754028164 -9.34815681232519 2 0 0
3278 194 4 -0.0696 8.528828373280312 -18.50289642062943 -8.632658971109118 -1 0 0
3277 194 2 0.0518 6.823099900352891 -17.368551693512273 -9.299829745585455 -1 0 0
3274 194 2 0.1288 6.982946085436851 -13.99691897756635 -4.721428933377177 -1 0 0
3272 194 2 0.1403 6.899505427408258 -16.85322349870353 -4.403519899759889 -1 0 0
3271 194 1 -0.1734 7.1867676484595435 -16.260339493836835 -5.305067062766016 -1 0 0
3269 194 1 -0.129 7.229269408302173 -17.041139575789046 -6.456054759127839 -1 0 0
3273 194 1 -0.1134 7.210588966382106 -14.805821994806045 -5.43336596953603 -1 0 0
3267 194 1 0.0266 7.605831333333671 -16.58319393215331 -7.700846386527244 -1 0 0
3276 194 2 0.1403 7.51157966524023 -13.280122881718487 -6.949952264188436 -1 0 0
3275 194 1 -0.1734 7.519409463642373 -14.360326065100429 -6.718144912195343 -1 0 0
3265 194 1 -0.129 7.77407767334733 -15.18066405986698 -7.845493553703794 -1 0 0
809 40 1 -0.1134 12.87659557900387 -19.41973238080822 -10.329480585903475 1 0 0
810 40 2 0.1288 12.378178171012538 -19.66580949946624 -9.380775193374078 1 0 0
3268 194 3 -0.0182 7.792906044714326 -17.40782607574617 -8.86406514342074 -1 0 0
807 40 1 -0.1734 -1.3531051679397792 -18.932861404404505 -10.415743410741914 2 0 0
2252 130 2 0.1403 7.006331384282014 -20.162219131305438 -6.958232698382533 0 1 0
2465 144 1 -0.129 -1.1680626665392444 -17.61856782070548 -4.352928638019522 1 0 0
2466 144 2 0.1237 -0.8805550130233779 -16.504899257606823 -4.62035137305083 1 0 0
2890 170 2 0.1288 10.196784769567076 -16.964164007493093 -10.297502968203458 0 0 0
2467 144 1 0.0266 13.183151512259945 -18.153541065994666 -4.869448550063114 0 0 0
2477 144 2 0.0518 12.231840862971774 -16.206843830196046 -5.695446817101019 0 0 0
2478 144 4 -0.0696 10.79408732998444 -17.815583635247314 -5.351109164074032 0 0 0
2479 144 2 0.0354 9.826135900403072 -17.421191347714906 -5.84201578578365 0 0 0
2469 144 1 -0.129 13.01785522396081 -19.52498787836253 -5.045342942275787 0 0 0
2470 144 2 0.1237 12.08982372983186 -20.06792292372595 -5.356221190539719 0 0 0
2468 144 3 -0.0182 11.996490041207556 -17.284534305984113 -5.339355142365713 0 0 0
390 14 2 0.1237 3.117180094425018 -12.661631223343528 -7.137514537055324 0 0 0
388 14 3 -0.0182 1.098123284950735 -10.84482686627191 -7.706009757010491 0 0 0
2701 158 2 0.0518 3.7472355353054296 -14.087373780781105 -5.547678437893509 1 0 0
2692 158 3 -0.0182 3.3444969196519745 -15.160152857531779 -5.5916508430663745 1 0 0
387 14 1 0.0266 2.4826094854665017 -10.590085822727861 -7.197390104209617 0 0 0
389 14 1 -0.129 3.4082752031171215 -11.663963014892818 -6.972024924031457 0 0 0
2690 158 2 0.1237 1.4349593464291173 -16.934786082366692 -5.63691432218768 1 0 0
392 14 2 0.1403 5.390873721615735 -12.204622121904258 -6.582295829204609 0 0 0
393 14 1 -0.1134 5.154130948285134 -10.063528958840873 -6.469569030250098 0 0 0
391 14 1 -0.1734 4.694714580457169 -11.35015510748461 -6.600033707260572 0 0 0
1904 108 2 0.0354 3.682650806985722 -10.385845563286212 -3.6153889861993336 1 0 0
2885 170 1 -0.129 12.78812304785292 -15.266793559101941 -8.822730720273244 0 0 0
1852 105 2 0.1403 -0.8019066747088811 -13.698552382751924 -6.288081128986872 1 0 0
1851 105 1 -0.1734 -0.9575154713026998 -13.925721843901886 -5.184916070094543 1 0 0
2886 170 2 0.1237 13.022358443466302 -14.9665047441976 -7.794998479079483 0 0 0
385 14 1 -0.129 2.811452206899455 -9.270597401626311 -6.773781493462656 0 0 0
395 14 1 -0.1734 4.157868561133952 -8.979782846634082 -6.3849856175283675 0 0 0
1901 108 2 0.0518 1.9901988153866892 -12.614094359813459 -2.637675480260496 1 0 0
1892 108 3 -0.0182 2.510041852172237 -11.699487798824613 -2.6140984988424587 1 0 0
1902 108 4 -0.0696 2.8595886471744434 -11.10413588973935 -3.7457821870575603 1 0 0
1903 108 2 0.0354 2.6091846393700924 -11.374344330485709 -4.757163776276693 1 0 0
3390 201 4 -0.0696 11.650576281106447 -6.64681008453593 -5.372896762999545 1 0 0
3380 201 3 -0.0182 12.189535496561883 -7.556006397249739 -6.243143771834921 1 0 0
3389 201 2 0.0518 13.150456791874044 -8.015468468208251 -6.125337352427766 1 0 0
3382 201 2 0.1237 11.699960655155175 -8.408280519326416 -8.943361777397708 1 0 0
394 14 2 0.1288 6.20178409753453 -9.967005990799093 -5.978650963034633 0 0 0
2957 174 2 0.0518 8.297378774740295 -9.720858678265824 -4.059439273535483 -1 0 0
3386 201 2 0.1288 9.271794916439573 -11.75737268703245 -8.106203608283094 1 0 0
2889 170 1 -0.1134 11.203676358714022 -16.424910300332513 -10.30719770970198 0 0 0
3378 201 2 0.1237 10.815992013507126 -9.404403148606734 -4.859777416887963 1 0 0
3377 201 1 -0.129 10.710941675943886 -9.518415628253019 -5.932235312030963 1 0 0
3388 201 2 0.1403 9.333978952991398 -11.310552413684693 -5.627732449158003 1 0 0
3387 201 1 -0.1734 9.91499264939605 -10.604104980151991 -6.329540055459761 1 0 0
3385 201 1 -0.1134 9.734235645012031 -10.850915337287779 -7.705648892630367 1 0 0
3384 201 2 0.1403 9.980726928503273 -10.073667845531903 -9.753391034713273 1 0 0
3383 201 1 -0.1734 10.285322162488901 -10.04778845877982 -8.685073457309011 1 0 0
2888 170 2 0.1403 10.820428835655143 -16.059852069717184 -8.222943706082289 0 0 0
2887 170 1 -0.1734 11.517404792030694 -15.918410389340902 -9.017692901707859 0 0 0
3379 201 1 0.0266 11.251991108483551 -8.613497016674453 -6.881636676839135 1 0 0
3381 201 1 -0.129 11.164962102307614 -9.021263878965094 -8.19582064334734 1 0 0
1842 105 2 0.1237 12.595328642073072 -13.067326954696679 -5.426768198136267 0 0 0
1841 105 1 -0.129 -2.2352253212625772 -13.691730493476102 -4.819413098616943 1 0 0
396 14 2 0.1403 4.419345286063788 -7.986577409566327 -6.048982577808663 0 0 0
1856 105 2 0.0354 11.977427676877666 -11.502935404217421 -2.872127095542556 0 0 0
397 14 2 0.0518 0.603010746469648 -11.80115704514849 -7.5436927682887065 0 0 0
704 33 2 0.0354 0.9102703811996782 -6.345002191970435 -8.838616961610397 0 0 0
386 14 2 0.1237 2.1722641486860677 -8.375296477062417 -7.104192637367766 0 0 0
702 33 4 -0.0696 0.2997906533392935 -5.461770248462516 -8.621876022522507 0 0 0
692 33 3 -0.0182 0.47976300080167866 -4.906245718020963 -7.3868537800606875 0 0 0
701 33 2 0.0518 -0.07511193148093928 -4.086919593256278 -7.090853372289197 0 0 0
696 33 2 0.1403 2.974252626368225 -7.221069577832062 -3.8823216191448076 0 0 0
695 33 1 -0.1734 1.9918330028756 -7.067500192881536 -4.573635807609167 0 0 0
693 33 1 -0.129 1.9080120126913183 -6.160981154789009 -5.6581200037575465 0 0 0
694 33 2 0.1237 2.813079906628161 -5.719277952574572 -6.053910169149176 0 0 0
697 33 1 -0.1134 0.7772419586111715 -7.58891156274373 -3.9928003309421483 0 0 0
691 33 1 0.0266 0.6533160958214124 -5.838142282425827 -6.147041742604252 0 0 0
699 33 1 -0.1734 -0.5241615686614327 -7.2601767951904455 -4.62407511877713 0 0 0
700 33 2 0.1403 -1.3907591358500973 -7.665832816445536 -4.182545446423226 0 0 0
689 33 1 -0.129 -0.5517531960721186 -6.2813807064175 -5.614558654888682 0 0 0
690 33 2 0.1237 -1.545760973033559 -6.147894223456916 -6.132313661832701 0 0 0
3392 201 2 0.0354 10.616233210443324 -6.239667843293834 -5.578396766841574 1 0 0
937 48 1 -0.1134 6.162303747363072 -5.75077485156878 -6.257882221253586 0 0 0
935 48 1 -0.1734 7.12702511108654 -6.68524319854098 -6.743517000883883 0 0 0
936 48 2 0.1403 7.327829965876139 -7.5096429896351795 -6.053278164775143 0 0 0
938 48 2 0.1288 5.465960902411006 -5.958284646952875 -5.525397126364475 0 0 0
940 48 2 0.1403 5.1613156564766305 -3.93831780586144 -6.842602911026146 0 0 0
2959 174 2 0.0354 6.140609329398255 -9.499777517737433 -3.1293123497652218 -1 0 0
2958 174 4 -0.0696 6.888326169236592 -8.782906832130891 -2.933031278593074 -1 0 0
2960 174 2 0.0354 6.607650122760382 -8.022275056228976 -2.200964698212579 -1 0 0
939 48 1 -0.1734 5.963333569872449 -4.633024741297044 -7.106292510075412 0 0 0
933 48 1 -0.129 7.972504116686737 -6.328068893072414 -7.812871236115352 0 0 0
934 48 2 0.1237 8.690281961980203 -7.109439481636429 -8.145663432141465 0 0 0
932 48 3 -0.0182 8.797555756940127 -4.595477220815918 -9.434857030763553 0 0 0
931 48 1 0.0266 7.767236169371446 -5.137560108888613 -8.529157246910811 0 0 0
941 48 2 0.0518 8.67291586711988 -5.217960454313556 -10.387565486385785 0 0 0
2949 174 1 -0.129 10.310090085508746 -8.052210603554245 -2.3402965784607983 -1 0 0
2948 174 3 -0.0182 8.170960450021909 -8.78066885792344 -3.374650975593982 -1 0 0
2950 174 2 0.1237 10.420256127965013 -7.524144035644176 -3.2799317731539848 -1 0 0
929 48 1 -0.129 6.68426864244127 -4.330646379259877 -8.19492792125937 0 0 0
942 48 4 -0.0696 9.954434503417136 -4.5969961913651955 -8.779365553448475 0 0 0
943 48 2 0.0354 10.768678965520524 -5.335387162292525 -8.901089577057379 0 0 0
944 48 2 0.0354 10.227896568994135 -4.112371668453142 -7.77187659699284 0 0 0
2952 174 2 0.1403 12.144914890863172 -7.2974152441657605 -1.5459529285528022 -1 0 0
1565 87 2 0.0518 1.3766046214683387 -2.572393075627673 -10.046719049469633 1 0 0
1556 87 3 -0.0182 2.4306244517987134 -2.7858754414824105 -9.719423043912155 1 0 0
2680 157 2 0.1403 -0.038297765792262295 0.4681183338884224 -8.789179768799682 0 0 0
1568 87 2 0.0354 3.996521586793567 -2.1515434558707502 -8.48899850320183 1 0 0
1567 87 2 0.0354 2.438628195526519 -0.9962798465539575 -8.565807012015787 1 0 0
128 1 1 0 -2.194660022679708 -3.3632142427589833 -3.6185768382508137 0 0 0
122 1 1 0 0.40395117101229294 -3.431404038324294 -3.656026774141233 0 0 0
1566 87 4 -0.0696 2.969475652358458 -1.9060967738492491 -8.825343071024557 1 0 0
2682 157 2 0.1288 -0.6168783786030898 -1.9382138936488427 -7.762287495649452 0 0 0
125 1 1 0 -0.8822275279890184 -2.927651896505916 -4.058348269372036 0 0 0
124 1 1 0 -0.9108796300549873 -1.834275856910846 -4.909042103900746 0 0 0
123 1 1 0 -0.9230060274986549 0.7785423361574492 -5.441693760731359 0 0 0
126 1 1 0 -2.2192293658283964 0.1506148691814853 -5.336967820022852 0 0 0
118 1 1 0 0.3767642196734542 0.1519494073183135 -5.461822402706915 0 0 0
127 1 1 0 -2.215321903011831 -1.2229408028590387 -5.167136701933924 0 0 0
120 1 1 0 0.3723923144343673 -1.2192714039016925 -5.176071434331743 0 0 0
121 1 1 0 1.7060277016356489 -2.9287648804989512 -4.055757346400719 0 0 0
119 1 1 0 1.6964116056048837 -1.80493492391763 -4.8736564320263245 0 0 0
117 1 1 0 1.5820157107278776 0.7988934524833455 -5.291813049031143 0 0 0
192 1 1 0 3.0392023160363304 -3.3432194415726513 -3.5495644018604233 0 0 0
190 1 1 0 2.9643038530959864 0.18656469253914496 -5.208467859525993 0 0 0
191 1 1 0 2.99664274506209 -1.2100085130463643 -5.068631790019976 0 0 0
189 1 1 0 4.314738541676831 -2.967898515453521 -4.109853358929576 0 0 0
188 1 1 0 4.271205629634472 -1.8623768320586511 -4.900890128264516 0 0 0
187 1 1 0 4.251459922685321 0.8021320935158188 -5.2938762678900835 0 0 0
113 1 1 0 -0.9526943981273487 2.1290031162684717 -5.1129328399341265 0 0 0
108 1 1 0 1.6257039697786282 2.1009149268379113 -4.9570106610497815 0 0 0
177 1 1 0 4.253530175095511 2.173637165483795 -5.095585323666258 0 0 0
930 48 2 0.1237 6.543620853320238 -3.424811031727089 -8.877925490008383 0 0 0
1076 57 3 -0.0182 9.6905385225189 -0.12578786593279584 -10.069931735121527 0 0 0
64 1 1 0 8.160307302448556 -3.393873785251956 -3.590660501244391 -1 0 0
186 1 1 0 5.589254873679382 -3.3738806602688474 -3.5233790462050223 0 0 0
1074 57 2 0.1237 9.194041855148669 1.175444260424256 -12.58921543014392 0 0 0
57 1 1 0 12.037631717643803 -2.9037517325361484 -4.071381592795898 -1 0 0
55 1 1 0 12.029682375205104 -1.8468032829432335 -4.967590574670387 -1 0 0
53 1 1 0 11.965472605900151 0.8157098002050482 -5.321618390362019 -1 0 0
58 1 1 0 10.770509828519588 -3.3045415564990392 -3.460300400450981 -1 0 0
54 1 1 0 10.7503332414602 0.1671174744155191 -5.290634361587686 -1 0 0
56 1 1 0 10.756447482942049 -1.1994593480451368 -5.14890829995822 -1 0 0
61 1 1 0 9.462882281762791 -2.890785153369664 -3.9934266376438208 -1 0 0
60 1 1 0 9.474343755512457 -1.7981676537545719 -4.86404470306505 -1 0 0
59 1 1 0 9.409128180076268 0.7759569946779503 -5.241089462212369 -1 0 0
183 1 1 0 6.886592052938295 -1.811243853836353 -4.859229204095339 0 0 0
185 1 1 0 6.858565720908837 -2.926117995953027 -4.012253523760059 0 0 0
62 1 1 0 8.148482695515828 0.18290066800026125 -5.274454227488501 -1 0 0
181 1 1 0 6.84054595713796 0.8036241731057874 -5.280053735975041 0 0 0
182 1 1 0 5.526106205679157 0.19066180103063998 -5.3565991817609575 0 0 0
63 1 1 0 8.120416333937921 -1.2063076758160576 -5.110482802390766 -1 0 0
184 1 1 0 5.574121566850907 -1.193753753172814 -5.1146195736606 0 0 0
1085 57 2 0.0518 9.113395089103092 0.8017618199903346 -9.772323240751154 0 0 0
44 1 1 0 11.992020184156692 2.1670180498940654 -5.019640039278889 -1 0 0
172 1 1 0 6.844643036798674 2.2031723599524735 -5.0435769057330635 0 0 0
49 1 1 0 9.400859522866845 2.1957125363843 -5.047417562305006 -1 0 0
116 1 1 0 -2.2466387604871327 2.7979935838712304 -4.798393271730156 0 0 0
111 1 1 0 0.2965247738611769 2.70845861123577 -4.8471920207927015 0 0 0
180 1 1 0 2.945431308944403 2.807222078140113 -4.858044197480077 0 0 0
2734 160 4 -0.0696 5.393206562540483 4.752937441768593 -8.863002864742947 0 0 0
2736 160 2 0.0354 5.2043175474177295 4.961194829666474 -7.770238244937357 0 0 0
2138 123 2 0.1288 -0.46003914464915013 7.954652513595821 -5.387975704825697 0 0 0
2139 123 1 -0.1734 -1.917517477349276 6.29321984553645 -6.176839178025336 0 0 0
2140 123 2 0.1403 13.062464420959957 6.207147692437688 -5.157411997554889 -1 0 0
2735 160 2 0.0354 4.520390265905101 4.266723071456743 -9.295509520311427 0 0 0
114 1 1 0 -0.9333469271105581 4.313200072890218 -3.4884300484072837 0 0 0
115 1 1 0 -2.235800667682165 3.9371722854672364 -3.971006853693002 0 0 0
110 1 1 0 0.31894940947929207 3.8677164332285656 -4.0112191830045045 0 0 0
109 1 1 0 1.6524165937724782 4.28799641629281 -3.4385798089116304 0 0 0
179 1 1 0 2.96690225414512 3.945073206075411 -3.9909325916141767 0 0 0
178 1 1 0 4.258253707400428 4.306223161308949 -3.476942328677357 0 0 0
2129 123 1 -0.129 -1.9661257015445077 5.327703214776744 -7.166837336138602 0 0 0
3215 190 2 0.0354 4.021108461324029 7.771680323802104 -6.438990899253023 1 0 0
3216 190 2 0.0354 4.620570362793602 7.196488852393369 -4.744700612240452 1 0 0
3214 190 4 -0.0696 4.607170209830917 7.9766060341355285 -5.529905179009994 1 0 0
2724 160 3 -0.0182 6.5445891144173665 5.082579346722395 -9.417475716518139 0 0 0
3202 190 2 0.1237 7.890652060715249 8.138130207180323 -4.529038703599897 1 0 0
2722 160 2 0.1237 8.905441108416332 3.8979252574590713 -8.742931483692683 0 0 0
2130 123 2 0.1237 12.808095984043419 4.446398498067711 -7.15121980114257 -1 0 0
2721 160 1 -0.129 8.747399445047087 4.929042153360601 -8.470417713568873 0 0 0
2723 160 1 0.0266 7.611499425118613 5.6817138805765595 -8.65613084228474 0 0 0
2726 160 2 0.1237 6.667784816844232 7.652683116675421 -7.9065667859218145 0 0 0
47 1 1 0 10.66225936477223 2.7771077451593307 -4.871305693045312 -1 0 0
2732 160 2 0.1403 10.767735738515968 4.783224423558338 -7.574561788401064 0 0 0
2730 160 2 0.1288 10.712751761779069 7.107588422001311 -6.7288666020242935 0 0 0
2729 160 1 -0.1134 9.790587045703777 6.686716622460391 -7.143811058973112 0 0 0
52 1 1 0 8.126107994883851 2.8345181269211372 -4.796722397099187 -1 0 0
175 1 1 0 5.550087463952358 2.780533916801728 -4.83119493260419 0 0 0
2731 160 1 -0.1734 9.813885506788823 5.355437818027975 -7.6508831222241325 0 0 0
2727 160 1 -0.1734 8.70460904603412 7.520178232643379 -7.435116845042073 0 0 0
2725 160 1 -0.129 7.58521912769803 6.964952804899029 -8.039300216134903 0 0 0
2728 160 2 0.1403 8.585782773217554 8.570565257334723 -7.0319681385955395 0 0 0
45 1 1 0 12.039819467202266 4.289731262177492 -3.444895030256358 -1 0 0
46 1 1 0 10.694707931169127 3.9472138351810644 -4.058878657465842 -1 0 0
50 1 1 0 9.461246053492964 4.38769697334372 -3.5708568503369285 -1 0 0
174 1 1 0 5.5992511820042985 3.929207345127512 -4.013218776891069 0 0 0
51 1 1 0 8.11865178316529 4.006764851216329 -4.010102301001648 -1 0 0
173 1 1 0 6.910314813536374 4.401981579299749 -3.4800136169470166 0 0 0
800 39 2 0.0354 9.925358246805073 9.730616658843875 -5.83634791353975 1 0 0
786 39 2 0.1237 -2.150325125175513 8.118771289737719 -3.9740688687653165 2 0 0
785 39 1 -0.129 12.643749756090825 8.849797940220709 -3.505288132891931 1 0 0
2265 131 1 -0.1134 1.1610436083723907 13.44161972337888 -9.856165435777259 0 0 0
2266 131 2 0.1288 0.6297442592728127 14.423782422546589 -10.15281765143828 0 0 0
3213 190 2 0.0518 5.5385816897300835 9.567956962613113 -6.450384971405791 1 0 0
2263 131 1 -0.1734 0.4009531786239959 12.467806482473028 -9.296443317581282 0 0 0
2264 131 2 0.1403 -0.5803030714587253 12.637598356199554 -8.90763966173736 0 0 0
3203 190 1 0.0266 6.263645486278245 9.582773568455043 -4.492663335757242 1 0 0
3204 190 3 -0.0182 5.508438397067172 8.96952697186723 -5.575478910345683 1 0 0
2261 131 1 -0.129 0.9863484636557225 11.35419459673392 -8.779758250356995 0 0 0
2262 131 2 0.1237 0.5798008009806374 10.660730964736265 -8.103927771003251 0 0 0
1021 53 2 0.0518 -1.3618824202166304 8.834254072511202 -9.193131692315854 2 0 0
2866 169 2 0.1237 7.86136857141732 11.578138765593499 -8.614648395588434 1 -1 0
3206 190 2 0.1237 4.949022028570022 11.275905063735193 -4.191708770546431 1 0 0
799 39 2 0.0354 10.696893234134315 9.204018874830938 -7.285538200543987 1 0 0
954 49 2 0.1288 0.252318473487257 9.910413200476414 -5.137501965097175 2 0 0
956 49 2 0.1403 2.0068870832285075 9.673647193003722 -3.6007236182585296 2 0 0
2879 169 2 0.0354 4.515143795189066 13.209311181676705 -6.9432149834995744 1 -1 0
2878 169 4 -0.0696 5.521480971023388 13.009129626844976 -7.389830768419858 1 -1 0
797 39 2 0.0518 13.16025657444632 9.916625869729947 -6.281894914491474 1 0 0
788 39 3 -0.0182 12.116811630129604 9.912987739912994 -5.797459572341267 1 0 0
798 39 4 -0.0696 10.893646838931039 9.51950729945348 -6.267176943129656 1 0 0
2733 160 2 0.0518 6.636003720157112 4.788518254537815 -10.453546321842174 0 0 0
2876 169 2 0.1403 10.23355661979094 11.241047419820031 -8.70105527062262 1 -1 0
2875 169 1 -0.1734 9.918627764763379 12.296100603495095 -8.396833049865464 1 -1 0
2873 169 1 -0.1134 10.76836763338025 13.251294127656179 -7.967637846145846 1 -1 0
2865 169 1 -0.129 8.532034678614645 12.48043980647877 -8.420124107230864 1 -1 0
2869 169 1 -0.129 8.797602251852256 14.702488945176674 -7.512713653191443 1 -1 0
2867 169 1 0.0266 7.89381165488915 13.711437042140084 -8.007062235068851 1 -1 0
2870 169 2 0.1237 8.457601734012929 15.529133327058732 -6.902159939797997 1 -1 0
2874 169 2 0.1288 11.757967792319855 13.050751711102626 -7.860954163396672 1 -1 0
2871 169 1 -0.1734 10.192507480053184 14.325336183856315 -7.422480771103118 1 -1 0
2872 169 2 0.1403 10.889265592881461 14.963936951877006 -6.804611385705913 1 -1 0
2868 169 3 -0.0182 6.376034007986908 13.937546861303963 -7.9390769865116635 1 -1 0
2877 169 2 0.0518 6.25280259721166 15.009825188612632 -7.662275519920441 1 -1 0
789 39 1 -0.129 11.444415575359834 10.86206778797932 -3.53064518712398 1 0 0
790 39 2 0.1237 10.95262745776117 11.783795468830787 -4.00644281648697 1 0 0
787 39 1 0.0266 12.022529291849995 9.857285441825905 -4.322046143269372 1 0 0
3122 185 2 0.1237 8.258156149742275 16.411611818460123 -4.169131092731308 -1 0 0
648 30 2 0.1403 -1.2741992703538443 19.47264283912165 -10.363916650846724 1 0 0
952 49 2 0.1403 -0.30962738431792236 12.292218655201811 -5.837299251486794 2 0 0
2390 139 2 0.1237 2.344579832660141 14.905579698682955 -6.628214091416138 0 0 0
2399 139 2 0.0354 6.36341237613982 16.66532272694505 -5.613013127384922 0 0 0
2389 139 1 -0.129 2.1141131486342504 15.993127075066493 -6.645020451195991 0 0 0
2391 139 1 -0.1734 0.8845938208366414 16.2850457558905 -7.185306567878973 0 0 0
2396 139 2 0.1403 0.6722335437481732 19.64128819519818 -6.715256811671861 0 0 0
2395 139 1 -0.1734 1.114818341440993 18.606655186941758 -6.707428633221396 0 0 0
2398 139 4 -0.0696 5.431389758232646 17.079931906140605 -6.110849060291934 0 0 0
2397 139 2 0.0518 4.113777670030077 16.29121627308438 -4.632488601913744 0 0 0
2388 139 3 -0.0182 4.282400426519851 16.742244971783045 -5.554316792087251 0 0 0
2400 139 2 0.0354 5.507383798181505 17.306655636534074 -7.190127300889539 0 0 0
2385 139 1 -0.129 2.44395319290255 18.390773407927238 -6.349559693969658 0 0 0
2387 139 1 0.0266 2.9654874245864384 17.04508574515484 -6.299141237240891 0 0 0
2386 139 2 0.1237 3.219124906381895 19.2360260950988 -6.130452057805549 0 0 0
955 49 1 -0.1734 1.7782494875352608 10.676862375224463 -3.815258242155724 2 0 0
953 49 1 -0.1134 0.717117100568322 10.829660253212538 -4.698206207563357 2 0 0
951 49 1 -0.1734 0.29156362360013915 12.14895153618256 -4.9947200592700804 2 0 0
945 49 1 -0.129 2.4984356254289692 11.705538394977776 -3.2275404262692837 2 0 0
2392 139 2 0.1403 0.24802929180625835 15.395993187850047 -7.352143495775486 0 0 0
2393 139 1 -0.1134 0.3682286745147029 17.552339968192303 -7.279302704901516 0 0 0
2394 139 2 0.1288 -0.7502868204862554 17.69150893359692 -7.431351806750788 0 0 0
3354 199 2 0.1288 4.240812198480518 19.41730355556318 -4.429023622808177 0 0 0
3353 199 1 -0.1134 4.913323263142446 19.918421725327708 -3.6911923356295193 0 0 0
3352 199 2 0.1403 4.463148724849275 21.981338281385263 -4.2069431207983214 0 0 0
3351 199 1 -0.1734 4.862379509683248 21.3104135495555 -3.4473982959956784 0 0 0
1297 71 1 -0.129 8.927654937067109 21.704734311770363 -9.468516358917228 1 -1 0
1305 71 1 -0.1134 9.19658864678167 19.364944804945956 -8.710107719968937 1 -1 0
1307 71 1 -0.1734 9.17859142143748 20.728470367700513 -8.42973745176709 1 -1 0
1308 71 2 0.1403 9.24336398089529 21.119972899460954 -7.346922093854441 1 -1 0
3336 198 2 0.1403 12.89320565999008 16.32989513341363 -8.51775013966894 0 -1 0
3338 198 2 0.1288 10.756387772223187 16.446187996121242 -9.434149110466468 0 -1 0
2941 173 2 0.0518 -2.2119524292773085 19.547328374110556 -8.46008491161762 1 0 0
1298 71 2 0.1237 9.13994556170273 22.77571203101747 -9.234245280481739 1 -1 0
1306 71 2 0.1288 9.41400506501724 18.46214276788309 -8.185396746652259 1 -1 0
2880 169 2 0.0354 5.526265752042547 11.964463318093314 -7.624760431431093 1 -1 0
2943 173 2 0.0354 12.449832894892605 17.759984171921555 -7.10146846995754 0 0 0
2944 173 2 0.0354 10.952388140061862 18.82029677625773 -6.754707907149256 0 0 0
2942 173 4 -0.0696 11.867746800547593 18.672485891398257 -7.229662001101559 0 0 0
2932 173 3 -0.0182 12.312129350090832 19.593661394059005 -8.02461151090802 0 0 0
3132 185 2 0.1403 8.683059586174652 18.854031693603815 -3.271380783600439 -1 0 0
3356 199 2 0.1403 5.6270558016943255 17.89366609441485 -2.894755727321973 0 0 0
3355 199 1 -0.1734 5.680123967582822 19.078662660223056 -2.8109141862917886 0 0 0
3121 185 1 -0.129 8.981204637889434 16.75028578812054 -3.407149410806318 -1 0 0
3131 185 1 -0.1734 9.208659721228527 17.971843617524065 -2.8580950595053802 -1 0 0
3130 185 2 0.1288 10.328949854881458 19.144863914558638 -1.4635148757500922 -1 0 0
3080 182 2 0.1403 -1.3881146781553861 26.133077955672846 -8.61361016500464 0 -1 0
616 28 2 0.1403 11.344356991924908 22.40794227221518 -11.812501393378728 0 0 0
2282 132 2 0.1288 2.5034563635478904 22.402551580704806 -7.148924638961545 1 0 0
850 43 2 0.1237 5.600325632803643 26.066708599047914 -5.252312817248383 0 0 0
2278 132 2 0.1237 1.5744898186377903 22.89137003831342 -2.955681274016055 1 0 0
2280 132 2 0.1403 2.039032746382693 21.34056062402737 -4.906976139733577 1 0 0
860 43 2 0.1403 5.503018616293758 23.618966419039573 -4.507186144955861 0 0 0
859 43 1 -0.1734 6.455284056125094 24.003757739817395 -4.86803384515998 0 0 0
849 43 1 -0.129 6.533921028981177 25.35561308777265 -5.2939596498786115 0 0 0
2275 132 1 0.0266 1.7260358759419285 24.75502123960783 -4.138263716266213 1 0 0
2279 132 1 -0.1734 2.192204048751899 22.46652979103591 -5.046524561775671 1 0 0
2277 132 1 -0.129 1.8586720394436322 23.336925756507693 -3.9609932548773132 1 0 0
2281 132 1 -0.1134 2.391123647846458 23.076454476382345 -6.318052999290576 1 0 0
2285 132 2 0.0518 2.074525904219401 25.47681444675278 -2.155310887067539 1 0 0
2288 132 2 0.0354 -0.6248956801425998 26.084983120329937 -3.5244863559026047 1 0 0
2276 132 3 -0.0182 1.365987738560856 25.669698116991643 -2.934906544529906 1 0 0
2274 132 2 0.1237 1.7659532308308474 -25.841415222344285 -5.522930581542937 1 1 0
2273 132 1 -0.129 1.879948306799363 25.32091754098079 -5.399514346747239 1 0 0
2284 132 2 0.1403 2.174792128062166 24.901375432495716 -7.492526446368815 1 0 0
2283 132 1 -0.1734 2.139425067112099 24.448649353655988 -6.495116559464073 1 0 0
852 43 3 -0.0182 7.971789948016566 -25.084440118347487 -6.241123058882674 0 1 0
861 43 2 0.0518 7.3069879514946825 -24.676074361728443 -6.969249867615977 0 1 0
2930 173 2 0.1237 11.833890309058118 20.271420636843615 -5.41279750657091 0 0 0
2940 173 2 0.1403 12.266786717039906 22.62851759247571 -4.358660270677493 0 0 0
2623 153 2 0.0354 0.05485274831956627 20.691140969261205 -3.974924507854121 1 -1 0
2934 173 2 0.1237 12.238435121660517 21.9225248176938 -9.314565536176223 0 0 0
857 43 1 -0.1134 7.541915017975773 23.128823519605675 -4.914090507023743 0 0 0
858 43 2 0.1288 7.477349543022105 22.061209265799445 -4.78204023551964 0 0 0
856 43 2 0.1403 9.62166244615409 22.91461654827984 -5.318074422398762 0 0 0
855 43 1 -0.1734 8.815785450632541 23.65977286337732 -5.348224189881813 0 0 0
853 43 1 -0.129 8.935861063619233 24.9684862700108 -5.705577863070013 0 0 0
851 43 1 0.0266 7.8045087533130495 25.856436469711227 -5.75562834215548 0 0 0
2936 173 2 0.1403 12.504367330913471 24.317134358939242 -8.402701708444406 0 0 0
2931 173 1 0.0266 12.24600136843951 21.049674621617992 -7.395148850158062 0 0 0
2933 173 1 -0.129 12.427631033124769 22.143298059418203 -8.25330398716911 0 0 0
854 43 2 0.1237 9.87116792579734 25.31534613070459 -6.072545369765709 0 0 0
2929 173 1 -0.129 12.045869076957265 21.151500886949226 -5.975446690986427 0 0 0
2935 173 1 -0.1734 12.495256551939994 23.40669517092702 -7.718770088904397 0 0 0
2939 173 1 -0.1734 12.123362377972793 22.49967682597137 -5.445779271264049 0 0 0
2937 173 1 -0.1134 12.490352912151332 23.61638863010384 -6.3158401137989 0 0 0
2938 173 2 0.1288 12.518780984132228 24.60550903118667 -5.808363755006571 0 0 0
2424 141 2 0.1403 -1.5593659497638552 -20.96448267213223 0.034210401239235765 1 0 0
902 46 2 0.1237 0.7678251217697515 -22.65199587091958 1.786235366981574 0 0 0
901 46 1 -0.129 1.1625046090395843 -21.969734681498988 1.0092142532317396 0 0 0
903 46 1 -0.1734 1.0312739331801672 -20.65220796773674 1.4522491459894864 0 0 0
900 46 3 -0.0182 1.830000672546479 -23.871352863025383 -0.42852159922374566 0 0 0
899 46 1 0.0266 1.472294411851947 -22.437479048850747 -0.3080657766309186 0 0 0
905 46 1 -0.1134 1.3135677007729616 -19.67240692098149 0.5373417467008016 0 0 0
897 46 1 -0.129 1.836091690775682 -21.471930100523675 -1.1711679789873912 0 0 0
907 46 1 -0.1734 1.6555682963151506 -20.11045695231142 -0.781145545827151 0 0 0
1007 52 2 0.0354 1.382705680709544 22.6394848844035 0.0412266737289992 0 -1 0
909 46 2 0.0518 1.0250869104012006 -24.593180980497273 -0.5567826909240463 0 0 0
898 46 2 0.1237 2.060111032736903 -21.781689694847937 -2.200413050710268 0 0 0
910 46 4 -0.0696 3.0080444448321306 -24.23061969603197 0.05102579959940828 0 0 0
912 46 2 0.0354 3.87114170639847 -23.571594425936304 0.42388152240928884 0 0 0
2246 130 2 0.1237 9.300553370226831 -22.087864659357848 -2.8928226092149245 0 1 0
525 22 2 0.0518 5.050306386466076 -22.57569200822933 1.375285836164723 1 0 0
911 46 2 0.0354 3.061514596610637 -25.311285478509927 0.13087584497607227 0 0 0
516 22 3 -0.0182 6.0255252589292 -22.449872199701097 0.9486400918262999 1 0 0
2420 141 3 -0.0182 12.034116193867376 -24.44089458825744 -2.3723906112444957 0 0 0
2419 141 1 0.0266 11.86576747191668 -23.224029507064895 -1.4694756711412584 0 0 0
2421 141 1 -0.129 13.031070186369885 -22.498899544065534 -1.2218292038667444 0 0 0
1008 52 2 0.0354 1.8832733430569109 24.45895324239331 -0.02520283623256008 0 -1 0
2245 130 1 -0.129 8.749753403179014 -21.836465592314642 -3.862335905050861 0 1 0
2429 141 2 0.0518 11.925297951006462 -25.328576843575412 -1.762235489097579 0 0 0
2417 141 1 -0.129 10.719478542384302 -22.974512662876638 -0.7086187647989697 0 0 0
2427 141 1 -0.1734 10.66508087852438 -21.93669151189737 0.23148876524079298 0 0 0
2418 141 2 0.1237 10.00845680388068 -23.75667021589137 -0.6243695226208225 0 0 0
2425 141 1 -0.1134 11.789936519659658 -21.217617084746795 0.4075581660394846 0 0 0
2423 141 1 -0.1734 13.007296095499953 -21.49787487451208 -0.17811242380288553 0 0 0
2428 141 2 0.1403 9.786019021824888 -21.84230524486759 0.9114101687377224 0 0 0
2426 141 2 0.1288 11.758493225533808 -20.43165342410753 1.1603559331439541 0 0 0
515 22 1 0.0266 6.537302388746765 -21.149110708952396 1.5839759993033715 1 0 0
2247 130 1 -0.1734 9.45562645457759 -21.45761786525188 -4.983138974029773 0 1 0
2248 130 2 0.1403 10.610882826664152 -21.590398759698957 -5.004776470189224 0 1 0
517 22 1 -0.129 7.331607018389883 -20.268385200054787 0.8788009865445338 1 0 0
518 22 2 0.1237 7.491849358154954 -20.468550434632448 -0.20837345028773208 1 0 0
2250 130 2 0.1288 9.428661068092772 -20.873682220384534 -7.019886341982111 0 1 0
2249 130 1 -0.1134 8.806838589799563 -20.908431495257645 -6.089088192279938 0 1 0
2474 144 2 0.1288 0.3608689741432417 -20.679610385983736 -3.785238078593763 1 0 0
908 46 2 0.1403 1.6874823295561092 -19.21533418734203 -1.4803635791131688 0 0 0
906 46 2 0.1288 1.1483627304818245 -18.654166838782423 0.7786363432880137 0 0 0
490 20 2 0.1288 7.242695741104988 -18.798096555966573 -2.0447605007273517 0 0 0
489 20 1 -0.1134 7.099576032131549 -17.684956834148196 -2.016984019512744 0 0 0
491 20 1 -0.1734 5.875423220445027 -17.08887823685895 -1.9150717829534232 0 0 0
492 20 2 0.1403 4.991594269834993 -17.814471974425746 -1.9648709467534686 0 0 0
3155 187 1 0.0266 -2.2865186973626415 -16.410896370724398 0.7018592181838248 0 0 0
3153 187 1 -0.129 -1.3513283424218292 -15.379227559837606 0.8401181271541713 0 0 0
3157 187 1 -0.129 13.1537999382799 -17.33688897572069 1.7535463784786567 -1 0 0
481 20 1 -0.129 5.860908373023151 -15.63367963820293 -1.9127689035548805 0 0 0
3154 187 2 0.1237 -1.2146575854017523 -14.604527765110218 0.12546858209885187 0 0 0
482 20 2 0.1237 4.9069118587002745 -15.231913879705026 -1.613051111808597 0 0 0
3163 187 1 -0.1734 -0.6022617429886564 -15.282035767436607 1.9918582287486089 0 0 0
3161 187 1 -0.1134 -0.67285011305095 -16.222573405635604 3.030986218887136 0 0 0
3162 187 2 0.1288 0.05300565307445808 -16.307656379128904 3.7671241737133867 0 0 0
3164 187 2 0.1403 0.03217603494218915 -14.368002637749917 2.2016063356201574 0 0 0
487 20 1 -0.1734 8.202315962313179 -16.850094799737736 -2.2291889004910956 0 0 0
488 20 2 0.1403 9.045121799688925 -17.48997398444466 -2.5113665521000477 0 0 0
485 20 1 -0.129 8.263529686869754 -15.514852302768995 -1.9376253846096267 0 0 0
3167 187 2 0.0354 10.107822758735477 -16.707011385066235 -0.49144548691742085 -1 0 0
3166 187 4 -0.0696 11.106325971009126 -17.162980664931464 -0.31157540371776027 -1 0 0
3156 187 3 -0.0182 12.238525105112954 -16.515279787837834 -0.4569585203547452 -1 0 0
3168 187 2 0.0354 11.126943498435192 -18.16113924775039 0.041301832976574644 -1 0 0
3165 187 2 0.0518 12.286573754209902 -15.530289917517171 -0.8721391534013936 -1 0 0
486 20 2 0.1237 9.257832355606183 -15.035080281524147 -2.0630439020854285 0 0 0
483 20 1 0.0266 7.043170568591055 -14.92561773296718 -1.747527845895383 0 0 0
2480 144 2 0.0354 10.45937328418328 -18.791259379313406 -4.967571969004154 0 0 0
2092 120 2 0.1403 8.608053692810131 -14.155384833686595 0.9639138904474674 0 0 0
2091 120 1 -0.1734 9.21073192457027 -14.16988070515273 1.8184465874131843 0 0 0
2082 120 2 0.1237 7.874132849388324 -15.50668256078222 2.699177689620843 0 0 0
2090 120 2 0.1288 10.722565514399099 -12.508656321184391 1.2451444301878358 0 0 0
2089 120 1 -0.1134 10.366870792123327 -13.395467921628544 1.9028744613294835 0 0 0
2081 120 1 -0.129 8.826438388890061 -14.979982793789071 2.9346195064722225 0 0 0
2087 120 1 -0.1734 11.168225718622761 -13.539755977052783 3.0408350737417487 0 0 0
2703 158 2 0.0354 4.574025768538782 -16.044059812449987 -4.053661408435366 1 0 0
1890 108 2 0.1237 3.8454610580967494 -9.55484667822456 -1.8719150802354652 1 0 0
1889 108 1 -0.129 2.661811951337835 -9.471572889620964 -1.5105396934425563 1 0 0
1893 108 1 -0.129 0.48717504180676974 -10.499363845132704 -1.391841425785605 1 0 0
1894 108 2 0.1237 -0.16027449684801404 -11.347366010848203 -1.695767539028148 1 0 0
1891 108 1 0.0266 1.772874534499958 -10.446019792900271 -1.9589258483238214 1 0 0
1899 108 1 -0.1734 2.3794016803356812 -8.50387323045513 -0.5175046441683614 1 0 0
432 16 2 0.0354 2.472902221075729 -11.51723886589104 0.9362030737726786 -1 0 0
1849 105 1 -0.1134 0.13268201071850524 -14.349291786451433 -4.377434849772257 1 0 0
1847 105 1 -0.1734 -0.22361176948111322 -14.755168577537928 -3.006003830902282 1 0 0
1848 105 2 0.1403 0.4470818583703039 -15.245194033265733 -2.3069009431112826 1 0 0
1896 108 2 0.1403 -0.9035631258611263 -9.459038856458243 0.005826684952758308 1 0 0
1895 108 1 -0.1734 0.10922702352847409 -9.541533451158223 -0.47275523201499364 1 0 0
1897 108 1 -0.1134 0.9884716876428981 -8.546426050009675 -0.1126875713268589 1 0 0
1850 105 2 0.1288 1.1995986768015443 -14.333530923615543 -4.626558628378157 1 0 0
431 16 2 0.0354 3.0328029717613543 -13.261538746059557 1.0625822823397117 -1 0 0
430 16 4 -0.0696 3.202184991869909 -12.271521577291903 0.7555187681272659 -1 0 0
1631 91 2 0.0354 0.08004749490980544 -11.165748338656025 5.069538360193116 1 0 0
3187 189 1 0.0266 -1.7905098894806726 -8.099033231971433 4.2352366688044665 1 0 0
3190 189 2 0.1237 -0.23011528927714953 -7.849454694251222 2.678856383525702 1 0 0
495 20 2 0.0354 6.6820072855914265 -11.991685147659378 -3.106804566010297 0 0 0
1855 105 2 0.0354 11.144455008048435 -12.102459831718267 -1.3865740538940592 0 0 0
493 20 2 0.0518 7.944256538836706 -13.014639855859967 -1.2044469556291075 0 0 0
496 20 2 0.0354 5.287764390090861 -13.095287392681293 -2.8875503710951107 0 0 0
484 20 3 -0.0182 6.992110437506533 -13.48927924486604 -1.6250338261708672 0 0 0
494 20 4 -0.0696 6.369561536152034 -12.910867093995215 -2.6235466489707804 0 0 0
417 16 1 -0.129 5.374819872923354 -9.69717278936128 0.4695981135820101 -1 0 0
427 16 1 -0.1734 6.206268286276212 -8.852404456833957 1.2413157650617035 -1 0 0
428 16 2 0.1403 6.351453779422183 -7.872012169520838 0.6882167697569187 -1 0 0
2946 174 2 0.1237 8.025645123234694 -10.013803956751877 -0.7631452940283956 -1 0 0
1844 105 3 -0.0182 11.719795941401362 -13.647798673339166 -2.733865954896024 0 0 0
1843 105 1 0.0266 13.061599139429488 -13.953882823792533 -3.462813445700842 0 0 0
3197 189 2 0.0518 -2.1876226180966 -9.33772553121927 2.4612677454812912 1 0 0
1853 105 2 0.0518 11.500950362868055 -14.513037743363409 -2.1306539670579574 0 0 0
1854 105 4 -0.0696 11.608031272899327 -12.404149024219938 -2.3553317360152395 0 0 0
1845 105 1 -0.129 -1.498905368493176 -14.563488366446357 -2.611320921486179 1 0 0
1846 105 2 0.1237 -1.6894317980608191 -14.606660653402342 -1.5689988530962782 1 0 0
2945 174 1 -0.129 9.00037543046042 -9.505400559273285 -1.045843680537711 -1 0 0
2955 174 1 -0.1734 10.004473298035894 -9.394531617866202 -0.026985574094292697 -1 0 0
2956 174 2 0.1403 9.87084761549371 -9.905568673451269 0.9858650038813798 -1 0 0
419 16 1 0.0266 5.169874517953381 -11.059827755928373 0.9259743104071857 -1 0 0
418 16 2 0.1237 4.937376757927548 -9.230912061544627 -0.43202986398556703 -1 0 0
3188 189 3 -0.0182 12.732574951921519 -8.893746123456173 3.3548934866024793 0 0 0
698 33 2 0.1288 0.8647247900381583 -8.143242190419095 -3.1071216488539437 0 0 0
1900 108 2 0.1403 2.9845734191045246 -7.721673008843408 -0.04454563069850812 1 0 0
101 1 1 0 -0.8888943201291984 -4.379419434027122 -1.8753060834573478 0 0 0
105 1 1 0 -2.163922109508059 -4.151518858537525 -2.4629739109232123 0 0 0
98 1 1 0 0.4250626807547822 -4.175061100792788 -2.44834269262732 0 0 0
95 1 1 0 1.703417292674601 -4.342140391961901 -1.8247165269385033 0 0 0
169 1 1 0 3.035491653623382 -4.112000798226782 -2.4214407077405524 0 0 0
165 1 1 0 4.344306966145308 -4.483364317580628 -1.8363791911172833 0 0 0
1898 108 2 0.1288 0.6300372187619501 -7.732674918475048 0.6916381572939027 1 0 0
102 1 1 0 -0.8871452697512457 -4.833502241609353 -0.47877111524850846 0 0 0
104 1 1 0 -2.141677562966297 -4.990966667071478 0.1667914540220789 0 0 0
97 1 1 0 0.42843037618585084 -5.001268100454531 0.15322625410820323 0 0 0
96 1 1 0 1.7250976219078766 -4.7818266227061885 -0.5071623913859177 0 0 0
103 1 1 0 -0.8390957709211735 -4.819143818363736 2.1647605400523493 0 0 0
106 1 1 0 -2.200433381088897 -4.991040831830385 1.5400086284799894 0 0 0
100 1 1 0 0.47560890344614565 -4.984221152888336 1.5388122120986574 0 0 0
99 1 1 0 1.713320719126769 -4.938593680308379 2.198074611916906 0 0 0
168 1 1 0 3.0553156501551526 -4.882415234634743 0.16263204568226003 0 0 0
170 1 1 0 3.0448281704750255 -5.112090445182802 1.58880415044361 0 0 0
166 1 1 0 4.353023879298475 -4.75008754936857 -0.4773764523278727 0 0 0
167 1 1 0 4.365851904954078 -4.964673829833343 2.277485436956896 0 0 0
3189 189 1 -0.129 -0.529008702027108 -7.775631932505942 3.737855611608236 1 0 0
3192 189 2 0.1403 1.4936364412524454 -7.007970339518138 4.36551853301531 1 0 0
2947 174 1 0.0266 9.2007378048462 -8.814658942464623 -2.2638263753867927 -1 0 0
2951 174 1 -0.1734 11.351472781407839 -7.996638823081516 -1.378846646814027 -1 0 0
425 16 1 -0.1134 6.836055737633532 -9.350440013943123 2.396061071345539 -1 0 0
426 16 2 0.1288 7.515215100409927 -8.637319487922104 2.929410769145915 -1 0 0
3198 189 4 -0.0696 11.608282422957528 -8.167231837423257 3.0527226187813907 0 0 0
3199 189 2 0.0354 11.47166283298281 -7.859352138942346 2.0004002454423073 0 0 0
31 1 1 0 12.067214399672023 -4.489716926513011 -1.854791747713543 -1 0 0
34 1 1 0 10.801973617587441 -4.085526187709164 -2.3371787084057463 -1 0 0
37 1 1 0 9.501279824234848 -4.458095033992275 -1.792923223030827 -1 0 0
41 1 1 0 8.181779953796525 -4.227793508328971 -2.4586430018905627 -1 0 0
159 1 1 0 6.911059367298492 -4.407970597503249 -1.780598556520765 0 0 0
162 1 1 0 5.6600959512594455 -4.12483121773851 -2.375013299476333 0 0 0
2953 174 1 -0.1134 11.243695690320923 -8.848173118963283 -0.2901483115156534 -1 0 0
2954 174 2 0.1288 12.061127851402329 -8.886607493544185 0.5497181770421063 -1 0 0
32 1 1 0 12.107725309850702 -4.89874978145643 -0.5130111656475791 -1 0 0
35 1 1 0 12.074788378416802 -4.865580148976692 2.219554148667152 -1 0 0
33 1 1 0 10.814363611364563 -5.106863479479946 0.16043923424685275 -1 0 0
36 1 1 0 10.77199768934439 -4.98864616242871 1.5908198792830832 -1 0 0
38 1 1 0 9.553950657039794 -4.9284766808578055 -0.5105700146750212 -1 0 0
160 1 1 0 6.969749794634841 -4.675122446198303 -0.46567212126155794 0 0 0
40 1 1 0 8.248993286260479 -4.878690247064917 0.1255642240367207 -1 0 0
161 1 1 0 5.6060835594551826 -4.801176736897944 0.14859224283496314 0 0 0
39 1 1 0 9.440131426474938 -4.841026312596364 2.2072642964118345 -1 0 0
42 1 1 0 8.223632802640552 -4.986104905501087 1.5374650150891138 -1 0 0
163 1 1 0 6.904556149780252 -4.7826204837102235 2.1717551850375334 0 0 0
164 1 1 0 5.614361343403248 -4.912594641628005 1.5626852988724675 0 0 0
112 1 1 0 -0.9201323972838793 4.796795929119785 -2.1714632372126035 0 0 0
107 1 1 0 1.6427021221474438 4.792007355839016 -2.1454319789942993 0 0 0
92 1 1 0 -2.1995944476710276 4.995942198682055 -0.14406757567582676 0 0 0
94 1 1 0 -2.206460075776164 4.966575687207284 -1.4781629069186704 0 0 0
90 1 1 0 -0.8838674568281158 4.9530851552392425 0.48000381259232583 0 0 0
87 1 1 0 0.3941509230854248 4.891148354816136 -1.5395910334981529 0 0 0
85 1 1 0 0.3982573554256384 5.015030096934307 -0.15265566589197122 0 0 0
84 1 1 0 1.6665789832921587 4.951302405224092 0.4549485322449326 0 0 0
156 1 1 0 2.9947924012443337 5.062633062989092 -0.11843436671135715 0 0 0
158 1 1 0 2.9815106713230097 4.946718728348241 -1.5044724112272703 0 0 0
176 1 1 0 4.303695492612124 4.725424517188799 -2.1134903205190034 0 0 0
154 1 1 0 4.325747676025717 4.997461032242815 0.5276459282044835 0 0 0
86 1 1 0 0.4222807547613436 4.345708483137574 2.4358652673403167 0 0 0
93 1 1 0 -2.1574154223799735 4.287144208936293 2.423754418011339 0 0 0
88 1 1 0 -0.8639863636894739 4.636035167016537 1.854840596131578 0 0 0
81 1 1 0 1.685608168956176 4.695228605331075 1.866389043128991 0 0 0
2053 118 1 -0.129 2.6641780865283424 8.938224284390582 1.4916963233977254 0 0 0
157 1 1 0 2.9935700200602655 4.266981591942268 2.4581101201381546 0 0 0
152 1 1 0 4.295597261902951 4.597603863470296 1.8871535032163562 0 0 0
2054 118 2 0.1237 2.0202878906937 9.335535374517166 2.2418304024629747 0 0 0
2055 118 1 -0.1734 2.176974400757429 8.797375374512585 0.19430403306410426 0 0 0
3210 190 2 0.1288 7.629882795990667 10.556606401924595 -0.8392812797307955 1 0 0
2057 118 1 -0.1134 3.0647676676533124 8.492257310627878 -0.8675579333039022 0 0 0
2059 118 1 -0.1734 4.424157918493108 8.386650235807592 -0.6928830727162236 0 0 0
2060 118 2 0.1403 5.024254227529615 8.129660723496336 -1.4962106367485768 0 0 0
2049 118 1 -0.129 4.901528415514422 8.567964049878139 0.5821928250819361 0 0 0
2051 118 1 0.0266 4.060193385813049 8.859548154507198 1.6842676987989287 0 0 0
2061 118 2 0.0518 4.1508462002222295 8.33621028353364 3.831948806323036 0 0 0
2052 118 3 -0.0182 4.583841429673873 9.0206554428484 3.1639794527557576 0 0 0
2062 118 4 -0.0696 4.48632778420403 10.273096538360512 3.476724417720449 0 0 0
2050 118 2 0.1237 6.053942243437703 8.506392190082245 0.7224864612641116 0 0 0
3212 190 2 0.1403 8.814127591434566 8.736105075396347 -2.415511826845721 1 0 0
796 39 2 0.1403 12.733220928389995 7.830317726444612 -1.4460994366025999 1 0 0
43 1 1 0 12.01992913923516 4.840713513811951 -2.075768379356859 -1 0 0
20 1 1 0 12.049869019830023 4.887071323012802 0.5167904642745684 -1 0 0
23 1 1 0 10.690962331709827 4.759033713731821 -1.5113065154662861 -1 0 0
21 1 1 0 10.724779337628288 4.805431245704745 -0.12249526200854945 -1 0 0
48 1 1 0 9.48993928326113 4.819603903176394 -2.2359389110800176 -1 0 0
171 1 1 0 6.85329203774037 4.733193548961905 -2.1754387409933624 0 0 0
26 1 1 0 9.419628228083885 4.820408635434807 0.5218728049307023 -1 0 0
28 1 1 0 8.145773900708146 5.02068368461397 -0.14255054738673192 -1 0 0
30 1 1 0 8.20914039541787 4.888618536523462 -1.5181682515067039 -1 0 0
151 1 1 0 5.584463451031321 4.726746409321861 -1.5150984602582847 0 0 0
148 1 1 0 6.8597104695665845 4.977192399126585 0.5663642006298248 0 0 0
149 1 1 0 5.577975167062726 4.922148393798189 -0.11724157328675448 0 0 0
17 1 1 0 12.060159267517149 4.605167782609308 1.8541256181402899 -1 0 0
22 1 1 0 10.753833120758715 4.326230305548798 2.4424347084854907 -1 0 0
24 1 1 0 9.413537023686022 4.649477319269445 1.9554902970684283 -1 0 0
29 1 1 0 8.12565331148721 4.346785075069003 2.553708646518453 -1 0 0
150 1 1 0 5.553051399884657 4.3306911690244325 2.511730489431931 0 0 0
145 1 1 0 6.818082959972821 4.5580947726647505 1.8886696241022445 0 0 0
3201 190 1 -0.129 7.561693659337484 9.078062469154457 -4.044299182264275 1 0 0
3211 190 1 -0.1734 8.018040862212338 9.404786727469306 -2.7563322313542256 1 0 0
2766 162 4 -0.0696 8.216116561494808 9.949958864073626 2.59313110772806 1 0 0
2756 162 3 -0.0182 9.45491211692507 9.678527736769214 2.8041144751157163 1 0 0
553 24 1 -0.1134 -1.4248767487220095 7.939926623634814 2.1708119769404775 0 0 0
554 24 2 0.1288 -0.8151084882391619 7.0618333987589015 1.8859354101791213 0 0 0
2767 162 2 0.0354 7.65734790422426 9.639272827748691 1.6978564208476772 1 0 0
3205 190 1 -0.129 5.802189590624818 10.679488670632903 -3.8324897445546897 1 0 0
2056 118 2 0.1403 1.3782016764766352 9.483266927366914 -0.148562349667549 0 0 0
3207 190 1 -0.1734 6.362264025035306 10.970389514428906 -2.579152600321899 1 0 0
3208 190 2 0.1403 5.908867379399358 11.688634350684717 -1.858588822425475 1 0 0
2058 118 2 0.1288 2.6080973886579932 8.438369535801403 -1.8597907876766624 0 0 0
3209 190 1 -0.1134 7.43957229116582 10.343643216966472 -1.9069210329257646 1 0 0
287 7 2 0.0354 -1.0523429491138154 10.974565533630178 -1.2590291959835773 1 0 0
288 7 2 0.0354 0.2206699200174108 12.41624702758283 -0.9615569593922123 1 0 0
286 7 4 -0.0696 -0.8109274573162638 12.117122761145437 -1.193134678532892 1 0 0
3135 185 2 0.0354 9.232706965271902 12.314828860881983 -3.3417603381433327 -1 0 0
2455 143 1 -0.1734 6.412860067509458 14.511591129364952 0.0736509369736554 0 0 0
2456 143 2 0.1403 7.280876451443047 14.188594012502682 -0.5896604352431847 0 0 0
278 7 2 0.1237 -0.8341514488348322 13.00555997619801 1.4835671274227067 1 0 0
2457 143 1 -0.1134 6.166181861527392 15.782510598263174 0.6141175510896988 0 0 0
2458 143 2 0.1288 6.995072476029758 16.479549297224462 0.7127811047323295 0 0 0
2064 118 2 0.0354 5.052463353505212 11.121787175072777 2.952354093698084 0 0 0
2454 143 2 0.1237 5.447383494649906 12.618494442788407 -0.324494779354505 0 0 0
2453 143 1 -0.129 5.270046561702926 13.715335011105958 0.09550998227904423 0 0 0
794 39 2 0.1288 11.454943273105595 9.742512316045426 -0.29757338578902354 1 0 0
792 39 2 0.1403 10.487073529170775 11.375084971270281 -1.8596022055298997 1 0 0
793 39 1 -0.1134 11.701811575411035 9.682631111670903 -1.413784940556868 1 0 0
791 39 1 -0.1734 11.21749839124328 10.692075713942192 -2.2243469994313214 1 0 0
795 39 1 -0.1734 12.465060166618771 8.704634075963995 -2.08153293000242 1 0 0
3133 185 2 0.0518 9.995143579384402 14.15686610670918 -4.3792811751388765 -1 0 0
276 7 3 -0.0182 -1.756719134753345 13.024541585315077 -1.3121152097427766 1 0 0
285 7 2 0.0518 12.739297318631905 12.762620326820818 -1.4682459384213074 0 0 0
2860 168 2 0.1403 7.470019331942536 11.715089693371407 1.3640702646010765 0 0 0
546 24 2 0.1237 -2.0237939976236894 10.994953864509531 1.039828725064492 0 0 0
3124 185 3 -0.0182 9.401517648693627 14.286415877215523 -3.5052602078395174 -1 0 0
3123 185 1 0.0266 9.610946448904011 15.641663669628272 -2.840043024898286 -1 0 0
556 24 2 0.1403 -0.8569986556309431 9.045259042609597 0.428129884562462 0 0 0
555 24 1 -0.1734 -1.368192544772913 9.067360736034336 1.3617728201850436 0 0 0
2851 168 1 0.0266 7.143457511142366 14.15586114271474 3.6859963263561872 0 0 0
2849 168 1 -0.129 6.917498744555226 12.917323576642325 3.13392456625539 0 0 0
2850 168 2 0.1237 5.978385692932267 12.40006181358443 3.515113049742346 0 0 0
2765 162 2 0.0518 10.029982978810828 9.288097521612587 1.9450928865994037 1 0 0
2856 168 2 0.1403 9.580464774158157 15.246616112434245 1.4459156664487187 0 0 0
2855 168 1 -0.1734 8.889977808344566 14.672412567984546 1.9592567764797848 0 0 0
2857 168 1 -0.1134 8.618255305989496 13.38690445698765 1.40116098854515 0 0 0
2858 168 2 0.1288 9.265752941543814 13.172891464016312 0.5239093980195059 0 0 0
2859 168 1 -0.1734 7.577045140083783 12.586198907841386 1.9588798596214394 0 0 0
545 24 1 -0.129 -2.127425423691148 10.203258181480892 1.7097494072519603 0 0 0
949 49 1 -0.129 0.9533280548300446 13.21826755501508 -4.438028279414716 2 0 0
946 49 2 0.1237 3.1200841894360365 11.574746806453954 -2.3453287211272946 2 0 0
947 49 1 0.0266 2.117386247565832 13.095601272507997 -3.530048512140745 2 0 0
3134 185 4 -0.0696 9.043028242729134 13.21356430297771 -2.8170576993810745 -1 0 0
3136 185 2 0.0354 8.69617781090904 13.045203703204892 -1.7821067934334403 -1 0 0
960 49 2 0.0354 1.2869915291352574 14.96533685459731 -1.7562423215558065 2 0 0
958 49 4 -0.0696 2.0687160206036066 15.14964262454271 -2.49236736136528 2 0 0
959 49 2 0.0354 2.098042249237632 16.19006150101628 -2.6599668078358265 2 0 0
950 49 2 0.1237 0.7607934965496084 14.298835602716935 -4.863452602408204 2 0 0
948 49 3 -0.0182 2.9697191605208597 14.24694609549998 -2.896888858798791 2 0 0
957 49 2 0.0518 3.777267521874293 14.59449300916279 -3.636778005745692 2 0 0
279 7 1 -0.1734 -0.6610490773909741 15.083842585870824 1.7595879161700905 1 0 0
281 7 1 -0.1134 -0.7267044310471902 16.401981456806187 1.264332252601422 1 0 0
282 7 2 0.1288 -0.5309337726414153 17.205558126146954 2.004750123900708 1 0 0
277 7 1 -0.129 -0.9513852631565687 14.000896572266052 0.9331855614382619 1 0 0
275 7 1 0.0266 -1.4379739050190037 14.142444021742325 -0.37157252818680153 1 0 0
3349 199 1 -0.129 5.497753441842197 21.841585661923904 -2.3759030181491108 0 0 0
2614 153 2 0.1237 1.8611783010998524 19.014897459165926 -2.3013478195799935 1 -1 0
3360 199 2 0.0354 5.489720859116513 21.79442494955873 1.0730862145137536 0 0 0
2621 153 2 0.0518 -1.2360545547210064 19.21540779310825 -2.5230287481016545 1 -1 0
2612 153 3 -0.0182 -0.8147971780636573 20.1557192220314 -2.193681539987064 1 -1 0
280 7 2 0.1403 -0.5656637031217435 15.004745545926786 2.8395279635078405 1 0 0
3126 185 2 0.1237 10.998307546045298 14.82562996994339 -1.4647389362460848 -1 0 0
3125 185 1 -0.129 10.542125732572567 15.774005007471223 -1.8166361589834428 -1 0 0
274 7 2 0.1237 -2.199092207993067 15.71572293177844 -1.7522654346975988 1 0 0
273 7 1 -0.129 -1.6757755535063839 15.417517028303516 -0.7894463679882187 1 0 0
3129 185 1 -0.1134 10.173532392799958 18.097406742294407 -1.8339522892389106 -1 0 0
3128 185 2 0.1403 11.685627666849589 17.090253061323175 -0.6151606170663309 -1 0 0
3127 185 1 -0.1734 10.929987785455143 17.0321231160444 -1.3045879735718504 -1 0 0
283 7 1 -0.1734 -1.3839196630074233 16.512522368911604 0.06630243523249431 1 0 0
284 7 2 0.1403 -1.5536983982774324 17.449502993528505 -0.36752904642764 1 0 0
2074 119 2 0.1288 -1.1226275740424854 21.9205277662383 3.1358677634882515 1 0 0
2073 119 1 -0.1134 -2.003567283076302 21.319062978820106 3.0458821872195854 1 0 0
2072 119 2 0.1403 12.090207723629092 22.850570770546007 2.301690597049364 0 0 0
2071 119 1 -0.1734 12.340592400573808 21.823147711274 2.450137756693067 0 0 0
2069 119 1 -0.129 11.267011728983844 20.9753646223733 2.24499635206164 0 0 0
2070 119 2 0.1237 10.224614554980944 21.203976948536805 2.153767480031599 0 0 0
3345 199 1 -0.129 6.243614897024851 19.655356157389782 -1.7049264710210552 0 0 0
3346 199 2 0.1237 6.546790049097453 18.93508447620129 -0.8838887169262395 0 0 0
3347 199 1 0.0266 6.1099080639547365 21.03631674447399 -1.467838943935902 0 0 0
2075 119 1 -0.1734 -1.9100925440611713 19.963844660760174 3.2592899454883515 1 0 0
2076 119 2 0.1403 -1.001226877277674 19.49535579650088 3.711768000492901 1 0 0
2287 132 2 0.0354 -0.2135689349131969 -26.136484251817272 -1.8011336929262036 1 1 0
2286 132 4 -0.0696 0.1561196250760591 25.954406595840364 -2.754413173618205 1 0 0
1535 85 2 0.0354 0.1447850145614418 25.229471281065646 1.642765947195755 1 -1 0
1534 85 4 -0.0696 -0.6541743181998498 25.164919709706847 0.9391261784552758 1 -1 0
1005 52 2 0.0518 3.102413951746972 22.673881815364975 2.0591110702657356 0 -1 0
3359 199 2 0.0354 7.02026403829791 20.836998491105724 1.636831565865399 0 0 0
3358 199 4 -0.0696 6.486010157360256 21.407204737080868 0.8378905204868529 0 0 0
995 52 1 0.0266 4.175924539018991 24.055292801262997 1.0671762352510994 0 -1 0
2624 153 2 0.0354 0.16324047381718987 21.946203194139354 -2.8495789618699034 1 -1 0
2615 153 1 -0.1734 2.33704380667751 18.723136126508468 -0.4103109985362631 1 -1 0
2616 153 2 0.1403 3.2992737058318404 18.15410840405209 -0.6154570964959607 1 -1 0
2617 153 1 -0.1134 2.0802719305535584 19.072113560342242 0.9023849068187595 1 -1 0
997 52 1 -0.129 5.120136678784321 24.283395683561846 2.102737796277121 0 -1 0
998 52 2 0.1237 4.902919009004443 23.90654720503116 3.107608557302332 0 -1 0
1000 52 2 0.1403 6.904442199577117 24.907402028960338 2.8300507120643603 0 -1 0
999 52 1 -0.1734 6.352585995339391 24.8662345086624 1.8423791926603283 0 -1 0
3350 199 2 0.1237 5.405128018981072 22.879835439246765 -2.072082244426428 0 0 0
2613 153 1 -0.129 1.3772180089708776 19.000251378211594 -1.3274301821281098 1 -1 0
2619 153 1 -0.1734 0.9718022708225904 19.880275726511993 1.2689082675619328 1 -1 0
2622 153 4 -0.0696 -0.13541865125994795 20.943573753352528 -2.9994944777049177 1 -1 0
2620 153 2 0.1403 0.8084411500509616 20.127603546447045 2.3047527063796607 1 -1 0
2611 153 1 0.0266 0.2247874652189692 19.840437739931463 -1.0737881186427094 1 -1 0
2610 153 2 0.1237 -0.8796470491473851 20.63011989353459 0.4535036978092686 1 -1 0
2609 153 1 -0.129 0.02621186192051031 20.088783636071433 0.27333085372233823 1 -1 0
1536 85 2 0.0354 -0.8841291598831755 -26.13442197166384 0.6936133735482951 1 0 0
1533 85 2 0.0518 -0.7696428320010283 22.93836632917859 0.49905692687030045 1 -1 0
1524 85 3 -0.0182 -1.0153488181721764 23.982349801736472 0.25587953409422304 1 -1 0
996 52 3 -0.0182 2.8550616649427623 23.46040447832593 1.3566186885886047 0 -1 0
1006 52 4 -0.0696 2.015755386152705 23.469382566363816 0.3402084647976535 0 -1 0
994 52 2 0.1237 3.861513412171543 24.09261037545023 -1.0814126550255805 0 -1 0
1522 85 2 0.1237 12.571216440424696 26.15344928547189 0.7040848670001668 0 -1 0
1521 85 1 -0.129 12.240126222433336 25.263279315611793 0.16023839197985745 0 -1 0
1532 85 2 0.1403 10.352175342240022 26.030524758023663 0.3508989186761702 0 -1 0
1531 85 1 -0.1734 10.913844229101962 25.188571002754525 -0.033934427966704865 0 -1 0
3348 199 3 -0.0182 7.074399824822271 21.512589189963908 -0.34939608529394167 0 0 0
3357 199 2 0.0518 8.117552039476227 21.198570921163054 -0.46549499090782753 0 0 0
1679 94 2 0.0354 11.171290457935601 25.143089003161265 3.9499380873429026 -1 -1 0
993 52 1 -0.129 4.564061437435763 24.396461682928155 -0.2162684389024217 0 -1 0
1523 85 1 0.0266 13.003529197476631 24.12470881718132 -0.10913854292288926 0 -1 0
1526 85 2 0.1237 13.097040743337969 22.237688251277326 -1.044082600698599 0 -1 0
1527 85 1 -0.1734 11.12167690930904 23.036591901706366 -1.100858335299304 0 -1 0
1525 85 1 -0.129 12.426890817561057 23.003208566454646 -0.6354445320063071 0 -1 0
1528 85 2 0.1403 10.66848219966629 22.329272772748904 -1.7746888351986492 0 -1 0
1529 85 1 -0.1134 10.298809068554514 24.067532802721725 -0.641870994331128 0 -1 0
1530 85 2 0.1288 9.286369858940175 24.263056006730682 -0.9759994529882133 0 -1 0
1678 94 4 -0.0696 10.144238868453431 24.739462559189334 3.9819444359054783 -1 -1 0
1680 94 2 0.0354 9.271171714034343 25.458989178509697 4.0921370612622106 -1 -1 0
1874 107 2 0.1237 11.954590709632226 -21.078568367619322 3.623200784980568 -1 0 0
527 22 2 0.0354 6.978997572646519 -24.219902510144255 1.470494393453334 1 0 0
904 46 2 0.1403 0.8348765776297269 -20.5473888001024 2.518132796799182 0 0 0
2490 145 2 0.1288 3.3650275371238356 -24.745470368971016 5.799451403290216 1 0 0
2487 145 1 -0.1734 2.3617384271458017 -26.147021391784246 4.407201480267208 1 0 0
2488 145 2 0.1403 2.894875800267855 -25.617534859235924 3.613840177827818 1 0 0
1875 107 1 0.0266 -2.2785943266860436 -22.04348003630381 5.272635115389658 0 0 0
1882 107 2 0.1288 12.230247309891345 -25.199114474940796 3.397440499728914 -1 0 0
1881 107 1 -0.1134 12.631672148480206 -24.3764880993816 3.8964666615704266 -1 0 0
1873 107 1 -0.129 12.567173697887887 -21.94373714680369 4.01398171868855 -1 0 0
1883 107 1 -0.1734 12.38048638808766 -23.102809455766884 3.3240176626869355 -1 0 0
1884 107 2 0.1403 11.774304496582424 -23.1003213220136 2.351322857554368 -1 0 0
528 22 2 0.0354 7.6621601141445055 -23.367198276546233 0.05952291002621305 1 0 0
526 22 4 -0.0696 6.958253097399705 -23.336811003392413 0.8467848036689747 1 0 0
2492 145 2 0.1403 2.3127018093335034 -25.74925963956726 7.773883749200218 1 0 0
2489 145 1 -0.1134 2.694141594239426 -25.5780633801831 5.693482385278506 1 0 0
2491 145 1 -0.1734 2.1283042337858147 26.07454834242134 6.830144911231095 1 -1 0
1296 70 2 0.0354 1.9388895793725875 -22.26649453032778 3.7110759561852245 1 0 0
1294 70 4 -0.0696 2.932199945023756 -22.442707967535757 4.093340634201751 1 0 0
1295 70 2 0.0354 3.4804378011744137 -23.148931648278342 3.548985450281875 1 0 0
520 22 2 0.1403 8.710625963841592 -18.57921854297841 0.9428155189308494 1 0 0
519 22 1 -0.1734 7.969834936740381 -19.14259444595353 1.471892512186821 1 0 0
521 22 1 -0.1134 7.817602984571375 -18.78484631630406 2.838238228749173 1 0 0
1888 107 2 0.0354 13.115532465431738 -21.721395748799758 8.188174950630325 -1 0 0
1877 107 1 -0.129 -1.8276055450289086 -23.251672483002327 5.817558545512339 0 0 0
1880 107 2 0.1403 -1.7076143898043925 -25.36474488651078 5.521270721088646 0 0 0
1879 107 1 -0.1734 -2.028302501244697 -24.43066571150296 5.017222362169088 0 0 0
1314 72 2 0.1237 7.14242129480122 -24.76795135563225 11.070231836829242 0 0 0
1324 72 2 0.1403 8.50961299048354 -23.200337887426816 9.8276204180561 0 0 0
1315 72 1 0.0266 5.919992322800571 -25.445967258668254 9.334991294823562 0 0 0
1317 72 1 -0.129 5.544862387885962 -25.1003110488936 8.010463514483476 0 0 0
1313 72 1 -0.129 6.884238315063615 -24.647561372288013 9.94575077062341 0 0 0
1321 72 1 -0.1134 7.545452643540894 -23.663589161936542 7.900368630039889 0 0 0
1323 72 1 -0.1734 7.7417256247470645 -23.852696734501425 9.250042817980397 0 0 0
1322 72 2 0.1288 8.176123494510794 -23.04905726281041 7.239337074076995 0 0 0
1319 72 1 -0.1734 6.405004978851901 -24.216767732971714 7.379580723623666 0 0 0
1320 72 2 0.1403 6.003234382975857 -24.04161962376398 6.361492651095903 0 0 0
1878 107 2 0.1237 -1.0223628158060298 -23.319709645836284 6.588467155129661 0 0 0
1820 103 2 0.1403 11.7155265054927 21.952268986593783 7.261001652356029 -2 -1 0
1885 107 2 0.0518 -2.2518221622328762 -20.081718699410477 5.573669955085776 0 0 0
1876 107 3 -0.0182 -2.068153043637037 -20.94171827242654 6.214035617013041 0 0 0
3158 187 2 0.1237 12.472515654755329 -18.234449668912422 1.6007353920749117 -1 0 0
3159 187 1 -0.1734 -1.501715862235423 -17.318358636570437 2.7860554012554397 0 0 0
3160 187 2 0.1403 -1.58543255970598 -18.33616148441302 3.3732617615447666 0 0 0
886 45 2 0.1237 3.3642188563085274 -19.032649175756095 3.23046254062787 1 0 0
883 45 1 0.0266 2.9667942904380236 -16.91842269599543 4.137401140343407 1 0 0
894 45 4 -0.0696 5.1768156946896005 -16.49461625326635 3.406843235897817 1 0 0
895 45 2 0.0354 5.879961842729183 -15.812770020252945 3.126216766125231 1 0 0
896 45 2 0.0354 5.568822412769717 -17.443685187307867 3.772994430459417 1 0 0
885 45 1 -0.129 2.8278313165591853 -18.301251174352043 3.965312811493013 1 0 0
884 45 3 -0.0182 3.8663794540306697 -16.169988473982265 3.2563739434139807 1 0 0
1622 91 2 0.1237 -1.739951891508097 -15.541337536619464 4.881842723167204 1 0 0
1621 91 1 -0.129 -2.0967523866698388 -15.241360606797725 5.863946350783564 1 0 0
887 45 1 -0.1734 1.9940316195876824 -19.077609035757494 4.752955806753488 1 0 0
1624 91 2 0.1403 12.740637545771131 -17.18752666945568 6.517736536127146 0 0 0
893 45 2 0.0518 3.5629967652080836 -15.203675328469489 3.08696695860263 1 0 0
514 22 2 0.1237 5.756356467592948 -21.404830500534743 3.614073420177941 1 0 0
881 45 1 -0.129 2.3857084191284845 -16.32480033561496 5.245921136957457 1 0 0
889 45 1 -0.1134 1.3823627515839456 -18.452364980660647 5.844614857997312 1 0 0
2719 159 2 0.0354 -1.3806924917098964 -15.032861285253897 10.849614088846447 1 0 0
2718 159 4 -0.0696 -0.7588927483155105 -15.894424302946788 10.528360930270237 1 0 0
2720 159 2 0.0354 -1.534670588665944 -16.630415406162047 9.98423618280736 1 0 0
523 22 1 -0.1734 6.922550323736756 -19.620985698047868 3.523100258833434 1 0 0
524 22 2 0.1403 6.519515088020238 -19.44716121561452 4.545614843392761 1 0 0
522 22 2 0.1288 8.395924271714964 -18.00094343004462 3.435067644516007 1 0 0
1887 107 2 0.0354 12.23128739230827 -20.07435459159512 7.5699339167381 -1 0 0
1886 107 4 -0.0696 12.862371015591634 -20.88320548561905 7.398650762139753 -1 0 0
513 22 1 -0.129 6.394044507517382 -20.86275163171571 2.9654611874246597 1 0 0
1623 91 1 -0.1734 12.92554937743765 -16.124611317823074 6.759276997663174 0 0 0
2093 120 2 0.0518 9.205761371623051 -16.974705988138524 4.999143245318544 0 0 0
2086 120 2 0.1237 11.588681501925294 -14.464312505479763 4.888389527795942 0 0 0
2095 120 2 0.0354 7.595782857115712 -15.55835434646878 6.478906519303313 0 0 0
2094 120 4 -0.0696 8.458208078806546 -15.137424814697725 6.0097657154573625 0 0 0
2084 120 3 -0.0182 9.262976081464322 -15.890395511989771 5.291433861995688 0 0 0
2096 120 2 0.0354 8.540181395134654 -14.096511599422767 6.232556304096762 0 0 0
2083 120 1 0.0266 9.653836237060418 -15.123434249776553 4.059000428753075 0 0 0
2085 120 1 -0.129 10.822098839669206 -14.337665283186444 4.136108094000193 0 0 0
891 45 1 -0.1734 1.671377613533867 -17.088843849174086 6.1904129878128265 1 0 0
892 45 2 0.1403 1.0334359960525128 -16.711219902272546 7.023003609355121 1 0 0
882 45 2 0.1237 2.5284741054078412 -15.328143289638138 5.543755132383166 1 0 0
890 45 2 0.1288 0.8804598871590782 -19.096021024563683 6.4663796291874185 1 0 0
1626 91 2 0.1288 12.180800202949332 -16.421133224770692 8.649791285010483 0 0 0
1625 91 1 -0.1134 12.578118757236835 -15.685757644591003 8.027071365823787 0 0 0
1066 56 2 0.1288 10.558395482016298 -17.881369668941357 10.390098848390915 0 0 0
888 45 2 0.1403 1.7767161490881218 -20.14639395272606 4.577644092508251 1 0 0
1629 91 2 0.0518 -1.2930926248221952 -13.191163492993264 4.1725448990396945 1 0 0
1620 91 3 -0.0182 -1.202326768394096 -12.92775958227579 5.24274863195391 1 0 0
1421 78 2 0.0518 4.3823225609837895 -12.107831265423036 6.319148306413311 0 0 0
1411 78 1 0.0266 3.5782930298486617 -10.168806828768568 5.595838638963783 0 0 0
2605 152 2 0.0518 6.871545047255149 -11.00229389589739 9.395063021592854 -2 0 0
3185 189 1 -0.129 -2.071177733410029 -7.832175755477742 5.638115344498537 1 0 0
422 16 2 0.1237 5.36524523597493 -12.433790592010874 2.372079837679824 -1 0 0
1414 78 2 0.1237 4.506950851775898 -10.060428711147315 7.535490047931566 0 0 0
1413 78 1 -0.129 4.02072982318148 -9.435594576572587 6.6777727268156015 0 0 0
1412 78 3 -0.0182 3.5521476475058833 -11.640363288778252 5.707896235287085 0 0 0
1424 78 2 0.0354 1.991607027807756 -11.6177827389065 4.281613008384341 0 0 0
1422 78 4 -0.0696 2.5777612205177634 -12.249016165543244 4.988316177289142 0 0 0
1423 78 2 0.0354 2.1569185813941028 -13.33226444080518 4.88130210314077 0 0 0
421 16 1 -0.129 5.6630319962032845 -11.420806933726242 2.160680384313503 -1 0 0
429 16 2 0.0518 5.042674420575884 -12.710154572116151 -0.19291040201314194 -1 0 0
420 16 3 -0.0182 4.362297817335551 -11.983418257371186 0.1170011462986193 -1 0 0
1630 91 4 -0.0696 -0.5036203712937208 -11.894216545216196 5.582750673185954 1 0 0
1619 91 1 0.0266 -1.7789316459643445 -13.922022474821176 6.245488706941075 1 0 0
1617 91 1 -0.129 -2.0855336176460617 -13.509511806153204 7.507376014233954 1 0 0
1618 91 2 0.1237 -1.760266366450119 -12.547364744981106 7.802134275990348 1 0 0
1632 91 2 0.0354 -0.5311683349672983 -11.574242762578715 6.667276576201396 1 0 0
2088 120 2 0.1403 12.00169888747088 -12.802513583293864 3.0574646454505707 0 0 0
2598 152 2 0.1237 7.339776206893553 -11.68933313702223 5.981071372517673 -2 0 0
2595 152 1 0.0266 8.39214615705524 -11.560675091066862 7.892963798271111 -2 0 0
3186 189 2 0.1237 12.470160183965987 -7.890719495720807 5.988587416050638 0 0 0
2594 152 2 0.1237 9.676928175336576 -11.359910737756707 9.503024711547038 -2 0 0
2597 152 1 -0.129 8.29542392990909 -11.452297499085052 6.520617050376894 -2 0 0
2593 152 1 -0.129 9.597112989919264 -11.279815477880538 8.434761261455732 -2 0 0
2600 152 2 0.1403 9.361841316185892 -11.36892839098645 4.654268831304641 -2 0 0
2599 152 1 -0.1734 9.379364229472076 -11.294423874003408 5.70737510949614 -2 0 0
2602 152 2 0.1288 11.470732791247293 -10.812568463355701 5.589702967116626 -2 0 0
2603 152 1 -0.1734 10.753316524065454 -11.004020373237724 7.680210699745622 -2 0 0
2601 152 1 -0.1134 10.606849547405009 -11.001821282181853 6.274809934633795 -2 0 0
2604 152 2 0.1403 11.534581866969848 -10.577670880817818 8.29233018122831 -2 0 0
1627 91 1 -0.1734 13.05138708715758 -14.41777432230659 8.491504741125217 0 0 0
2114 122 2 0.1237 -2.045097149292891 -10.246615368667523 9.312564337340453 1 0 0
2124 122 2 0.1403 12.417951795803292 -8.161025972216374 10.480982353310651 0 0 0
1628 91 2 0.1403 12.705514747219246 -14.019236050431706 9.469935792508032 0 0 0
3194 189 2 0.1288 1.0481766027745036 -6.606448933402596 6.474268042083241 1 0 0
1420 78 2 0.1403 3.207649429321801 -7.565668556198815 3.4732488225473483 0 0 0
1409 78 1 -0.129 3.5393138476211474 -9.535587901729315 4.357433460177291 0 0 0
1410 78 2 0.1237 2.9751044163777336 -10.034448590712968 3.4609676767309954 0 0 0
3195 189 1 -0.1734 -1.0167524546349616 -7.2877969139605785 6.423879985087986 1 0 0
3193 189 1 -0.1134 0.21009179099901631 -6.890281230839045 5.8745806846128055 1 0 0
3196 189 2 0.1403 -1.1661842828750233 -7.063599089357714 7.5079513490564 1 0 0
78 1 1 0 -0.8645284560038887 -4.207749302021327 3.395712267432947 0 0 0
79 1 1 0 -2.1003992715346946 -3.7585993703789407 3.8998284827035654 0 0 0
75 1 1 0 0.4131682506274333 -3.8887990668396384 4.015915064281541 0 0 0
74 1 1 0 1.7129813036120782 -4.316885013616947 3.4644292112061863 0 0 0
143 1 1 0 3.004015936619289 -3.8972424068246956 4.01844470334603 0 0 0
142 1 1 0 4.3575473650055265 -4.425256240437276 3.555192262203333 0 0 0
3191 189 1 -0.1734 0.4244656044453174 -7.134773838754143 4.540759670022184 1 0 0
1419 78 1 -0.1734 3.5061689313225735 -8.112811869475806 4.370146784363723 0 0 0
1415 78 1 -0.1734 4.0032735099493175 -8.049163785910698 6.765581648637779 0 0 0
1416 78 2 0.1403 4.55661289546599 -7.562590506096475 7.573466448826472 0 0 0
1417 78 1 -0.1134 3.5984072272545182 -7.415232476628369 5.57495820452349 0 0 0
1418 78 2 0.1288 3.631536597865663 -6.266402421882738 5.699070998884098 0 0 0
80 1 1 0 -2.1115364037348705 -2.774056347462231 4.874700956428364 0 0 0
76 1 1 0 0.46374883868438105 -2.860568887167184 4.898079337193975 0 0 0
144 1 1 0 3.0147386874829616 -2.798720533348111 4.85807310166467 0 0 0
2976 175 2 0.0354 4.658081388073492 -0.1860680090382931 10.509932551728063 0 0 0
2968 175 2 0.1403 0.17139767504357073 -2.3642385860163837 8.57883125518299 0 0 0
2967 175 1 -0.1734 1.208938827123795 -2.5720179801650387 8.573949551142716 0 0 0
423 16 1 -0.1734 6.609019375423875 -10.658421755582014 2.7983560269515304 -1 0 0
424 16 2 0.1403 7.209305371075513 -11.106758190389433 3.6316648940408913 -1 0 0
3200 189 2 0.0354 11.11016946465081 -7.48413985542096 3.8622909244045203 0 0 0
10 1 1 0 12.13853936801123 -4.250260909009109 3.477714999680776 -1 0 0
11 1 1 0 10.84858379424723 -3.9075182977265452 4.033868158858403 -1 0 0
14 1 1 0 9.560805081200213 -4.257835700075476 3.487047411720262 -1 0 0
15 1 1 0 8.234596230672656 -3.8551432914144033 3.9823817192360713 -1 0 0
138 1 1 0 6.93953847368717 -4.302653472972821 3.4609715848886817 0 0 0
139 1 1 0 5.660305150269801 -3.8839254491067265 3.9680658656895598 0 0 0
1176 63 2 0.1403 10.154145920162438 -7.41101136663079 6.22811449585225 -1 0 0
1180 63 2 0.1403 6.035850859006323 -6.5735203748983535 5.379536793841075 -1 0 0
1178 63 2 0.1288 8.032140085528495 -8.12930657029048 5.33226720566492 -1 0 0
1177 63 1 -0.1134 8.084488191289664 -7.096514066329615 5.845677394208508 -1 0 0
1175 63 1 -0.1734 9.29137809355726 -6.752241866875473 6.3911457012150485 -1 0 0
1179 63 1 -0.1734 6.985023397275938 -6.27787474960727 5.90733384683415 -1 0 0
12 1 1 0 10.79438254721547 -2.8738857084393787 4.932948931876786 -1 0 0
1171 63 1 0.0266 8.096153010905004 -4.857966451007611 7.466776467912266 -1 0 0
16 1 1 0 8.227432667850376 -2.70597562345097 4.768379385893368 -1 0 0
140 1 1 0 5.607640123239093 -2.7772036132850624 4.844040968113561 0 0 0
1169 63 1 -0.129 6.901157823598855 -5.299028167027942 6.8870681107276575 -1 0 0
1182 63 4 -0.0696 8.295394635975827 -2.6446902229532134 8.651462343815666 -1 0 0
1184 63 2 0.0354 9.21221586863315 -2.4408456546422395 8.180835235806555 -1 0 0
1170 63 2 0.1237 6.077205274813048 -4.510691358353762 6.865847276723889 -1 0 0
1183 63 2 0.0354 7.737043438905629 -1.7908328062315584 9.100810148233187 -1 0 0
77 1 1 0 -0.826501353421421 -2.2262627845929086 5.309364492159955 0 0 0
73 1 1 0 1.7412519803852997 -2.250912540986278 5.111979444717505 0 0 0
141 1 1 0 4.299869243214853 -2.2516141130318768 5.192277503357694 0 0 0
2966 175 2 0.1237 2.174750084871905 -0.5650793744739707 8.31447615248368 0 0 0
69 1 1 0 -0.8658944877967539 -0.8571645484586483 5.591926304615591 0 0 0
65 1 1 0 1.7286720022094288 -0.9145194734730415 5.454312168627977 0 0 0
91 1 1 0 -2.134047822374439 3.420308130235136 3.4910980794637227 0 0 0
83 1 1 0 0.4356542833241269 3.4211656823106336 3.488211481553129 0 0 0
71 1 1 0 -2.1453260398462524 -0.18409735647511488 5.401808907861285 0 0 0
72 1 1 0 -2.1242911936314117 1.1431050840877668 4.964343915631439 0 0 0
66 1 1 0 0.44631887924432306 -0.2451309043087191 5.383366839228936 0 0 0
68 1 1 0 0.4686927115094348 1.0485930856466759 4.8395481434726335 0 0 0
70 1 1 0 -0.8341894173701647 1.6990415676481205 4.642141188205009 0 0 0
89 1 1 0 -0.8291410615651206 2.906375561706858 3.8944352141776393 0 0 0
67 1 1 0 1.7516733092259495 1.6995560667266687 4.6779043827417 0 0 0
82 1 1 0 1.7317103145776558 2.8738549813926566 3.897505430687739 0 0 0
155 1 1 0 3.027096673918697 3.3435157089421312 3.494309630680686 0 0 0
135 1 1 0 3.059625208248635 -0.2869309025045317 5.331921953007469 0 0 0
136 1 1 0 3.04431324593063 1.0832957033902824 4.959224648954378 0 0 0
133 1 1 0 4.354346982841917 -0.9029885218941811 5.450158849191193 0 0 0
134 1 1 0 4.369254937700202 1.6441866881221618 4.668320720063084 0 0 0
153 1 1 0 4.300204705976495 2.8363269133734215 3.9023027462369186 0 0 0
3150 186 4 -0.0696 3.2987969201579426 2.8146624575957824 8.019225790528774 0 0 0
832 41 2 0.0354 -0.7318859098582076 1.2909700272589333 7.268364320263463 0 0 0
2975 175 2 0.0354 6.269391926716318 -0.4508033626183468 9.974334694890448 0 0 0
3140 186 3 -0.0182 4.612933729276007 2.890100785449747 8.095573582768436 0 0 0
3151 186 2 0.0354 2.792748216608974 2.1108264531147096 7.330458004374282 0 0 0
831 41 2 0.0354 -1.115820965861825 0.6098886432903884 8.981766921895467 0 0 0
830 41 4 -0.0696 -0.7583606820002172 1.4475229839117825 8.377188813104496 0 0 0
829 41 2 0.0518 -0.23124884150225605 2.8587074940444968 9.818118893154358 0 0 0
820 41 3 -0.0182 -0.44767089368816354 2.642146277614413 8.754593938417518 0 0 0
9 1 1 0 12.087350316931259 -2.204673990319463 5.21621880824154 -1 0 0
13 1 1 0 9.531062674662586 -2.1568564094376934 5.021750303198486 -1 0 0
137 1 1 0 6.908399080729223 -2.1720741477629257 5.144489975892645 0 0 0
1 1 1 0 12.052362981285492 -0.8254067811783279 5.462470912363423 -1 0 0
3 1 1 0 12.126562515331962 1.7273833581709177 4.6369030169842445 -1 0 0
18 1 1 0 12.082925024484405 2.891090711846634 3.9403471083156694 -1 0 0
19 1 1 0 10.821560208239138 3.379058463763552 3.481073901879046 -1 0 0
2 1 1 0 10.833810975704397 -0.1619044242860614 5.332467403167988 -1 0 0
4 1 1 0 10.80129545930654 1.1503659883451474 4.931991013948371 -1 0 0
5 1 1 0 9.545693807223005 -0.8131087111410646 5.42730543698484 -1 0 0
129 1 1 0 6.93538770684057 -0.8229795849973571 5.439625714620389 0 0 0
6 1 1 0 9.528742232611965 1.7114366466516702 4.729094574723847 -1 0 0
25 1 1 0 9.52461011864086 2.875674359362491 3.907223147083796 -1 0 0
27 1 1 0 8.20007896692421 3.3429436688516394 3.4904787982289087 -1 0 0
147 1 1 0 5.528501017044875 3.3774651388627492 3.5134722161800704 0 0 0
8 1 1 0 8.206254746901225 1.1852522502147298 5.062702545457357 -1 0 0
7 1 1 0 8.195811216032887 -0.16309444954192856 5.4621780482172735 -1 0 0
130 1 1 0 5.609198225525319 -0.23735695213333324 5.398904476000879 0 0 0
132 1 1 0 5.6484114695398 1.1210121849360426 5.0210869438861145 0 0 0
131 1 1 0 6.900084704045701 1.766284772088714 4.753257908299484 0 0 0
146 1 1 0 6.863391324728174 2.8495759103798313 3.9257302554149227 0 0 0
1272 69 2 0.1403 8.970549090696844 2.4102149068508885 8.355594926990504 -1 0 0
1280 69 2 0.0354 10.782491218305502 -2.676695038608515 8.979194628796384 -1 0 0
1274 69 2 0.1288 7.33758166006481 1.9025356257146708 10.43315794110254 -1 0 0
1273 69 1 -0.1134 8.220188409746822 1.2563120914813286 10.097885923916756 -1 0 0
822 41 2 0.1237 12.300743636396028 3.1529572451607333 8.65576278954518 -1 0 0
3149 186 2 0.0518 5.191683426649433 2.1167870877094828 7.644064597783028 0 0 0
3138 186 2 0.1237 3.5618058894140106 5.36784312864886 7.807310064934332 0 0 0
3147 186 1 -0.1734 5.254921373753147 6.468427085837388 7.059138958752826 0 0 0
3137 186 1 -0.129 4.585013648218573 5.32023106503731 7.4377809328533955 0 0 0
2063 118 2 0.0354 4.0235053255406354 10.654581772171689 4.355362256445148 0 0 0
3148 186 2 0.1403 4.737567289990209 7.357146045319593 7.260770668684266 0 0 0
2568 150 2 0.1403 1.4333851298768723 7.40134267747852 3.988359873669412 0 0 0
2570 150 2 0.1288 3.083770010085773 6.532906848908074 5.806531945364158 0 0 0
819 41 1 0.0266 -1.1114784032681846 3.7284682222814216 8.05847036218582 0 0 0
2567 150 1 -0.1734 1.5018035947780506 7.851623363713059 5.016373285475632 0 0 0
2565 150 1 -0.129 0.5106150865051422 8.889453170179019 5.222074826383871 0 0 0
2566 150 2 0.1237 -0.014865844850623595 9.411720859067755 4.449138355260189 0 0 0
2569 150 1 -0.1134 2.303041046240572 7.353276202650514 6.094585178231793 0 0 0
2571 150 1 -0.1734 2.016249804865106 7.709259453115335 7.4027535965380675 0 0 0
2572 150 2 0.1403 2.4937318151167602 7.33586717725322 8.304942799707835 0 0 0
2563 150 1 0.0266 0.26581448312243583 9.278087209747643 6.573306193699009 0 0 0
2561 150 1 -0.129 0.8935280825110203 8.513446132764189 7.642315600325822 0 0 0
2562 150 2 0.1237 0.5901121918536937 9.02510914425011 8.58849176775604 0 0 0
3141 186 1 -0.129 6.597196179997327 4.129663160290244 7.302010797762235 0 0 0
3139 186 1 0.0266 5.182464228861612 4.158436229961641 7.5087738252719145 0 0 0
821 41 1 -0.129 12.987470226173064 3.7780788099791973 8.024401919335796 -1 0 0
823 41 1 -0.1734 12.27749855511489 4.650230669707633 7.228539909608959 -1 0 0
824 41 2 0.1403 11.13934635167279 4.614577821566568 7.13716274442575 -1 0 0
825 41 1 -0.1134 13.015162082245805 5.514034435135125 6.4394730762892625 -1 0 0
826 41 2 0.1288 12.495918587275312 6.416416522339279 5.98971908347325 -1 0 0
2768 162 2 0.0354 7.568505907747762 10.319357799333709 3.482374095732112 1 0 0
2755 162 1 0.0266 9.477163508828982 8.957496862371576 4.184036840001698 1 0 0
2753 162 1 -0.129 9.73384044289584 7.536568236800211 4.193543647944741 1 0 0
2754 162 2 0.1237 9.621153513936939 6.85605018799744 3.317765557498189 1 0 0
3145 186 1 -0.1134 6.613662577958748 6.477524684743942 6.898495699205197 0 0 0
3143 186 1 -0.1734 7.32203951359204 5.288318171226038 7.104060686683381 0 0 0
3144 186 2 0.1403 8.516253340281855 5.2484408102607905 7.075513735052062 0 0 0
3146 186 2 0.1288 7.1488857498974125 7.412723801205837 6.5889971040165785 0 0 0
2759 162 1 -0.1734 9.583457903015493 8.99500214373688 6.64999393887752 1 0 0
2761 162 1 -0.1134 9.968239489276199 7.594749871852755 6.617322510526845 1 0 0
2763 162 1 -0.1734 9.915130065939904 6.836591112157491 5.4472042016597335 1 0 0
2764 162 2 0.1403 10.116153464079144 5.713481697593507 5.392670784600998 1 0 0
552 24 2 0.1403 -1.9553697263796164 7.156184706828232 4.021119664696275 0 0 0
551 24 1 -0.1734 -2.086592212165962 8.019922951446466 3.372231691732429 0 0 0
3142 186 2 0.1237 7.14753261289576 3.1823678451594417 7.222070333921886 0 0 0
2762 162 2 0.1288 10.442786234114267 7.094246422806282 7.562881300926273 1 0 0
2863 168 2 0.0354 4.492168060820081 14.40504812364098 5.236455349255675 0 0 0
2464 143 2 0.0354 2.420338817948663 12.80883424125934 2.533231847843079 0 0 0
2461 143 2 0.0518 2.6941760971458457 12.828314228407987 -0.5639167840237975 0 0 0
2452 143 3 -0.0182 2.8401771202062127 13.074136285946661 0.5281595119693977 0 0 0
2462 143 4 -0.0696 2.2897717213445903 12.420799354366965 1.4862994803806184 0 0 0
2463 143 2 0.0354 1.8767809350451758 11.401147458208122 1.4890281466293374 0 0 0
2451 143 1 0.0266 4.0133215448584405 14.063755349518258 0.6743885121624518 0 0 0
1343 73 2 0.0354 1.7300224136701943 14.862945219577725 5.903239364401991 0 -1 0
2450 143 2 0.1237 2.825716319082851 15.652511927202474 1.5454556352212225 0 0 0
2449 143 1 -0.129 3.893760702120783 15.360170022053973 1.1617272874388636 0 0 0
1342 73 4 -0.0696 1.5677633337361339 15.710798416740667 6.554343058083279 0 -1 0
2576 150 2 0.0354 0.48435730091292717 11.689838651444703 5.467757386944916 0 0 0
333 10 2 0.0518 12.522393603304616 12.134877599742545 7.300406297884163 0 0 0
335 10 2 0.0354 12.00781775680914 10.065133400890131 8.31544916571446 0 0 0
2459 143 1 -0.1734 4.94949052593722 16.18544254626739 1.1280649933034745 0 0 0
1341 73 2 0.0518 1.6345128734812213 14.728023855560696 8.499027756677734 0 -1 0
2574 150 4 -0.0696 0.04052269868267422 11.512115632059984 6.389511363316354 0 0 0
2575 150 2 0.0354 0.29265152307719816 12.325624809470147 7.093985465160487 0 0 0
922 47 2 0.1288 4.637376852307784 11.72315685147713 6.281582206415764 0 0 0
920 47 2 0.1403 6.178202802586325 9.546172955309688 6.260197357177733 0 0 0
557 24 2 0.0518 11.13889070291286 11.66839075674861 3.2718313416863958 -1 0 0
2862 168 4 -0.0696 5.215038948916338 14.941517264023851 4.616222399072902 0 0 0
2864 168 2 0.0354 4.811432494340906 15.21039803730955 3.64574344096556 0 0 0
2758 162 2 0.1237 8.87269946871093 10.556364597756657 5.409077073266812 1 0 0
2757 162 1 -0.129 9.358052817721003 9.592961839722818 5.384157158860381 1 0 0
2854 168 2 0.1237 8.104353826512323 16.048180104700595 3.4649652741207557 0 0 0
2853 168 1 -0.129 8.075076103366017 15.032136987501675 3.0446282570570964 0 0 0
2861 168 2 0.0518 6.939091595574332 14.316744579112191 5.896190489035894 0 0 0
2852 168 3 -0.0182 6.5011831511032545 14.814322767082553 4.9378943528153805 0 0 0
560 24 2 0.0354 -1.683921183528692 12.298065685216125 4.259131045256094 0 0 0
558 24 4 -0.0696 12.83835294427992 12.279627871674117 4.274957064507225 -1 0 0
559 24 2 0.0354 12.438611354976578 12.745811025436792 5.196153085503372 -1 0 0
549 24 1 -0.129 12.944064430006778 9.235714039910372 3.860902834455405 -1 0 0
550 24 2 0.1237 12.333100736337311 9.355664131205332 4.805161590105798 -1 0 0
547 24 1 0.0266 12.861421799867792 10.316209992548147 2.9646755845919315 -1 0 0
548 24 3 -0.0182 12.182790716017127 11.631503586580767 3.328748031794762 -1 0 0
321 10 1 -0.129 9.885521307879685 12.808322154357715 7.898471483521253 0 0 0
323 10 1 0.0266 11.09135355610913 12.764888221125359 8.686803663342593 0 0 0
324 10 3 -0.0182 12.375553215129738 12.062345302343465 8.28177105071337 0 0 0
322 10 2 0.1237 9.995609802157066 12.207334618685964 6.9054428860560755 0 0 0
334 10 4 -0.0696 12.072332459035037 10.934346805405228 8.8640361630375 0 0 0
332 10 2 0.1403 7.899249132301197 13.576508512634144 7.679707725475584 0 0 0
331 10 1 -0.1734 8.79544539762842 13.637700858744774 8.323210288554202 0 0 0
2760 162 2 0.1403 9.313259119876443 9.452322352557482 7.621981353614971 1 0 0
919 47 1 -0.1734 6.214460356576114 10.314536333245051 7.050674481532859 0 0 0
336 10 2 0.0354 11.953353216255652 10.902178793481337 9.92267662725472 0 0 0
1386 76 2 0.1288 4.85797218659641 19.478319525976975 3.9423474175886506 0 -1 0
1344 73 2 0.0354 1.5628331444702896 16.648739467543965 6.141126638299047 0 -1 0
1385 76 1 -0.1134 4.159344367182244 20.037556745444036 4.622180117886383 0 -1 0
1383 76 1 -0.1734 3.358529702566093 19.25704295891714 5.45832396582729 0 -1 0
1388 76 2 0.1403 5.082362870411325 21.884950797036296 4.13202460770683 0 -1 0
2460 143 2 0.1403 4.834042475995605 17.223364216283958 1.416888663989887 0 0 0
230 4 2 0.1237 -1.3678399463758435 17.366544708422133 6.266232147625094 0 0 0
237 4 2 0.0518 11.889117557248866 14.418690143359239 5.769612703318609 -1 0 0
228 4 3 -0.0182 12.665956445284273 15.16135206828986 5.961607686051969 -1 0 0
229 4 1 -0.129 13.087362584071446 17.660492555649306 6.25806298294997 -1 0 0
1378 76 2 0.1237 4.216249132991171 22.93523270547012 6.003525710891301 0 -1 0
1379 76 1 0.0266 2.877810140489083 21.257340597828318 6.657401285997181 0 -1 0
1377 76 1 -0.129 3.739827718118605 22.004424065388367 5.852092373609489 0 -1 0
1387 76 1 -0.1734 4.275844302318206 21.372684223393847 4.705311035570951 0 -1 0
1334 73 2 0.1237 -0.9902298584738322 14.766354371348264 8.707222103575143 0 -1 0
238 4 4 -0.0696 -2.1549828461781972 15.176950406235033 4.803672609646309 0 0 0
240 4 2 0.0354 -1.240802965495907 15.66891817797299 4.688329569505629 0 0 0
1976 113 2 0.1403 6.24609029192465 15.267232491774454 7.401456422278962 0 -1 0
2077 119 2 0.0518 10.43513176861448 17.610789186784558 2.038047053359339 0 0 0
2078 119 4 -0.0696 9.216301547773545 18.969344628304196 3.124224532057708 0 0 0
239 4 2 0.0354 12.884709290152282 14.701775490546297 3.9156934785690196 -1 0 0
2079 119 2 0.0354 8.35867018239321 18.525361602830937 3.5846456936713067 0 0 0
1980 113 2 0.1403 7.580340562313313 19.14945043028972 7.879265387021088 0 -1 0
2068 119 3 -0.0182 10.363786664308613 18.58655608089704 2.487224839462511 0 0 0
2067 119 1 0.0266 11.429818910787983 19.58907330156267 2.5161235810566867 0 0 0
2080 119 2 0.0354 9.237701924060183 19.977567003827343 3.5153019998847532 0 0 0
227 4 1 0.0266 12.21688258082658 16.536555423764156 6.1300578617244765 -1 0 0
225 4 1 -0.129 10.918449708859104 16.83180394009878 6.5073592080613265 -1 0 0
2065 119 1 -0.129 12.68401992506431 19.099099700413102 2.8088217097597257 0 0 0
226 4 2 0.1237 10.289414836251087 15.95521133378347 6.382510684488061 -1 0 0
235 4 1 -0.1734 10.555305283401957 18.108572777738914 6.876355771201409 -1 0 0
2066 119 2 0.1237 12.696253656913845 18.032315092322403 3.1015855022854697 0 0 0
231 4 1 -0.1734 12.706882356847158 19.015693346240266 6.432776165135399 -1 0 0
233 4 1 -0.1134 11.378651900333198 19.174744496561516 6.7186023457218225 -1 0 0
236 4 2 0.1403 9.587698460366722 18.31267305956213 7.1999259712976125 -1 0 0
1979 113 1 -0.1734 6.808949920466891 18.508643619731323 8.226650860555752 0 -1 0
1978 113 2 0.1288 7.567477401849088 16.914430747242882 6.863764968998021 0 -1 0
1975 113 1 -0.1734 5.994017529657644 16.15681810696163 7.980434245284345 0 -1 0
1977 113 1 -0.1134 6.810396321132154 17.22842751661551 7.5970329112282 0 -1 0
1001 52 1 -0.1134 6.653867684277798 25.40461812831274 0.6348647480166127 0 -1 0
1002 52 2 0.1288 7.539320662002388 26.00326377522145 0.4845323055425219 0 -1 0
1003 52 1 -0.1734 5.764658445126516 25.140792260851484 -0.40329537758282563 0 -1 0
1325 72 2 0.0518 5.182256149490307 24.80787797994323 10.086719943281851 0 -1 0
2618 153 2 0.1288 2.689410511037331 18.81605240673483 1.7321290775290927 1 -1 0
1384 76 2 0.1403 3.0321052827732573 18.165978774052597 5.330181678415058 0 -1 0
1389 76 2 0.0518 0.9873077589412889 21.7912770141918 7.824422246624758 0 -1 0
1392 76 2 0.0354 3.7647547625490763 22.029476342078095 9.078183673490052 0 -1 0
1391 76 2 0.0354 2.102582697297207 21.565824043322003 9.84013984682024 0 -1 0
1390 76 4 -0.0696 2.7168894996116006 21.90931844805927 8.935490540808154 0 -1 0
1382 76 2 0.1237 1.9011327703327245 19.36170055950626 7.1032817420757475 0 -1 0
1381 76 1 -0.129 2.681225143318504 19.899731167872943 6.564438540108259 0 -1 0
1380 76 3 -0.0182 2.085606092409103 21.972461496554626 7.779590117010126 0 -1 0
2481 145 1 -0.129 1.145145651407293 25.190320966577165 6.603577917060056 1 -1 0
2482 145 2 0.1237 0.6373621701453638 24.750124863573372 7.4119621946995595 1 -1 0
2483 145 1 0.0266 0.755988067429783 24.71534979313562 5.350031188683297 1 -1 0
2485 145 1 -0.129 1.4737846814578854 25.154467778041226 4.19481734788054 1 -1 0
2486 145 2 0.1237 1.2733353514830914 25.06184884425251 3.17443379688836 1 -1 0
2493 145 2 0.0518 -0.36196015116124686 22.883805526205194 5.844600754229682 1 -1 0
2484 145 3 -0.0182 -0.4440885297432749 23.72953686219247 5.103982355490767 1 -1 0
2496 145 2 0.0354 -1.2032732070612557 25.48685027863691 4.204318489789718 1 -1 0
2494 145 4 -0.0696 -1.450523750545314 24.59106692210707 4.8078323282002655 1 -1 0
1666 94 2 0.1237 10.167195782823716 25.11489865433643 6.5263369651563625 -1 -1 0
1676 94 2 0.1403 9.193196980587697 24.841966068691722 8.663830590436351 -1 -1 0
1675 94 1 -0.1734 8.790653390529116 24.144010379397372 7.845575701824355 -1 -1 0
1665 94 1 -0.129 9.481277490365619 24.268656299564523 6.552692025773568 -1 -1 0
1316 72 3 -0.0182 4.9815947406377985 25.855469477490598 9.999146669992392 0 -1 0
1318 72 2 0.1237 4.685627764288025 -25.627229153577424 7.457513701431274 0 0 0
1674 94 2 0.1288 6.976359531536826 23.325239513135575 8.880994603995923 -1 -1 0
1672 94 2 0.1403 6.849732375132358 21.46694450772382 7.090555594191258 -1 -1 0
1004 52 2 0.1403 6.066807246978402 25.30756634910827 -1.4808360378828298 0 -1 0
1677 94 2 0.0518 10.485544659058343 22.573546364122986 4.083605554522277 -1 -1 0
1668 94 3 -0.0182 9.801348093109377 23.404297440371153 4.309997766514501 -1 -1 0
1667 94 1 0.0266 9.221346296166754 23.26395112632928 5.643023779178461 -1 -1 0
234 4 2 0.1288 11.047994627635264 20.257437888426146 6.755449654198907 -1 0 0
1670 94 2 0.1237 8.183277069111519 21.359030505646114 5.186758140212439 -1 -1 0
1673 94 1 -0.1134 7.7692593027779 23.27431028634037 8.04347695450731 -1 -1 0
1671 94 1 -0.1734 7.578428865534985 22.271509672271513 7.077427211790747 -1 -1 0
1669 94 1 -0.129 8.355559165616587 22.213326359658016 5.875026375844063 -1 -1 0
2495 145 2 0.0354 13.063764032138101 24.29204445901241 4.949090169574852 0 -1 0
1288 70 2 0.1403 3.9188043759127833 -23.19064782602575 9.4266386127814 1 0 0
1072 56 2 0.0354 12.929409443317617 -22.88260843845401 10.093292031561935 0 0 0
1285 70 1 -0.129 3.6027199802627536 -22.780137465026492 7.395647298133845 1 0 0
1287 70 1 -0.1734 3.1520884624157195 -23.11294669225639 8.587019389794234 1 0 0
1286 70 2 0.1237 4.725816015024817 -22.6786048049027 7.278918180734584 1 0 0
2175 125 2 0.0354 5.222515041437187 -24.02852759262338 15.035270929568712 0 0 0
2174 125 4 -0.0696 5.286446098941823 -23.041571727752732 14.416016743562095 0 0 0
1283 70 1 0.0266 2.7810666977105325 -22.18573519723316 6.40682068520297 1 0 0
1284 70 3 -0.0182 3.497930357473479 -21.79515198243931 5.127838583076958 1 0 0
2162 125 2 0.1237 5.49057356365719 -22.69611108362649 10.980208164412616 0 0 0
1289 70 1 -0.1134 1.7636664537235138 -22.919064165520368 8.876739143825253 1 0 0
1290 70 2 0.1288 1.3478333500963244 -23.166159857354245 9.852124865558991 1 0 0
2176 125 2 0.0354 4.863998306856585 -22.166709528540522 14.78664975779094 0 0 0
383 13 2 0.0354 0.9155959370216072 -25.02487355739556 12.411601210159427 1 0 0
1069 56 2 0.0518 -2.164728546743955 -22.32689684974925 13.139724343701662 1 0 0
1060 56 3 -0.0182 13.028928287581774 -22.309338690882896 12.128387430154273 0 0 0
1070 56 4 -0.0696 -2.207000778680441 -23.172909893231953 11.116890269938377 1 0 0
1059 56 1 0.0266 12.317894645010643 -21.168259097275953 11.562053208834328 0 0 0
1293 70 2 0.0518 4.573867215748174 -22.060119355612212 5.284465748113741 1 0 0
1292 70 2 0.1403 -0.15920198849875267 -22.332030203712087 8.011448788543008 1 0 0
1281 70 1 -0.129 1.4119064207277545 -22.237672553505732 6.596403361502805 1 0 0
1291 70 1 -0.1734 0.9438281829350346 -22.49883910205135 7.8389676201059615 1 0 0
1282 70 2 0.1237 0.6757763186011164 -21.907330558503507 5.9051055274417985 1 0 0
2163 125 1 0.0266 6.468768969893904 -21.815577296426735 12.733615862001649 0 0 0
2161 125 1 -0.129 5.934933606922022 -21.757375358423126 11.449072971877495 0 0 0
1058 56 2 0.1237 10.703870571730862 -22.26658442481414 10.889672925733576 0 0 0
2171 125 1 -0.1734 5.974399675643056 -20.526834471195958 10.763480114910548 0 0 0
1821 103 2 0.0518 -1.1740496053585314 -26.050823802395726 8.801028075604357 -1 0 0
1810 103 2 0.1237 12.856748845464052 24.20388825579278 7.006669930724727 -2 -1 0
1809 103 1 -0.129 12.616502641491387 23.86258841914824 7.99871393613627 -2 -1 0
1811 103 1 0.0266 12.80520777598891 24.663551990291907 9.114470903751794 -2 -1 0
1812 103 3 -0.0182 -2.282631175590055 26.05908150629264 8.827369900015219 -1 -1 0
1822 103 4 -0.0696 12.22707039904713 -25.562962595309536 8.31594690331555 -2 0 0
1823 103 2 0.0354 12.313319209584629 -24.82135438703005 7.541117824225622 -2 0 0
1824 103 2 0.0354 11.132490534643727 -25.781746192028574 8.572663255150504 -2 0 0
1071 56 2 0.0354 -1.535133084619998 -24.003687598151725 11.108837412503503 1 0 0
2172 125 2 0.1403 5.447960944471154 -20.660408298067132 9.812580768442801 0 0 0
1068 56 2 0.1403 9.620522424492124 -20.152916124020567 9.83068291024656 0 0 0
1057 56 1 -0.129 11.10065209699555 -21.259159843922443 10.91410869427395 0 0 0
1819 103 1 -0.1734 11.879160449124244 22.619106764143602 8.145768472911591 -2 -1 0
2168 125 2 0.1403 8.206754121636541 -18.824237809519886 12.675165861388255 0 0 0
2167 125 1 -0.1734 7.49158678245726 -19.635464394376523 12.306600105367536 0 0 0
2169 125 1 -0.1134 6.71310503133803 -19.38403446789255 11.229182945246869 0 0 0
2170 125 2 0.1288 6.960382656377842 -18.438393438075757 10.63720494943296 0 0 0
2709 159 1 -0.129 0.3938664121770933 -18.705876630655993 10.68377313701385 1 0 0
2711 159 1 -0.1734 0.7344836225788052 -19.97062713100138 11.220930806081915 1 0 0
2712 159 2 0.1403 0.6576008321482465 -20.909265009610152 10.71654858269186 1 0 0
2710 159 2 0.1237 0.003601942095745835 -18.631860765053798 9.659941988044448 1 0 0
2713 159 1 -0.1134 1.104806709625142 -20.099034024604766 12.588091134282175 1 0 0
2554 149 2 0.1288 4.549695325519434 -14.108422781375824 9.711069450810967 -1 0 0
2707 159 1 0.0266 0.6341474752917994 -17.529155279790807 11.462070266654319 1 0 0
2715 159 1 -0.1734 1.200442659323261 -18.923506260945082 13.363853250608653 1 0 0
2714 159 2 0.1288 1.4177816454048948 -21.07462894056761 12.861463670075139 1 0 0
2716 159 2 0.1403 1.5051299455020979 -18.959573529096488 14.476114460089118 1 0 0
2556 149 2 0.1403 5.213494623012758 -14.557401357572754 7.468559785545876 -1 0 0
2555 149 1 -0.1734 4.617769085619467 -15.403722742433887 7.950069969442465 -1 0 0
2553 149 1 -0.1134 4.3849677996612275 -15.142795939470595 9.314601379555276 -1 0 0
1064 56 2 0.1403 12.660711838307979 -17.758179350193046 11.55066563200805 0 0 0
1063 56 1 -0.1734 12.161363749913953 -18.75168423787849 11.437340382776117 0 0 0
1062 56 2 0.1237 -1.816690617603178 -19.837713910255793 12.470139795563158 1 0 0
1061 56 1 -0.129 12.811436802743733 -19.865518727311354 11.806611924761805 0 0 0
2706 159 2 0.1237 1.1403078447079615 -16.91813455660785 13.456527229839692 1 0 0
2708 159 3 -0.0182 0.5101125736748656 -16.11424140034047 10.876456649535312 1 0 0
2705 159 1 -0.129 1.0960819244292874 -17.656957297047747 12.765184027846297 1 0 0
2559 149 2 0.0354 5.700786226777271 -20.245619334310287 6.580033879244035 -1 0 0
2558 149 4 -0.0696 5.4185345461617525 -19.547033770517523 7.31992967801173 -1 0 0
2560 149 2 0.0354 6.338545573431527 -19.23749394811982 7.905887641967588 -1 0 0
1065 56 1 -0.1134 10.965413537419309 -18.84223269760417 10.837465784722507 0 0 0
1067 56 1 -0.1734 10.395113205446558 -20.106468342992304 10.614378122372964 0 0 0
2546 149 2 0.1237 4.9504387167458015 -16.953253085589136 6.412962901952417 -1 0 0
2545 149 1 -0.129 4.591186576631383 -16.681033442866575 7.369021342439169 -1 0 0
2557 149 2 0.0518 3.2444040051947396 -19.368205400040626 7.073176405777226 -1 0 0
2548 149 3 -0.0182 4.190464357995169 -19.065627201874662 7.544702867823611 -1 0 0
2547 149 1 0.0266 4.142663827209852 -17.732742605273714 8.158900521276427 -1 0 0
834 42 2 0.1237 8.483590690359215 -16.13594176765906 11.586211158104343 -2 0 0
845 42 2 0.0518 7.657287668603956 -16.219323244809633 15.075413587362254 -2 0 0
836 42 3 -0.0182 7.487587131231687 -16.201052857296233 14.023064396422239 -2 0 0
847 42 2 0.0354 5.551868599694723 -15.571462464331866 14.101566067860384 -2 0 0
846 42 4 -0.0696 6.321088422903666 -15.921569708779085 13.435003544457324 -2 0 0
835 42 1 0.0266 8.573607911914982 -15.286506888016623 13.532542758272127 -2 0 0
833 42 1 -0.129 9.110757317373254 -15.564205654875398 12.237802965424574 -2 0 0
837 42 1 -0.129 9.289767017526948 -14.343170820114723 14.306587442484064 -2 0 0
2550 149 2 0.1237 3.5226601064861773 -18.45071403815165 10.130505814983316 -1 0 0
2549 149 1 -0.129 3.8515363431661904 -17.517947370259208 9.534794618426002 -1 0 0
2552 149 2 0.1403 3.861720708363403 -16.10509362125241 11.153270320069923 -1 0 0
2551 149 1 -0.1734 3.9199606811301275 -16.225157878759127 10.094040244816208 -1 0 0
2717 159 2 0.0518 1.0865917210596971 -15.304151979629737 11.42198690495325 1 0 0
3295 195 2 0.0354 3.112026314165809 -10.481291563044719 12.040373134894743 0 0 0
3294 195 4 -0.0696 3.6517616238222095 -10.468355171047717 12.979507789018244 0 0 0
3284 195 3 -0.0182 4.595995457242263 -11.363938203592236 13.33326895282914 0 0 0
3293 195 2 0.0518 5.113193243570389 -11.95330251977824 12.629642763574525 0 0 0
3283 195 1 0.0266 3.996957585281853 -12.102575441520296 14.45245918685376 0 0 0
2115 122 1 0.0266 0.021776571846134633 -9.523166029497348 9.708068215540749 1 0 0
2116 122 3 -0.0182 0.5692512779454528 -10.608092969802229 8.873093332975612 1 0 0
2125 122 2 0.0518 1.5910565587763519 -10.425451834821764 8.675502349922079 1 0 0
2117 122 1 -0.129 0.8194208289348158 -8.447160611771366 10.230749595737135 1 0 0
2128 122 2 0.0354 -0.6131259466171934 -12.023456238571795 9.821565707221483 1 0 0
2127 122 2 0.0354 1.0308733506961103 -12.60769161628493 9.740302046966473 1 0 0
2126 122 4 -0.0696 0.35580089815033855 -11.756758226994094 9.43860298530197 1 0 0
2118 122 2 0.1237 1.9421080101148485 -8.338369289749444 10.268479327352704 1 0 0
3007 177 2 0.0354 13.155627874399574 -7.600439170206835 13.841324469808782 -1 0 0
3296 195 2 0.0354 3.3840144854293572 -9.648200143972462 13.724981678988069 0 0 0
2608 152 2 0.0354 7.600260201882614 -13.839441524538822 8.751049462247076 -2 0 0
2606 152 4 -0.0696 7.369955830434739 -12.930321695188306 9.255269728632298 -2 0 0
2596 152 3 -0.0182 7.126734785913544 -11.775012985929832 8.704314800950266 -2 0 0
2607 152 2 0.0354 7.299771344814931 -13.017703069498936 10.393912356805783 -2 0 0
844 42 2 0.1403 10.496241311742816 -15.11285173685867 10.592449513098375 -2 0 0
843 42 1 -0.1734 10.162445714784768 -14.807291632125306 11.643771541810562 -2 0 0
2113 122 1 -0.129 -1.390083660774284 -9.482843206487049 9.657814107169237 1 0 0
2123 122 1 -0.1734 -2.0229330788867865 -8.393892122346012 10.244158076178392 1 0 0
841 42 1 -0.1134 10.891763766758745 -14.019749927073523 12.488083168317113 -2 0 0
839 42 1 -0.1734 10.44309940447163 -13.783364241795972 13.810093239871016 -2 0 0
509 21 2 0.0518 8.664267965294489 -10.674140164928248 13.003582546283823 0 0 0
511 21 2 0.0354 11.154883428003792 -10.346609032724038 13.077067447822735 0 0 0
500 21 3 -0.0182 9.163215062431574 -9.897000655682339 12.433112742554691 0 0 0
510 21 4 -0.0696 10.512456779122989 -9.601898353611183 12.518903777603233 0 0 0
499 21 1 0.0266 8.219664780807165 -8.88251730630384 11.915281727786427 0 0 0
498 21 2 0.1237 9.11601397325849 -8.336163118969898 10.09292210656457 0 0 0
497 21 1 -0.129 8.183640752808609 -8.329524917334926 10.635252137746454 0 0 0
512 21 2 0.0354 10.942160517612635 -8.729309000950249 11.928484704986241 0 0 0
3282 195 2 0.1237 4.275592764888228 -10.636938369278624 15.934895741711873 0 0 0
842 42 2 0.1288 11.679108743968333 -13.477810409472571 11.943215677737284 -2 0 0
1279 69 2 0.0354 12.353387402860184 -2.7842073056561754 8.351231802826979 -1 0 0
508 21 2 0.1403 7.039418541002714 -6.8819530114288625 9.334868680749908 0 0 0
507 21 1 -0.1734 7.057590398641163 -7.552983042009976 10.176198488740992 0 0 0
2119 122 1 -0.1734 0.18517833821470372 -7.351463907075806 10.689798057076834 1 0 0
2120 122 2 0.1403 0.755048486190574 -6.5307143070211975 11.180162991547343 1 0 0
506 21 2 0.1288 4.921051771947038 -7.040470487364895 10.682349577384954 0 0 0
505 21 1 -0.1134 5.858799099134357 -7.5291067518570545 10.932885433508186 0 0 0
2961 175 1 -0.129 3.7998960770776167 -3.5477992688165623 8.748990429449192 0 0 0
2971 175 1 -0.1734 2.743973820715111 -4.4212174787998055 8.777040239468738 0 0 0
2970 175 2 0.1288 0.5710991094284298 -4.715781751090819 8.70640203410728 0 0 0
2969 175 1 -0.1134 1.4073220866284555 -3.952536292673944 8.58012047979514 0 0 0
2962 175 2 0.1237 4.781132412668299 -3.9366949707718084 8.750316503136574 0 0 0
2972 175 2 0.1403 3.0545374748241008 -5.441374626280323 8.8646985692454 0 0 0
3008 177 2 0.0354 -1.89757967386488 -7.3244017518903535 15.537764657696727 0 0 0
504 21 2 0.1403 5.117248203465875 -7.827787473726906 13.005612511407307 0 0 0
503 21 1 -0.1734 5.8906278689957565 -8.077721609636091 12.213734626755896 0 0 0
2963 175 1 0.0266 3.55483758009403 -2.1947129153018228 8.600723636057486 0 0 0
1964 112 2 0.1403 1.036570702330802 -0.7622172723356616 10.667756872938616 -1 0 0
1962 112 2 0.1288 -0.04832971122150261 -2.7053162372276662 11.058132203606457 -1 0 0
1961 112 1 -0.1134 -0.3891320225054189 -1.8269831114445119 11.694719309970894 -1 0 0
1173 63 1 -0.129 9.289763248411427 -5.551665845649104 7.182003229808971 -1 0 0
2121 122 1 -0.1134 -1.2420771886901816 -7.312341926103548 10.65628126389291 1 0 0
2122 122 2 0.1288 -1.7634326540160636 -6.3681977999774215 11.086575554122934 1 0 0
2650 155 2 0.1288 12.072782695314924 -3.7160129771413697 13.095873608712468 0 0 0
1174 63 2 0.1237 10.178711004123365 -5.224862170646812 7.686447645608224 -1 0 0
502 21 2 0.1237 7.021535627613092 -9.193689058527957 13.805536903910273 0 0 0
501 21 1 -0.129 7.05061327745985 -8.694728589936425 12.75147428114197 0 0 0
2648 155 2 0.1403 10.58707618493536 -4.699744181203667 11.254393991410607 0 0 0
2647 155 1 -0.1734 10.133082991240645 -4.339970178520092 12.211899995102742 0 0 0
1181 63 2 0.0518 7.288150007329213 -4.409799452812566 9.36167020659542 -1 0 0
1172 63 3 -0.0182 8.029953907802016 -3.9737624766285014 8.764442591117382 -1 0 0
2645 155 1 -0.129 8.823020212513878 -4.589127587841169 12.561065539296997 0 0 0
2646 155 2 0.1237 8.170055531437916 -5.165904606709517 11.894001945779763 0 0 0
2656 155 2 0.0354 6.269422887468677 -2.3967829568210104 14.582098530237369 0 0 0
2654 155 4 -0.0696 6.02222785283119 -3.3089014639478096 14.127196235187927 0 0 0
2644 155 3 -0.0182 6.816471220610018 -4.37437994471698 14.03121231266638 0 0 0
2649 155 1 -0.1134 11.011420165417084 -3.754442391017138 13.140197381037781 0 0 0
2651 155 1 -0.1734 10.460106580815367 -3.221721815160359 14.248641358019793 0 0 0
2643 155 1 0.0266 8.234859339698627 -4.141745373139437 13.746577374968458 0 0 0
2641 155 1 -0.129 9.103465502763903 -3.4048131051766113 14.604860967963328 0 0 0
2652 155 2 0.1403 11.098425391047561 -2.7677472951542 15.051636883458965 0 0 0
2655 155 2 0.0354 5.0110913428832 -3.11724325665725 13.675948904758469 0 0 0
2974 175 4 -0.0696 5.234931843840098 -0.6257057614335044 9.729781444455755 0 0 0
2965 175 1 -0.129 2.284698473989814 -1.6378883192170686 8.578284017595738 0 0 0
2973 175 2 0.0518 5.454078888859602 -1.4299287063347554 7.794526168118998 0 0 0
2964 175 3 -0.0182 4.736497814739933 -1.195190284846553 8.626393889141076 0 0 0
2215 128 1 -0.1734 3.115353486362908 0.052118350779532086 14.382445453223529 0 0 0
2216 128 2 0.1403 2.303605159543813 -0.5477937927929832 14.685382370673928 0 0 0
1963 112 1 -0.1734 0.19276827612386585 -0.6058502898854069 11.385019362589015 -1 0 0
2209 128 1 -0.129 5.148412178910579 1.647145823264149 13.44259874020707 0 0 0
1953 112 1 -0.129 -0.4496902854465123 0.5892253975864805 11.73672277151979 -1 0 0
2211 128 1 0.0266 3.951112188309067 1.5883502739563833 12.722877445582416 0 0 0
1954 112 2 0.1237 -0.07707946321841569 1.5969121989653117 11.508258948147072 -1 0 0
1955 112 1 0.0266 -1.7405971493016323 0.5089397849949789 12.30260904764368 -1 0 0
1956 112 3 -0.0182 13.049485949585385 1.8181151118087475 12.564997401026433 -2 0 0
2214 128 2 0.1237 2.0807773711427946 0.6408203399338841 12.582984925077938 0 0 0
2213 128 1 -0.129 2.9953492937027244 0.6866245571393372 13.12356192982996 0 0 0
1968 112 2 0.0354 11.829348855669682 2.0153239101492235 10.877249340618022 -2 0 0
1966 112 4 -0.0696 12.7242138625201 2.325605615814 11.345758212188382 -2 0 0
1967 112 2 0.0354 -2.0870322085506885 2.9787964809502108 10.860803361349856 -1 0 0
2222 128 4 -0.0696 2.8013512289078046 3.0598972930724795 11.553909700186333 0 0 0
2224 128 2 0.0354 1.8046693151173112 2.789495870632824 11.688165641677863 0 0 0
2212 128 3 -0.0182 3.7494746471648317 2.1286632384049367 11.27863616638929 0 0 0
1278 69 4 -0.0696 11.69844530850814 -2.1450142440236886 8.869205231441864 -1 0 0
1270 69 2 0.1237 10.74789624196483 0.8738477968688146 7.876410683212386 -1 0 0
1269 69 1 -0.129 10.147296335836808 0.7168952982421627 8.793985931756927 -1 0 0
1271 69 1 -0.1734 9.084055293743795 1.5167194637938115 8.963790516208572 -1 0 0
2218 128 2 0.1288 4.473967810353182 -0.041550605218114954 16.04407260763742 0 0 0
2217 128 1 -0.1134 4.3003621986665586 0.25238464359867785 15.050039583403073 0 0 0
2219 128 1 -0.1734 5.3575849491455685 1.0410526324114215 14.58566007590875 0 0 0
2220 128 2 0.1403 6.321861431313243 1.195127097665201 15.164431649667284 0 0 0
1267 69 1 0.0266 10.576449362854513 -0.2914713490569775 9.695302535298492 -1 0 0
1276 69 2 0.1403 8.108537568589945 -0.059456783511188806 11.844216391211686 -1 0 0
1275 69 1 -0.1734 8.557817389010024 0.14954740166836214 10.896063659113564 -1 0 0
1265 69 1 -0.129 9.733898239968743 -0.6021265780277811 10.743103639747098 -1 0 0
1268 69 3 -0.0182 11.849500861826266 -0.9609215719355266 9.568122166364256 -1 0 0
1277 69 2 0.0518 12.72093842348987 -0.2666283478214979 9.780089848951787 -1 0 0
1266 69 2 0.1237 10.13711654151529 -1.2541343824170175 11.494610128033658 -1 0 0
2642 155 2 0.1237 8.851041678687261 -2.987195783574039 15.63809126367483 0 0 0
758 37 2 0.1237 9.258374059216274 3.0989891714307265 12.808301687244613 0 0 0
757 37 1 -0.129 10.056047014955015 3.6808849584008727 13.257016480946195 0 0 0
755 37 1 0.0266 10.662089170172731 3.1589429720449527 14.394474963332963 0 0 0
767 37 2 0.0354 8.626210362371378 0.35018280181642775 14.746920013512346 0 0 0
766 37 4 -0.0696 9.475868131304148 0.9669930092410516 14.32483585074747 0 0 0
768 37 2 0.0354 9.789372168238168 0.6838203477295448 13.281462796956909 0 0 0
3152 186 2 0.0354 2.64114083642689 3.4873774690747776 8.656925810039873 0 0 0
2210 128 2 0.1237 5.94985656248943 2.2526530896531427 12.936768216324904 0 0 0
817 41 1 -0.129 -0.44824745763429974 4.575254828876469 7.126117883083211 0 0 0
1838 104 4 -0.0696 0.5521196059373139 5.330445909102085 10.40467108728215 1 0 0
1827 104 1 0.0266 -0.7648825898412556 6.556633363567233 11.851357919167242 1 0 0
1828 104 3 -0.0182 -0.2905703641453554 5.205613050871367 11.469260256967958 1 0 0
2203 127 1 -0.1734 3.9157450040275776 6.365869804020962 11.85103610720309 -1 0 0
818 41 2 0.1237 0.6840487984966692 4.357345408131423 6.988851948924216 0 0 0
1825 104 1 -0.129 -0.8160301606733913 7.644539919711283 10.969098996676436 1 0 0
1837 104 2 0.0518 0.11206626637573827 4.675794025612856 12.398217905272801 1 0 0
1826 104 2 0.1237 -0.666956125100785 7.506527309852344 9.896615151310007 1 0 0
2204 127 2 0.1403 2.8841993585657018 6.783825798907135 11.725732151860383 -1 0 0
2193 127 1 -0.129 4.513338904185414 5.836614219908646 13.061041121373021 -1 0 0
2194 127 2 0.1237 3.894539048363602 5.59807864963287 13.862555967232417 -1 0 0
2201 127 1 -0.1134 4.762478815495175 6.424241055136582 10.700639817008463 -1 0 0
2202 127 2 0.1288 4.244752975930365 6.732130455844596 9.76723532516005 -1 0 0
1840 104 2 0.0354 0.1607434900636482 5.931073186620734 9.456023059885355 1 0 0
2223 128 2 0.0354 2.8817610247756384 4.094626559475639 11.294265391300184 0 0 0
2221 128 2 0.0518 4.819636036293119 2.3120877436426364 10.989351000632016 0 0 0
744 36 2 0.1403 4.597727445366857 11.50898380273372 13.598397259673927 0 0 0
827 41 1 -0.1734 -1.0755983345317552 5.513936039883446 6.423543713752363 0 0 0
1829 104 1 -0.129 -0.9365904919814154 6.845644068038596 13.137327966406465 1 0 0
828 41 2 0.1403 -0.523713699009122 6.228310051214661 5.708797016637076 0 0 0
760 37 2 0.1403 10.075066392341643 5.367352704557814 11.884808470837822 0 0 0
759 37 1 -0.1734 10.495794237690095 4.957208590417329 12.807123905495692 0 0 0
761 37 1 -0.1134 11.345078026028338 5.764620669248097 13.554833716941921 0 0 0
762 37 2 0.1288 11.503238145296525 6.804670299615791 13.322976161006256 0 0 0
2200 127 2 0.1403 6.739051755323864 6.466280824514868 10.004469375288346 -1 0 0
2197 127 1 -0.129 6.679163548907012 5.506350056485784 11.90076514631002 -1 0 0
2199 127 1 -0.1734 6.097253312047333 6.1603731213402035 10.856907943743787 -1 0 0
2195 127 1 0.0266 5.9032394789630045 5.435531047990741 13.108941123835603 -1 0 0
2198 127 2 0.1237 7.762385417178876 5.259208775186158 11.936826926288594 -1 0 0
918 47 2 0.1237 7.483226900322317 9.01333845135498 8.147403817666266 0 0 0
2196 127 3 -0.0182 6.612403166056278 5.143928094053244 14.376728505015143 -1 0 0
764 37 2 0.1403 12.486081495497855 5.9422994473437925 15.277992918662939 0 0 0
763 37 1 -0.1734 11.95209096912987 5.191914532693755 14.694878727397613 0 0 0
1332 73 3 -0.0182 1.5359853408876465 15.605263975116955 7.88601697782141 0 -1 0
1836 104 2 0.1403 -0.9898249646113774 9.769211086647621 10.706215036464894 1 0 0
1835 104 1 -0.1734 -1.1623619923897544 8.974233089521993 11.402177345188287 1 0 0
743 36 1 -0.1734 4.177389947772414 11.255983655958492 12.612315790674375 0 0 0
745 36 1 -0.1134 4.172906341637254 9.9526767448426 12.063360985945176 0 0 0
2564 150 3 -0.0182 -0.6037295209514425 10.482133871934114 6.937270918359474 0 0 0
747 36 1 -0.1734 3.285560101851592 9.650525424271345 11.01110414899467 0 0 0
2573 150 2 0.0518 -0.8142469559061393 10.54580096056399 7.9584298474491435 0 0 0
737 36 1 -0.129 2.3658712696040425 10.574880796118734 10.645202060656283 0 0 0
738 36 2 0.1237 1.6543067875959543 10.226146233425137 9.880771108894546 0 0 0
741 36 1 -0.129 3.1503727087366302 12.12760438300996 12.236000739681042 0 0 0
752 36 2 0.0354 -0.3923272393629025 11.550666397634743 12.088788103633705 0 0 0
742 36 2 0.1237 3.0160695996672002 13.06418749063786 12.695738075704087 0 0 0
739 36 1 0.0266 2.2110722762791295 11.835712077928058 11.227799875523122 0 0 0
740 36 3 -0.0182 1.0387481205390516 12.72933565974047 10.96479007936223 0 0 0
746 36 2 0.1288 5.087887467922865 9.30529843739923 12.226195759418324 0 0 0
750 36 4 -0.0696 -0.13456906394069384 12.104832784121127 11.24005415082464 0 0 0
326 10 2 0.1237 12.034739622997007 13.652420831169618 10.409503069499026 0 0 0
751 36 2 0.0354 -0.8849489142100733 11.853563933384262 10.403595356220317 0 0 0
748 36 2 0.1403 3.3889115021634435 8.613524925979341 10.548372583785635 0 0 0
1329 73 1 -0.129 0.503594961086311 17.81207350367687 8.686436358299595 0 -1 0
1330 73 2 0.1237 1.5447610376782843 18.302946300917796 8.554021343413151 0 -1 0
329 10 1 -0.1134 8.77076852641945 14.09887256423875 9.63751355896033 0 0 0
1831 104 1 -0.1734 -1.283300364324838 8.14813432527304 13.641885643868905 1 0 0
921 47 1 -0.1134 5.451544445992675 11.50854448453824 7.013404675124073 0 0 0
1834 104 2 0.1288 -2.070736419321396 10.057018745571956 13.034442011820056 1 0 0
1833 104 1 -0.1134 -1.466497431969329 9.209442743299029 12.712712932266928 1 0 0
914 47 2 0.1237 6.2355583804478805 12.376521698375656 10.174716529871038 0 0 0
923 47 1 -0.1734 5.308632908651273 12.204245050141049 8.210658915284007 0 0 0
325 10 1 -0.129 11.1199548310801 13.563459459672407 9.829391912698908 0 0 0
913 47 1 -0.129 6.094041279751747 11.847828579748493 9.298434673731665 0 0 0
925 47 2 0.0518 6.954310211780778 10.003704057876565 11.431997166360695 0 0 0
915 47 1 0.0266 6.920708356936744 10.631396137726384 9.308430747361815 0 0 0
927 47 2 0.0354 9.221882181474344 11.00603658840609 11.82600319875778 0 0 0
928 47 2 0.0354 9.394425386720558 11.113556349474399 9.877676625573345 0 0 0
926 47 4 -0.0696 8.834239280326598 10.722240985553334 10.791147689845245 0 0 0
916 47 3 -0.0182 7.626258868193625 10.238306958401592 10.652554618421757 0 0 0
917 47 1 -0.129 6.831355736201118 9.85272865351868 8.198544311135288 0 0 0
2160 124 2 0.0354 10.272851788238997 13.940810940501974 13.189888933668811 0 -1 0
327 10 1 -0.1734 9.954566604235378 14.14825308349534 10.392853101052806 0 0 0
924 47 2 0.1403 4.504380283762202 13.01183239186312 8.262395538538561 0 0 0
3320 197 2 0.1403 7.331837804951517 11.988313799637755 12.815021062863586 -1 0 0
3318 197 2 0.1237 8.16699961031723 11.739905522341738 15.017938644541305 -1 0 0
1333 73 1 -0.129 -0.7940859173517469 15.812371940152865 8.832743446969427 0 -1 0
1331 73 1 0.0266 0.4322901901094497 16.388833959133507 8.536475085766911 0 -1 0
1335 73 1 -0.1734 -1.8992516978771627 16.544973729927353 9.228052825261019 0 -1 0
1336 73 2 0.1403 12.587458463455777 16.101926794206953 9.1319851775166 -1 -1 0
1337 73 1 -0.1134 -1.816642320207047 17.948011637817192 9.140262899925848 0 -1 0
1339 73 1 -0.1734 -0.607839762896702 18.57067491878841 8.991875636394296 0 -1 0
204 2 2 0.1403 3.7644447308151507 18.91182764434872 13.378907521156401 0 -1 0
1340 73 2 0.1403 -0.5430774647183408 19.6462536562652 9.00325011822666 0 -1 0
1338 73 2 0.1288 12.815678900866954 18.433749081294053 9.566240576859762 -1 -1 0
1864 106 2 0.1403 8.630935594244415 17.49352273826535 10.487911358104137 -2 0 0
203 2 1 -0.1734 4.162937785709128 18.85061748936438 14.420268297949901 0 -1 0
201 2 1 -0.1134 3.188594639081265 18.86698099312108 15.422532190512989 0 -1 0
202 2 2 0.1288 2.1715280768309224 18.999117105653472 15.30874440337482 0 -1 0
1973 113 1 -0.129 5.082045079636426 16.447903068635544 8.937692701962918 0 -1 0
1865 106 1 -0.1134 10.45855204478737 18.15171127829465 11.165756000985935 -2 0 0
1866 106 2 0.1288 11.088442104362194 17.38431738924694 10.823911947473123 -2 0 0
1974 113 2 0.1237 4.333815387548196 15.65577271617653 9.010819360580411 0 -1 0
199 2 1 -0.1734 3.611273146856801 18.697790731247753 16.728729474304053 0 -1 0
193 2 1 -0.129 5.5241537177751265 18.772196172921713 14.744041000534017 0 -1 0
330 10 2 0.1288 7.97059954624899 14.796815333504693 10.011343880869044 0 0 0
1971 113 1 0.0266 4.960494647764158 17.674622758487406 9.638307583124151 0 -1 0
1969 113 1 -0.129 5.8499484302087295 18.641712723665975 9.229811389117215 0 -1 0
1970 113 2 0.1237 5.832168905513544 19.65712055382274 9.719419291357568 0 -1 0
1981 113 2 0.0518 3.475114639367149 16.973603845233054 10.902206885620933 0 -1 0
1972 113 3 -0.0182 4.034143165404731 17.911081483615508 10.786990499584476 0 -1 0
2159 124 2 0.0354 10.738076632794545 12.192221153816833 13.48879431786069 0 -1 0
2158 124 4 -0.0696 11.119096546216195 13.23476507493701 13.496295035872784 0 -1 0
1862 106 2 0.1237 7.3978808034932255 19.713934948758773 11.473678171610805 -2 0 0
1861 106 1 -0.129 8.51093559291028 19.411090551586184 11.740696691514465 -2 0 0
1863 106 1 -0.1734 9.072289423956752 18.288415528669145 11.139292975357383 -2 0 0
3322 197 2 0.1288 7.1049085037984705 14.32497734388646 11.854679169016704 -1 0 0
3321 197 1 -0.1134 7.280919654588516 14.180356512392141 12.974086024115914 -1 0 0
3323 197 1 -0.1734 7.362842104870189 15.267199272751126 13.850117444451188 -1 0 0
1869 106 2 0.0518 7.768033266324796 21.51602294255413 13.278283091401091 -2 0 0
3324 197 2 0.1403 7.2499608036688565 16.257568002410537 13.371338369138826 -1 0 0
3313 197 1 -0.129 7.855349753432376 15.042135304758153 15.185136850585756 -1 0 0
328 10 2 0.1403 10.104968319606503 14.807093602190188 11.306424486740902 0 0 0
3314 197 2 0.1237 7.874919350459602 15.838511193770756 15.927633888376018 -1 0 0
194 2 2 0.1237 6.2673572788498895 18.70942749578996 13.937540251841874 0 -1 0
1859 106 1 0.0266 9.360124851422977 20.457420300550638 12.306098999752935 -2 0 0
3319 197 1 -0.1734 7.496290534415869 12.894722502232424 13.447373508766665 -1 0 0
3317 197 1 -0.129 8.089113382268414 12.723632482059834 14.695295053493856 -1 0 0
3315 197 1 0.0266 8.219911370141821 13.724053369441782 15.60408138475499 -1 0 0
374 13 2 0.1237 -1.6646445204327793 24.22086801930456 14.966443972338068 1 -1 0
376 13 2 0.1403 -1.5422322454210693 21.769235663232514 15.618866393407151 1 -1 0
1983 113 2 0.0354 2.2095937533773307 19.28318909445512 10.743479442517582 0 -1 0
381 13 2 0.0518 -0.8406887607450112 26.151574547245254 13.784826284374706 1 -1 0
371 13 1 0.0266 -0.22725013821951048 24.110247877067287 13.271139740995768 1 -1 0
372 13 3 -0.0182 -0.10468814110082232 25.65127848642242 13.181862355965729 1 -1 0
369 13 1 -0.129 0.5137577233173709 23.21947215634798 12.532014054385172 1 -1 0
370 13 2 0.1237 1.00431745135356 23.608641861654284 11.649215694365411 1 -1 0
382 13 4 -0.0696 0.901045963492241 -26.103326544798545 12.543801721996541 1 0 0
373 13 1 -0.129 -1.0827507618347085 23.520278680141416 14.313067848948696 1 -1 0
377 13 1 -0.1134 -0.16088629121828207 21.350863807201033 13.956230305390578 1 -1 0
384 13 2 0.0354 1.5833727660847898 25.712728231382975 11.913351412881948 1 -1 0
375 13 1 -0.1734 -0.905709439440412 22.230083028835278 14.808036525088118 1 -1 0
380 13 2 0.1403 1.0444038118525312 21.1779930487321 12.101757641984069 1 -1 0
379 13 1 -0.1734 0.43163996605002747 21.831078921969173 12.746547256051205 1 -1 0
378 13 2 0.1288 -0.38159408860664895 20.344087507203838 14.05386101091651 1 -1 0
200 2 2 0.1403 2.908486409030508 18.38907758010688 17.631026895863336 0 -1 0
1327 72 2 0.0354 3.4149187886753354 25.91413263712204 11.37543738681337 0 -1 0
232 4 2 0.1403 -2.097577712392813 19.79999687419541 6.298206082564009 0 0 0
1326 72 4 -0.0696 4.0139910161812145 -25.82542025702849 10.595794784135537 0 0 0
1328 72 2 0.0354 3.692222818128395 -24.710157829786738 10.675299344685701 0 0 0
1982 113 4 -0.0696 3.2998346093894435 19.08322594550603 10.718168775083111 0 -1 0
1818 103 2 0.1288 10.937509082992596 21.324855297018743 9.495643068836136 -2 -1 0
1984 113 2 0.0354 3.6981825466398135 20.064787052143963 10.684249260095779 0 -1 0
1813 103 1 -0.129 12.591840653822572 24.10535829113944 10.366672882020096 -2 -1 0
1814 103 2 0.1237 12.885607005775878 24.76984210893838 11.245625952282804 -2 -1 0
1858 106 2 0.1237 11.2899594732032 20.755221208531857 13.286769062963378 -2 0 0
1857 106 1 -0.129 10.674207944758491 20.225802096003722 12.48949850249539 -2 0 0
1867 106 1 -0.1734 11.167025545122188 19.038336203777074 11.989169723726558 -2 0 0
1816 103 2 0.1403 12.148676932023434 22.387158572456595 11.48331485893321 -2 -1 0
1817 103 1 -0.1134 11.644811396122105 22.09706270702511 9.439200262895252 -2 -1 0
1815 103 1 -0.1734 12.142149567696611 22.81415070149616 10.530835120229897 -2 -1 0
1860 106 3 -0.0182 8.651967099271587 21.73154392367829 12.757904341772662 -2 0 0
367 12 2 0.0354 9.809224281944953 -25.80611891368996 11.797797815371865 0 0 0
366 12 4 -0.0696 9.703709736608655 -26.1505025191816 12.80664743946736 0 0 0
1872 106 2 0.0354 9.434033822982208 23.21603023944062 11.379050205258181 -2 0 0
1871 106 2 0.0354 7.6611111713928555 22.969327240083153 11.315583033537296 -2 0 0
1870 106 4 -0.0696 8.65391491431389 22.50906836880293 11.652035590964651 -2 0 0
368 12 2 0.0354 10.645412542753586 -25.98854240171072 13.385042083577748 0 0 0
2173 125 2 0.0518 6.652562368949203 -24.02206705394729 13.050334827805028 0 0 0
2164 125 3 -0.0182 6.311744106413629 -23.093587005943537 13.505341897477086 0 0 0
2984 176 2 0.1403 0.1504155768358018 -17.845946498736918 15.42997445895226 1 0 0
2500 146 3 -0.0182 3.0964338355482357 -25.715606075741892 17.135515470590843 1 0 0
2509 146 2 0.0518 3.265691617495213 -24.794899411559367 17.641465078752198 1 0 0
2165 125 1 -0.129 7.297508992328455 -20.70826916066787 13.183653474591548 0 0 0
2166 125 2 0.1237 7.743176252519824 -20.674312816685788 14.226519937733466 0 0 0
529 23 1 -0.129 4.084434352801848 -22.755015909022877 19.35385174414088 0 0 0
530 23 2 0.1237 4.867388029715335 -22.675158085635776 18.58725160456833 0 0 0
537 23 1 -0.1134 1.7727811097898116 -22.22099172234468 19.961086808087934 0 0 0
538 23 2 0.1288 0.7884856428778709 -21.784626885731548 19.61607460176951 0 0 0
540 23 2 0.1403 2.648502422634976 -21.631146785993256 18.088022108931458 0 0 0
539 23 1 -0.1734 2.822269481172164 -22.223011086164867 19.00883698074933 0 0 0
531 23 1 0.0266 4.305167435935354 -23.153753138062605 20.650574064543296 0 0 0
544 23 2 0.0354 6.494940889228851 -24.33241881909098 19.129478867716394 0 0 0
2510 146 4 -0.0696 4.0575388260075895 25.752644544990527 16.79806143023831 1 -1 0
2511 146 2 0.0354 5.170197083189158 25.89760599150966 17.117404389897505 1 -1 0
2982 176 2 0.1237 -0.42491076925121335 -17.275672955506245 17.780026200139698 1 0 0
2981 176 1 -0.129 -1.036946374304998 -16.881888311510373 16.91485358431764 1 0 0
2983 176 1 -0.1734 -0.7577311898120561 -17.253364697142263 15.62177835388465 1 0 0
2502 146 2 0.1237 1.2336638388485655 -24.52662513308897 18.620966987114723 1 0 0
2512 146 2 0.0354 3.6677540822557226 24.86194920695051 16.236766687502847 1 -1 0
1754 99 2 0.1288 12.778790428663703 -18.83523579318601 17.373746925685747 -2 0 0
1748 99 3 -0.0182 10.171778090858172 -22.594515420611387 14.748173375444583 -2 0 0
1745 99 1 -0.129 12.13053418962261 -21.874738406071423 16.32603527189965 -2 0 0
1753 99 1 -0.1134 12.08820233170515 -19.610819998815956 17.070628744307168 -2 0 0
1747 99 1 0.0266 10.954471209190025 -21.61252781089622 15.555384378653365 -2 0 0
1755 99 1 -0.1734 12.575758344965765 -20.960850479797084 17.252349089609574 -2 0 0
1751 99 1 -0.1734 11.198682951701338 -19.262393791138134 16.14304469233304 -2 0 0
1749 99 1 -0.129 10.54805373743617 -20.218588984298805 15.424577541788675 -2 0 0
1752 99 2 0.1403 10.818940731804547 -18.21164807838577 15.973542055019257 -2 0 0
1750 99 2 0.1237 9.955524373515285 -19.738749505718424 14.65200703649669 -2 0 0
1756 99 2 0.1403 -2.1113908587481864 -21.114305336158587 17.9426240268225 -1 0 0
1757 99 2 0.0518 9.786176020746314 -22.368729994597757 13.70127890025484 -2 0 0
2992 176 2 0.0354 13.12722636939381 -17.71426505342417 19.274314839454153 0 0 0
2990 176 4 -0.0696 12.647164185485053 -16.76782521448962 19.389473648693336 0 0 0
2991 176 2 0.0354 11.848680499816377 -16.564919377873284 20.122980956947252 0 0 0
1746 99 2 0.1237 12.47802852908596 -22.992190726410087 16.486641622269566 -2 0 0
1758 99 4 -0.0696 9.391271231261893 -23.433434091341528 15.50158006472117 -2 0 0
1759 99 2 0.0354 8.540226821489558 -24.0780709365776 15.161874904077962 -2 0 0
1642 92 2 0.1288 1.93099118958349 -17.417800518702748 16.14226388056928 0 0 0
2986 176 2 0.1288 -1.2224050729242297 -16.992369555693475 13.510550778556594 1 0 0
1644 92 2 0.1403 2.3808941893035427 -18.02180945596271 18.728279610895953 0 0 0
2985 176 1 -0.1134 -1.5680267349736103 -16.7828511018024 14.566954864153974 1 0 0
2988 176 2 0.1403 12.085164598840036 -15.757613925284 14.036243231050078 0 0 0
2987 176 1 -0.1734 12.761793949305032 -16.111622648218056 14.879563683659779 0 0 0
1641 92 1 -0.1134 2.8191055744764464 -17.75514196026811 16.603147681644668 0 0 0
223 3 2 0.0354 4.2212197329860475 -13.740514992544508 20.606289532315106 -1 0 0
1643 92 1 -0.1734 3.0377844397540437 -18.16159970430033 17.902971248306212 0 0 0
1633 92 1 -0.129 4.319622928798802 -18.67010815986867 18.398195784427553 0 0 0
1634 92 2 0.1237 4.455007952241367 -18.68009248204016 19.484261283022303 0 0 0
224 3 2 0.0354 2.573969830707127 -13.379470542229281 21.21362012144555 -1 0 0
222 3 4 -0.0696 3.20832413413868 -14.129602702280136 20.608197787554513 -1 0 0
2977 176 1 -0.129 12.45390222179491 -15.790082107165349 16.233284634394845 0 0 0
2922 172 2 0.1288 -0.8033612658355436 -14.40567608829904 13.399685811324224 -1 0 0
2920 172 2 0.1403 -1.1527136129157523 -12.040098330080918 12.25866724239909 -1 0 0
2919 172 1 -0.1734 -0.6701250461846349 -12.16688235084693 13.343150276816182 -1 0 0
2921 172 1 -0.1134 -0.6230965309125727 -13.462562681049736 13.895467082511791 -1 0 0
210 3 2 0.1237 0.09068633876426731 -15.533472309242976 20.69244498793456 -1 0 0
219 3 1 -0.1734 0.08770636906241985 -17.0490569273663 22.289814493952097 -1 0 0
209 3 1 -0.129 0.683787064462095 -16.2551427578009 21.276511249115593 -1 0 0
220 3 2 0.1403 -0.9933602197215097 -17.083467711691654 22.518341535754864 -1 0 0
3288 195 2 0.1403 2.9605242443889237 -15.336755430971138 15.015599462750265 0 0 0
848 42 2 0.0354 5.8915088141082705 -16.160929684906186 12.500039749143202 -2 0 0
838 42 2 0.1237 9.085086447336398 -14.188843983707274 15.37562767876254 -2 0 0
1648 92 2 0.0354 7.499564321144588 -20.208892373992608 16.172330838382457 0 0 0
1646 92 4 -0.0696 7.01170892784388 -20.64535803993863 17.05870835381101 0 0 0
2989 176 2 0.0518 12.844828688524982 -14.731173932720946 18.771329227431195 0 0 0
2980 176 3 -0.0182 13.154050401676376 -15.742713778646586 18.6886458693463 0 0 0
1639 92 1 -0.1734 3.8274470378467735 -18.07431318074477 15.727950020021211 0 0 0
1635 92 1 0.0266 5.298878583250995 -18.936210613805347 17.437984354709055 0 0 0
1645 92 2 0.0518 5.9870810529060075 -20.28624919122376 18.78004111041163 0 0 0
1636 92 3 -0.0182 6.442979473708963 -19.78259825661518 17.914472202929854 0 0 0
2978 176 2 0.1237 11.457143689844852 -15.383031968125856 16.421895110909716 0 0 0
1640 92 2 0.1403 3.7911810524688163 -17.676165096071948 14.682503003412137 0 0 0
2979 176 1 0.0266 -2.1263740482634415 -16.111061867181505 17.24668711633386 1 0 0
1637 92 1 -0.129 5.038541413054134 -18.743790867720264 16.095365175149464 0 0 0
1638 92 2 0.1237 5.854437629747738 -19.223161116128047 15.468368826936446 0 0 0
2367 137 2 0.0354 7.889210089062015 -16.791159497274695 17.489434223964754 -1 0 0
2366 137 4 -0.0696 7.32838379707751 -16.34637705173641 18.276317365006804 -1 0 0
2368 137 2 0.0354 6.3102196309630285 -16.204154057542468 17.987019234598602 -1 0 0
2355 137 1 0.0266 7.5572035074893025 -14.585090978288372 19.726404769397405 -1 0 0
2365 137 2 0.0518 8.954744615315606 -16.334565856699342 19.47745508437454 -1 0 0
2356 137 3 -0.0182 7.855702438706185 -16.06994501035435 19.461272378836874 -1 0 0
3286 195 2 0.1237 3.6885115605874246 -13.729026399466024 13.189672606103514 0 0 0
3285 195 1 -0.129 3.583498949173737 -13.438286951058297 14.205901274780349 0 0 0
3006 177 4 -0.0696 -1.5191073861324769 -7.524588383741269 14.546236012139756 0 0 0
2237 129 2 0.0518 -0.5998305430733007 -9.939734808549941 20.12357735749006 1 0 0
2915 172 1 0.0266 -0.2948999216842136 -11.212221790054292 15.538595906729071 -1 0 0
2913 172 1 -0.129 -0.21286439816704206 -12.438937872321722 16.104754931280365 -1 0 0
2923 172 1 -0.1734 -0.34707391538745425 -13.574280491581703 15.2831057434927 -1 0 0
2914 172 2 0.1237 0.17130062639315963 -12.599640060215972 17.103085543282962 -1 0 0
2924 172 2 0.1403 -0.3766483151154024 -14.684159352332966 15.620650507610248 -1 0 0
2228 129 3 -0.0182 0.3355785803303971 -9.881172922610803 20.77270807712037 1 0 0
2239 129 2 0.0354 1.1542929278278233 -11.977365165016504 21.114073990026764 1 0 0
2238 129 4 -0.0696 1.2300759566728299 -10.78222811096565 21.095677905097645 1 0 0
1659 93 1 -0.1734 -2.1986799552466914 -12.009290880730699 20.18057230102476 1 0 0
2925 172 2 0.0518 1.1393526713738273 -9.852144947527087 16.741061990988126 -1 0 0
3005 177 2 0.0518 0.12851419370095554 -8.174343761175047 13.23962131847871 0 0 0
1660 93 2 0.1403 -1.8148803821244348 -11.389277491936868 19.39344900668081 1 0 0
2225 129 1 -0.129 1.3065605247574845 -7.696720563575083 19.666173601352252 1 0 0
1650 93 2 0.1237 11.361422841235036 -11.039163438432121 20.09271431109945 0 0 0
2320 134 2 0.0354 12.589991910050301 -8.409914422609152 20.922588382135814 -1 0 0
3287 195 1 -0.1734 3.0723406817198016 -14.286422744996752 15.156277380934057 0 0 0
463 18 2 0.0354 7.908443491350958 -8.876170840383402 15.584304255966114 -2 0 -1
2358 137 2 0.1237 8.454015779260862 -14.0616114536607 17.84308859410154 -1 0 0
2357 137 1 -0.129 8.035109792045304 -13.655414807912118 18.745886770138867 -1 0 0
3289 195 1 -0.1134 3.0557409314568016 -13.8405518305414 16.503857872484186 0 0 0
3290 195 2 0.1288 2.6293248675966288 -14.569496979110882 17.24336333424044 0 0 0
2360 137 2 0.1403 8.06552568070778 -11.611145959046265 18.147094010574726 -1 0 0
2359 137 1 -0.1734 7.700561993684266 -12.362899823839768 18.84134674919647 -1 0 0
2361 137 1 -0.1134 6.900875755060038 -11.930263795596792 20.017490431905273 -1 0 0
2918 172 2 0.1237 -0.512859537692216 -10.030261318294233 13.8014648507891 -1 0 0
2917 172 1 -0.129 -0.6850314793456106 -11.039447248285885 14.159062823514764 -1 0 0
2916 172 3 -0.0182 0.1019480009355258 -9.959357289356515 16.358223763033852 -1 0 0
2928 172 2 0.0354 -2.005114396800997 -9.589455255745957 16.63016530415731 -1 0 0
3281 195 1 -0.129 3.936116527861754 -11.658172896875518 15.796971588791692 0 0 0
3291 195 1 -0.1734 3.460507271494161 -12.47138022641326 16.832982248782635 0 0 0
3292 195 2 0.1403 3.231889613172034 -12.027337979122695 17.786370001061975 0 0 0
840 42 2 0.1403 10.897340003440883 -12.911226526684148 14.38979409024654 -2 0 0
2927 172 2 0.0354 -0.8487253510036795 -8.904812955934194 17.92445311283394 -1 0 0
2926 172 4 -0.0696 -0.9623510008251257 -9.557416089590454 17.078319608450936 -1 0 0
2362 137 2 0.1288 6.685821611362608 -10.869829323985833 20.2100155330259 -1 0 0
1649 93 1 -0.129 12.021129948844827 -11.802761149311008 20.649643109280124 0 0 0
1664 93 2 0.0354 9.793099425282023 -10.757226241131153 22.886799707771473 0 0 0
1662 93 4 -0.0696 9.673782828752374 -11.863800804402272 22.774886956608903 0 0 0
1663 93 2 0.0354 9.095531002720755 -12.229416229347306 23.61605810728535 0 0 0
2996 177 3 -0.0182 -0.2162255663371751 -7.783954407720966 14.2292917043548 0 0 0
1960 112 2 0.1403 -2.079115196136584 -2.8198504489269904 12.597489110431336 -1 0 0
1959 112 1 -0.1734 -1.5855384691833982 -1.868360058498445 12.2953301237917 -1 0 0
2226 129 2 0.1237 1.207584259311477 -8.064614714454004 18.59332436798227 1 0 0
3002 177 2 0.1288 3.2299157032728507 -3.574879586142205 15.245034434925554 0 0 0
2998 177 2 0.1237 0.17977357183019466 -5.598667397128021 12.957415949966805 0 0 0
2994 177 2 0.1237 1.865405334457353 -7.496437260125359 16.251548929764688 0 0 0
2995 177 1 0.0266 0.8591083906149378 -6.690726830399353 14.507331254757712 0 0 0
2993 177 1 -0.129 1.6870199127136971 -6.596330922818245 15.678151674878121 0 0 0
3003 177 1 -0.1734 2.611418026432211 -5.5809704066664025 15.865934997761116 0 0 0
2997 177 1 -0.129 0.8680929526137967 -5.504592042525012 13.812316167132195 0 0 0
2999 177 1 -0.1734 1.6491372239785815 -4.363412451714446 13.920230089757803 0 0 0
3001 177 1 -0.1134 2.58431795598599 -4.455533649597578 14.965257033052078 0 0 0
2307 134 1 0.0266 11.755722673717996 -6.509926982603547 19.013391410881134 -1 0 0
3000 177 2 0.1403 1.3859969599578168 -3.5980088804295445 13.18070339271895 0 0 0
2309 134 1 -0.129 12.029288674788608 -5.959440514072602 17.754447383779894 -1 0 0
2311 134 1 -0.1734 11.018832330609591 -5.69327652636858 16.886130246254627 -1 0 0
2312 134 2 0.1403 11.407083408333886 -5.234681383029496 15.98523338623858 -1 0 0
2349 136 2 0.0518 2.4973431728181117 -0.815347026631959 18.222059911445665 -1 0 0
2308 134 3 -0.0182 13.020586224485806 -6.532189681426646 19.986797320080303 -1 0 0
2340 136 3 -0.0182 3.5185839474744207 -1.3297657862506753 18.16451434773609 -1 0 0
2310 134 2 0.1237 12.969495157857878 -5.508469226957369 17.54384664413422 -1 0 0
455 18 1 -0.1734 5.27040231954104 -6.194359195691245 19.220013545557737 -2 0 -1
456 18 2 0.1403 5.514749600969735 -5.190409701782743 19.61361594495249 -2 0 -1
457 18 1 -0.1134 4.834548299422088 -7.126303278059103 20.091276715680504 -2 0 -1
459 18 1 -0.1734 4.643879793611746 -8.436345379179581 19.74966898106698 -2 0 -1
460 18 2 0.1403 4.0682239033686995 -9.130003639355333 20.511220613319992 -2 0 -1
449 18 1 -0.129 4.910873805134387 -8.768204310485824 18.457738774181912 -2 0 -1
464 18 2 0.0354 6.949148144699091 -9.85186490236714 16.87483302479205 -2 0 -1
450 18 2 0.1237 4.660826547247315 -9.786375475516804 18.2150700537068 -2 0 -1
3004 177 2 0.1403 3.4147665511901693 -5.587592326509788 16.721040732889826 0 0 0
2305 134 1 -0.129 10.43881905135252 -6.791478239212188 19.34820968488687 -1 0 0
2313 134 1 -0.1134 9.71885729892087 -5.9289274463104435 17.159424407658815 -1 0 0
453 18 1 -0.129 5.6133051060140815 -6.575004520228548 17.940819884779287 -2 0 -1
451 18 1 0.0266 5.47698102141666 -7.860321838751966 17.568840543943637 -2 0 -1
454 18 2 0.1237 5.982425198100921 -5.836491339109729 17.2401129854206 -2 0 -1
452 18 3 -0.0182 5.758735396890691 -8.253210275303935 16.11541330418435 -2 0 -1
462 18 4 -0.0696 6.924343833473086 -8.9944578843659 16.20142723646866 -2 0 -1
461 18 2 0.0518 5.931125538792233 -7.3128334499863685 15.495701779083968 -2 0 -1
2316 134 2 0.1403 8.37325100242518 -6.443203453364976 18.72782828025288 -1 0 0
2314 134 2 0.1288 8.82013143161754 -5.6224125935572165 16.51254861147057 -1 0 0
2315 134 1 -0.1734 9.429150635177123 -6.3603656646912015 18.501497592902467 -1 0 0
2306 134 2 0.1237 10.194731798665446 -7.3172428119989155 20.25106130179004 -1 0 0
2653 155 2 0.0518 6.494896918352616 -5.487815289125412 13.658250852991124 0 0 0
2351 136 2 0.0354 2.566863921295791 -3.1065956840821656 18.83652952761431 -1 0 0
1957 112 1 -0.129 -2.2933991268588034 -0.7403265682564879 12.680226814416626 -1 0 0
1958 112 2 0.1237 12.32945415775945 -0.6929965555047548 13.141912612691199 -2 0 0
1965 112 2 0.0518 -1.6061542184175848 2.262430444851592 13.08357390480513 -1 0 0
2342 136 2 0.1237 4.844057974515513 1.1796602534917027 17.80290648254267 -1 0 0
2344 136 2 0.1403 6.266858692059928 2.1934975112394897 19.288156506902798 -1 0 0
2343 136 1 -0.1734 5.828465792350864 1.2698038926295752 19.67583191346976 -1 0 0
2341 136 1 -0.129 4.986308369279025 0.6327222543251653 18.796359821408316 -1 0 0
2346 136 2 0.1288 6.667731061446885 1.316256140668842 21.491792059333346 -1 0 0
2345 136 1 -0.1134 5.952469431793242 0.6762098013731653 20.95328088841936 -1 0 0
472 19 2 0.1403 0.11584457195817943 4.095241874145581 14.359291107764156 0 0 0
474 19 2 0.1288 2.5639675393508963 4.838174105506467 14.833251371046627 0 0 0
2339 136 1 0.0266 4.307939486581466 -0.5477358446170585 19.151460394918114 -1 0 0
259 6 1 0.0266 -0.22412996328237786 -1.4312998034972326 17.338958973693803 0 0 0
260 6 3 -0.0182 -0.3204891093116155 -0.1563652400083039 16.641444514365006 0 0 0
269 6 2 0.0518 0.4963442622401868 0.520084035956756 16.454175991127457 0 0 0
471 19 1 -0.1734 0.45040796640665043 4.263075445568954 15.396466046830188 0 0 0
473 19 1 -0.1134 1.7487016571778362 4.745914774549876 15.637306638565393 0 0 0
444 17 2 0.1403 7.871244313709697 2.7371560697633175 18.161846223697083 -1 0 0
267 6 1 -0.1734 -0.3009847787842755 -3.8431799155828967 17.33658056554193 0 0 0
268 6 2 0.1403 -0.3595175277187664 -4.860313988880684 16.88722387414595 0 0 0
257 6 1 -0.129 -0.5122997770286897 -2.6427788178232867 16.622088221517096 0 0 0
258 6 2 0.1237 -0.7587079022758959 -2.643891940785258 15.590571403765422 0 0 0
765 37 2 0.0518 9.703919734621824 2.0000004645949 15.985915855979579 0 0 0
756 37 3 -0.0182 10.170453241202713 1.8607206480290777 15.020739516741711 0 0 0
1436 79 2 0.1403 12.178089664503384 -2.2964730098645787 19.506823982982294 1 0 0
1425 79 1 -0.129 10.221820175947318 -2.1775506421098747 18.824700752805427 1 0 0
1435 79 1 -0.1734 11.437831909690647 -1.5144296620228013 19.06060475837252 1 0 0
1426 79 2 0.1237 9.993040868263256 -3.2533964221569653 18.92241776386716 1 0 0
1427 79 1 0.0266 8.987213499770151 -1.508281608015062 18.681812789632577 1 0 0
1428 79 3 -0.0182 7.594340359219608 -2.1030049201443797 18.60206418240042 1 0 0
1437 79 2 0.0518 6.91072086800537 -1.4193857550846025 19.122729615686776 1 0 0
1440 79 2 0.0354 7.743515531638513 -3.7573891910278907 17.326326281973742 1 0 0
1438 79 4 -0.0696 7.112155224366486 -2.8697984037045954 17.60123361263582 1 0 0
272 6 2 0.0354 13.11023175632902 -0.33526491336647385 16.737291955630592 -1 0 0
1439 79 2 0.0354 6.039569994946071 -2.8950637137318087 17.170102405788175 1 0 0
270 6 4 -0.0696 -1.4989983429516103 0.3207563962809205 16.63022650015306 0 0 0
271 6 2 0.0354 -1.6733452234533284 1.386322119199874 16.39001264505372 0 0 0
2350 136 4 -0.0696 3.541018910248265 -2.669872228067402 18.405519260944317 -1 0 0
2352 136 2 0.0354 4.4758801670945925 -3.170044319501261 18.636417032401063 -1 0 0
1839 104 2 0.0354 1.5905457303242267 4.958336173014668 10.13335186245393 1 0 0
607 27 2 0.0354 1.6620611461372614 8.518950355146556 13.24561696361911 0 0 0
469 19 1 -0.129 -0.45708648922925177 4.199365673539117 16.41969600349313 0 0 0
467 19 1 0.0266 -0.08637396435400968 4.303396597251875 17.800670530102316 0 0 0
465 19 1 -0.129 1.12540943379769 4.833900574002209 18.022079568783095 0 0 0
466 19 2 0.1237 1.263622225947587 4.928320304010061 19.126103813389545 0 0 0
475 19 1 -0.1734 1.9919795003751368 5.120372459481646 17.003962928463633 0 0 0
476 19 2 0.1403 3.0284141012496995 5.567438142140704 17.073998941943806 0 0 0
2206 127 4 -0.0696 5.737574828549562 4.573767155646008 15.327199460549481 -1 0 0
2207 127 2 0.0354 5.620333111411724 5.0367630637075 16.28658477572875 -1 0 0
477 19 2 0.0518 -2.038455737846023 3.8784491851660525 18.469086059151547 0 0 0
468 19 3 -0.0182 -1.0008746276007854 3.8265801042294387 18.931452440817985 0 0 0
470 19 2 0.1237 -1.5410143998298858 4.102653748699895 16.387733367364067 0 0 0
2208 127 2 0.0354 5.170791399350188 3.7214648207590377 14.977051862573811 -1 0 0
480 19 2 0.0354 0.565940026417746 2.348929325021685 19.310807009453043 0 0 0
479 19 2 0.0354 -1.1791834495140945 1.7649154988574287 19.408246178886753 0 0 0
478 19 4 -0.0696 -0.45527672195899815 2.6743448723942875 19.370712925965975 0 0 0
596 27 3 -0.0182 1.8805165456263293 8.069652855753027 15.302858741793042 0 0 0
605 27 2 0.0518 1.3855886735991376 7.085085032509459 15.094105874117124 0 0 0
2792 164 2 0.1403 2.3553314135828707 7.9055789100198695 21.215800493556536 0 0 0
1830 104 2 0.1237 -0.8045722062455656 5.969088618624916 13.806371876675495 1 0 0
753 37 1 -0.129 11.633021609392609 3.867364065877099 15.052952254870464 0 0 0
754 37 2 0.1237 12.051637595748142 3.4457090568509763 15.991211498651731 0 0 0
2205 127 2 0.0518 7.375097444030813 5.795771737029415 14.700884675078887 -1 0 0
443 17 1 -0.1734 8.078306685701538 3.816529289763177 18.327138543264457 -1 0 0
439 17 1 -0.1734 8.679940403479653 5.987597580800492 17.397147271044613 -1 0 0
442 17 2 0.1288 8.80063960530093 4.168128678565971 16.33508321314712 -1 0 0
441 17 1 -0.1134 8.541469859330679 4.597807999743831 17.275918406748787 -1 0 0
440 17 2 0.1403 9.119595975261428 6.464184439250598 16.492490119444422 -1 0 0
437 17 1 -0.129 8.741811958829533 6.510701019049855 18.71694339260489 -1 0 0
1744 98 2 0.0354 8.270248594270484 8.432608741204135 15.298094420243325 -1 0 0
1735 98 1 -0.1734 5.8282905713982815 7.673366243432762 18.499589195518407 -1 0 0
1733 98 1 -0.129 5.994073776941244 7.870674186375439 17.10553405574836 -1 0 0
1734 98 2 0.1237 5.7471114330566655 7.016337843286376 16.44249315666977 -1 0 0
1736 98 2 0.1403 5.2885252781331324 6.729853304815944 18.775368622005505 -1 0 0
438 17 2 0.1237 9.0572658099182 7.55314143173129 18.815891764851564 -1 0 0
749 36 2 0.0518 1.1229292512567428 13.292381887699083 9.997072236369075 0 0 0
608 27 2 0.0354 2.6496018559960453 9.709547007483756 14.241968163700527 0 0 0
606 27 4 -0.0696 2.0440770704286257 8.809648238114761 14.28348121585698 0 0 0
594 27 2 0.1237 2.138056637756949 7.799753937877205 18.059170882807727 0 0 0
595 27 1 0.0266 1.0156302890932583 8.796564989385766 16.42477289926418 0 0 0
599 27 1 -0.1734 -0.1013626339015516 10.830803095703768 17.22898379342758 0 0 0
598 27 2 0.1237 0.3204420364538704 10.253559848698536 15.077360300139308 0 0 0
597 27 1 -0.129 0.25696849704859354 9.958205859947462 16.145012129702774 0 0 0
601 27 1 -0.1134 0.17382643571024922 10.525986594490938 18.59969277851621 0 0 0
593 27 1 -0.129 1.3927175889794343 8.576533829760068 17.778000565575066 0 0 0
1616 90 2 0.0354 4.909815447220318 13.938203012406902 15.945313372586858 -1 0 0
600 27 2 0.1403 -0.7501443736472797 11.711353567174417 17.089174401974123 0 0 0
2155 124 1 -0.1734 -0.03827558917746231 15.240776235444685 14.389534692091024 1 -1 0
2156 124 2 0.1403 0.6847048840251448 15.51890135908367 15.063574764093152 1 -1 0
3106 184 2 0.1237 12.667138158110856 11.573146828533789 19.776490440699572 -1 0 0
2145 124 1 -0.129 -1.143272424316024 14.451221793922118 14.799098841266538 1 -1 0
1602 90 2 0.1237 1.14230249337793 15.148956057598976 17.059428253996934 -1 0 0
1601 90 1 -0.129 1.8689607850658694 15.157840665163748 18.01365754191554 -1 0 0
1611 90 1 -0.1734 1.8492233655642667 15.802118752209745 19.280465403855846 -1 0 0
1603 90 1 0.0266 2.991013099442664 14.460727110345458 17.65359972627383 -1 0 0
2146 124 2 0.1237 -1.234057151974601 14.01917514363933 15.745699688544573 1 -1 0
603 27 1 -0.1734 1.0061649634256589 9.426884811251172 18.771055947638498 0 0 0
602 27 2 0.1288 -0.1531856899773062 11.233151106358342 19.35676477182761 0 0 0
604 27 2 0.1403 1.333181056776251 9.214030410575523 19.77033601531242 0 0 0
1612 90 2 0.1403 0.929705400839279 16.233043907265447 19.785326169779154 -1 0 0
1832 104 2 0.1403 -1.6485473900674257 8.386425403832554 14.635318962959397 1 0 0
776 38 2 0.1403 10.203167497556008 10.31533098446359 18.41317018836998 -1 0 -1
1614 90 4 -0.0696 4.154845513744029 13.162131196286813 16.044075690028027 -1 0 0
778 38 2 0.1288 11.554957427364293 9.810104806158623 16.37661956360388 -1 0 -1
777 38 1 -0.1134 11.576003471233651 9.135868865641825 17.20680247985456 -1 0 -1
775 38 1 -0.1734 10.884984578578806 9.439145977891704 18.375249619833024 -1 0 -1
1615 90 2 0.0354 4.357791656983073 12.350108033928661 15.264600308168966 -1 0 0
1729 98 1 -0.129 6.679771177937863 10.130997157652208 17.65215768879812 -1 0 0
1730 98 2 0.1237 7.197202902092292 10.973687913226888 17.195660093953553 -1 0 0
1731 98 1 0.0266 6.510021100070407 9.067764782932713 16.73547823010927 -1 0 0
1741 98 2 0.0518 5.6320679468575205 9.955879869072918 14.997572342460211 -1 0 0
1732 98 3 -0.0182 6.570632677847199 9.376716023403299 15.254593283675868 -1 0 0
1737 98 1 -0.1134 6.0893271078989715 8.704651802087646 19.488763528056847 -1 0 0
1739 98 1 -0.1734 6.432838769939966 9.991083857388269 18.978880636134292 -1 0 0
1743 98 2 0.0354 7.840629020943729 9.330695436844588 13.598470306527878 -1 0 0
1742 98 4 -0.0696 7.673909517153533 9.004641448113992 14.609389347761097 -1 0 0
1604 90 3 -0.0182 2.9778560967791377 13.428223718927251 16.626553959095236 -1 0 0
1613 90 2 0.0518 2.0178709220882385 12.872282745184426 16.75734914306674 -1 0 0
1740 98 2 0.1403 6.798409437202873 10.716164313541608 19.661115967877024 -1 0 0
3327 197 2 0.0354 9.21080409359193 12.710546844375047 18.79602861360055 -1 0 0
3328 197 2 0.0354 9.608147450378809 11.666537136621141 17.20843236112538 -1 0 0
3326 197 4 -0.0696 9.131900419008865 12.583264237415225 17.71166081858775 -1 0 0
780 38 2 0.1403 12.990897345037894 7.751384535115079 16.326459783164797 -1 0 -1
779 38 1 -0.1734 12.35111772672265 8.0024047596879 17.206181743685576 -1 0 -1
3116 184 2 0.1403 12.468775204359023 12.726172123627414 17.6816664499486 -1 0 0
2149 124 1 -0.129 13.206697137405964 14.896140321164609 12.743959533540146 0 -1 0
2147 124 1 0.0266 -2.210840324094425 14.166249943590467 13.926546230356267 1 -1 0
2150 124 2 0.1237 12.407915713632642 14.731184835707484 12.002785453460206 0 -1 0
2153 124 1 -0.1134 -0.131914330270172 15.876547912938962 13.177024663164895 1 -1 0
2151 124 1 -0.1734 -1.3560486208371052 15.848781478232736 12.435810368721375 1 -1 0
2152 124 2 0.1403 -1.426421735829872 16.360713164174886 11.454277202522531 1 -1 0
2154 124 2 0.1288 0.7916793748951366 16.41580907920112 12.817213029981817 1 -1 0
1777 101 1 -0.129 -1.394159972065228 18.424879537651226 16.823873777332647 1 -1 0
1787 101 1 -0.1734 -0.7122871200340091 19.101817028900015 17.85584695050465 1 -1 0
1788 101 2 0.1403 0.3637135359908922 18.939018414945938 18.02989227530077 1 -1 0
1605 90 1 -0.129 4.103287513669142 14.520597324506435 18.41699983755127 -1 0 0
195 2 1 0.0266 5.951033656585891 18.597384964930725 16.07787904245198 0 -1 0
1607 90 1 -0.1734 4.141652155379465 15.13121554051591 19.69809874676441 -1 0 0
197 2 1 -0.129 4.956865249063784 18.581750976638606 17.019448815713968 0 -1 0
1606 90 2 0.1237 4.939313698237439 13.927576054744257 18.230796487264428 -1 0 0
1608 90 2 0.1403 4.990036894718188 14.929338163904676 20.45253976594067 -1 0 0
208 2 2 0.0354 8.20206266435608 17.821279711070677 14.612865474632569 0 -1 0
1609 90 1 -0.1134 2.964216525226223 15.794219191047551 20.101347143208663 -1 0 0
1610 90 2 0.1288 2.838332829004749 16.306551486100485 20.995038731974216 -1 0 0
3234 192 2 0.1237 7.1978588639114305 16.428280580787213 24.270197244108964 1 -1 0
3244 192 2 0.1403 6.29027716016947 18.884994823941206 24.6605406687109 1 -1 0
3243 192 1 -0.1734 6.571467575885554 18.46777262839393 23.661343270946784 1 -1 0
2148 124 3 -0.0182 12.115365661053007 13.415376085903205 14.406601782971352 0 -1 0
2157 124 2 0.0518 12.458266722261799 12.489485744525863 14.913163714152047 0 -1 0
3245 192 2 0.0518 8.079587322850186 14.880011248077144 23.048793529796576 1 -1 0
1778 101 2 0.1237 -1.005025838064872 17.812415386474118 15.981847460489211 1 -1 0
205 2 2 0.0518 7.566128257172734 19.27412180325044 17.18927338100936 0 -1 0
196 2 3 -0.0182 7.509253678338074 18.564634135312193 16.368772070915476 0 -1 0
3325 197 2 0.0518 8.772765089478131 14.513329040519054 17.602386005947874 -1 0 0
3316 197 3 -0.0182 8.887851584047327 13.677207216021442 17.01710333123162 -1 0 0
3235 192 1 0.0266 7.301814784879973 16.69065396887924 22.170787792667475 1 -1 0
3236 192 3 -0.0182 7.92048250296222 15.263879659073377 22.086997316908633 1 -1 0
1790 101 4 -0.0696 11.532936091846768 16.82430454401687 16.00091404068261 0 -1 0
1779 101 1 0.0266 12.779031148029457 18.702791107978573 16.63839833741069 0 -1 0
1792 101 2 0.0354 10.949517528810194 16.868512016590135 16.978770630042757 0 -1 0
1791 101 2 0.0354 11.532626305557493 15.82784625706438 15.508076412103758 0 -1 0
206 2 4 -0.0696 8.31355807456554 18.607863707044867 15.268071902384698 0 -1 0
1789 101 2 0.0518 12.368038903872982 18.17090381839025 14.599682541427924 0 -1 0
1780 101 3 -0.0182 11.936449530662053 18.04934426030525 15.586828598299295 0 -1 0
207 2 2 0.0354 9.24354530877323 19.31200372305428 15.14952911545791 0 -1 0
3233 192 1 -0.129 7.035941888317066 17.147638236458548 23.48781954745995 1 -1 0
1783 101 1 -0.1734 12.785859075853224 20.1321029503661 18.677408420907398 0 -1 0
1785 101 1 -0.1134 -1.328127597399525 19.998734640575726 18.72376867550501 1 -1 0
2499 146 1 0.0266 1.7708758173047174 25.944496223085967 17.598284056858404 1 -1 0
2497 146 1 -0.129 1.412798652192377 24.600574173034303 17.3670150841432 1 -1 0
2507 146 1 -0.1734 0.20030642095979834 24.046841671330217 17.785609513006253 1 -1 0
2508 146 2 0.1403 -0.2431489294410464 23.046024258792595 17.59654861083233 1 -1 0
2498 146 2 0.1237 2.180065362715391 23.985915635377015 17.007999516651434 1 -1 0
2501 146 1 -0.129 0.8444920996352661 -25.61427943097318 18.41084654969184 1 0 0
2503 146 1 -0.1734 -0.30535158209783325 26.150096141876254 18.95262507266062 1 -1 0
2504 146 2 0.1403 -1.0767763877424605 -25.526726431725006 19.298727707519802 1 0 0
2505 146 1 -0.1134 -0.6922085507395489 24.907417937173868 18.422761346954463 1 -1 0
2506 146 2 0.1288 -1.6692429960355097 24.456651447558958 18.727119948918105 1 -1 0
198 2 2 0.1237 5.297891429471296 18.464766019144346 18.028656382588903 0 -1 0
1698 96 2 0.1237 1.6295671544228263 23.558332355337487 20.484581900222143 0 -1 0
1697 96 1 -0.129 2.6769059641021884 23.70922161534193 20.637356583421987 0 -1 0
1700 96 3 -0.0182 2.541096154422972 21.13459964772798 20.266436964622738 0 -1 0
1398 77 2 0.1237 12.685742837604918 26.065923542835822 20.570856416454063 -1 0 0
1699 96 1 0.0266 3.3549395506441937 22.4556584563921 20.567564473939946 0 -1 0
1786 101 2 0.1288 -0.9083285513501533 20.50846246019099 19.586873425544365 1 -1 0
1784 101 2 0.1403 12.239382451785282 20.62647656552714 19.47716249458709 0 -1 0
1868 106 2 0.1403 12.222023620325896 18.824955553226733 11.953165681596676 -2 0 0
356 12 3 -0.0182 8.585148179088474 25.67458312884997 13.301984799567412 0 -1 0
365 12 2 0.0518 7.598209313923036 25.87853815443478 12.932378004037856 0 -1 0
354 12 2 0.1237 10.666740219564131 24.76468818818235 14.952906333254857 0 -1 0
353 12 1 -0.129 9.709227865113577 24.340073487995017 15.133841684407049 0 -1 0
355 12 1 0.0266 8.60763759113161 24.61470495724362 14.346938804543996 0 -1 0
363 12 1 -0.1734 9.830942005559233 23.168856901888926 15.963663162366226 0 -1 0
357 12 1 -0.129 7.432908309159267 23.875833124278365 14.645416726195696 0 -1 0
361 12 1 -0.1134 8.667892306250504 22.38073045851058 16.126383681705107 0 -1 0
358 12 2 0.1237 6.644827389830323 24.10865016740461 13.90241063650666 0 -1 0
360 12 2 0.1403 6.56661245667784 22.17174738739647 15.772800719387284 0 -1 0
359 12 1 -0.1734 7.43933955302049 22.83034896510765 15.525847631792482 0 -1 0
364 12 2 0.1403 10.713941613952203 23.067556164681033 16.688808770922222 0 -1 0
362 12 2 0.1288 8.817659466347378 21.467864736770903 16.780345664680237 0 -1 0
1711 96 2 0.0354 3.596000301509539 19.518986577619643 19.39770318166793 0 -1 0
1781 101 1 -0.129 12.101122368896437 19.371280463683508 17.71562816149657 0 -1 0
1712 96 2 0.0354 3.449206718115078 21.156180910568278 18.45000266520691 0 -1 0
1710 96 4 -0.0696 3.185898865572422 20.555696360162738 19.33028959718991 0 -1 0
1782 101 2 0.1237 11.03313420867281 19.554363716874956 17.562098895654547 0 -1 0
1400 77 2 0.1403 11.95953151264889 23.695505960133477 19.839646027364967 -1 0 0
1402 77 2 0.1288 9.604192929899687 23.389365120558924 18.64015332582351 -1 0 0
1401 77 1 -0.1134 10.032785972230961 24.34803272553741 19.052748970585775 -1 0 0
1399 77 1 -0.1734 11.309464089330582 24.57741145962182 19.64608541028826 -1 0 0
1397 77 1 -0.129 11.640564842722483 25.876861190940023 20.097471972250183 -1 0 0
533 23 1 -0.129 3.2632623116892994 -23.20003819483768 21.61801097465597 0 0 0
542 23 4 -0.0696 6.355936846576683 -24.489328716832585 20.22878364330561 0 0 0
535 23 1 -0.1734 1.950133770599952 -22.835941925805894 21.259770597024193 0 0 0
534 23 2 0.1237 3.4557169599021322 -23.73082168635052 22.52948892666596 0 0 0
536 23 2 0.1403 1.0333256320975284 -23.165201709420483 21.825211656501402 0 0 0
532 23 3 -0.0182 5.689468525165052 -23.63725812658282 21.081690009182523 0 0 0
541 23 2 0.0518 5.592582005696267 -24.031769586843257 22.11084383624898 0 0 0
1464 81 2 0.1403 -1.515635737347861 -22.05946205312019 23.82762431728419 1 0 0
1463 81 1 -0.1734 -2.0918354759534994 -21.283461410143275 23.367152563033354 1 0 0
972 50 2 0.1403 0.2257186231070383 -21.21389254520805 24.993076503190824 1 0 0
962 50 2 0.1237 2.537199929441393 -20.548968534998327 24.943373155582524 1 0 0
1465 81 1 -0.1134 -1.4954281359214718 -20.146537628757645 22.723824861597 1 0 0
1466 81 2 0.1288 -0.4661836986573447 -19.880390322251934 22.860922844840815 1 0 0
971 50 1 -0.1734 1.0108835063566974 -21.951601615022074 25.23109952732595 1 0 0
961 50 1 -0.129 2.40817606687613 -21.5557155362749 25.212551702194517 1 0 0
963 50 1 0.0266 3.4152558560007713 -22.49155947520231 25.56277449798146 1 0 0
543 23 2 0.0354 6.609905685961442 -25.532923358063698 20.595136935366288 0 0 0
1468 81 2 0.1403 -1.756778973016961 -18.587772376740986 21.358133774083814 1 0 0
218 3 2 0.1288 0.4056582199317339 -18.19827264802344 23.987526613379888 -1 0 0
1407 77 2 0.0354 10.873964185305608 -22.159189530101948 19.868493857005532 -1 1 0
970 50 2 0.1288 -0.28201706556513223 -23.431195819043637 25.285428025990726 1 0 0
969 50 1 -0.1134 0.7641372335015075 -23.267940620360537 25.265013104266576 1 0 0
967 50 1 -0.1734 1.7309969920431796 -24.263496601767226 25.45906528157908 1 0 0
1704 96 2 0.1403 6.508813053841217 23.394877755788578 21.490082008545066 0 -1 0
3263 193 2 0.0354 8.705296928203797 -23.167878570063753 25.162667494658145 -1 0 -1
1457 81 1 -0.129 11.810652209888646 -19.683129141098156 21.670301431770334 0 0 0
1462 81 2 0.1237 11.665665476378265 -22.41232232306155 23.815374940992555 0 0 0
1461 81 1 -0.129 12.079405322328338 -21.42524124907535 23.355921039457773 0 0 0
3250 193 2 0.1237 12.068386277047896 -23.232942329863736 -25.644855512876017 -1 0 0
1460 81 3 -0.0182 9.793719189903287 -20.845944408092688 22.55328850401504 0 0 0
1469 81 2 0.0518 9.480505306625545 -21.352688972541756 23.428113655995915 0 0 0
1760 99 2 0.0354 9.645224777928819 -23.747564487732344 16.476815508596296 -2 0 0
1471 81 2 0.0354 8.50033334537462 -22.014395061208987 21.228086013676588 0 0 0
1472 81 2 0.0354 9.66592088733474 -20.91000629975055 20.395356047637527 0 0 0
1470 81 4 -0.0696 9.285718541736582 -21.261849733578707 21.35416364172516 0 0 0
1459 81 1 0.0266 11.264423753186065 -20.617591772380468 22.54848008543654 0 0 0
976 50 2 0.0354 5.663022908387076 -22.926778454278967 24.29841292375384 1 0 0
1467 81 1 -0.1734 -2.313291783027129 -19.348314351302065 21.870424147993788 1 0 0
1458 81 2 0.1237 11.138855949953435 -19.14687744024658 21.009592848880708 0 0 0
1094 58 2 0.1237 -0.9664116842855293 -16.26713554992936 -24.021112278930694 0 0 0
1986 114 2 0.1237 4.462237970852729 -15.779701803754365 -26.04640109011476 0 0 1
221 3 2 0.0518 3.4727501286899543 -15.845832804768234 19.48459056143939 -1 0 0
212 3 3 -0.0182 2.740420058959388 -15.335984208766188 20.197549098381735 -1 0 0
1658 93 2 0.1288 -0.31845211243779525 -13.035453573486235 20.533009484306422 1 0 0
1093 58 1 -0.129 -1.7024820724907634 -16.293036579929026 -24.81157126366989 0 0 0
217 3 1 -0.1134 0.8750057295042443 -17.704360324294683 23.173568375181606 -1 0 0
216 3 2 0.1403 2.913158505172023 -18.249110997647232 23.810132066337566 -1 0 0
1091 58 1 0.0266 12.52059648183946 -16.966082833235 -24.735120719892276 -1 0 0
211 3 1 0.0266 2.1084258236743327 -16.1915721936548 21.218360469660706 -1 0 0
213 3 1 -0.129 2.8931256258943474 -16.950765823582984 22.065565113176383 -1 0 0
215 3 1 -0.1734 2.2602795713966937 -17.751990511052984 23.058201398637866 -1 0 0
3370 200 2 0.1288 5.050939555372865 -20.594347272188315 23.59539539835057 0 0 0
3368 200 2 0.1403 5.066514333649103 -19.173073499150608 21.536596376788005 0 0 0
1096 58 2 0.1403 -0.20494982437723647 -15.260230117509956 -25.89656586680564 0 0 0
214 3 2 0.1237 4.008861914039532 -16.776730897628052 22.023074740305713 -1 0 0
1095 58 1 -0.1734 -1.2386376553711702 -15.691125298739848 -26.059243510997728 0 0 0
1097 58 1 -0.1134 -2.04759890553493 -15.779345934043691 25.154893532540886 0 0 -1
1098 58 2 0.1288 -1.7151031526708422 -15.289303121530134 24.17759841040555 0 0 -1
3264 193 2 0.0354 9.217214128424224 -24.220746825137713 -25.706973367242966 -1 0 0
3262 193 4 -0.0696 9.128561200845917 -23.14319052927583 26.14538966932152 -1 0 -1
1647 92 2 0.0354 6.904977895630773 -21.684182970680947 17.201063847774222 0 0 0
2354 137 2 0.1237 6.31324414413046 -14.819217567742596 21.443219834139505 -1 0 0
1656 93 2 0.1403 -1.0889942586139956 -14.179147673187677 22.479814137519167 1 0 0
1089 58 1 -0.129 11.727773051245414 -16.805193515235032 -25.843688009375764 -1 0 0
1090 58 2 0.1237 10.666470364772351 -17.112349372214304 -25.73283359715438 -1 0 0
1099 58 1 -0.1734 12.204593226829049 -16.282835568386208 25.259662940893378 -1 0 -1
1100 58 2 0.1403 11.524356912207482 -16.175273659707198 24.41007346990812 -1 0 -1
3372 200 2 0.1403 6.989960872535614 -20.635016978960603 24.908014904955863 0 0 0
3367 200 1 -0.1734 5.945777262488827 -19.179109136304795 22.160761825843732 0 0 0
3371 200 1 -0.1734 6.969492240919465 -19.86733417566493 24.15580046196606 0 0 0
3369 200 1 -0.1134 5.809289247473642 -19.857424283330158 23.391191627418856 0 0 0
3373 200 2 0.0518 10.059091606804728 -17.668867294971726 22.707531256512084 0 0 0
3375 200 2 0.0354 9.546471511420954 -15.919110496641235 24.421066292563395 0 0 0
3365 200 1 -0.129 7.0007864229133 -18.293344994399206 21.852227011950813 0 0 0
3361 200 1 -0.129 8.081345964841269 -19.0061346321271 23.853622163609252 0 0 0
3362 200 2 0.1237 8.934871808570735 -18.97542107625387 24.467332741545157 0 0 0
3376 200 2 0.0354 8.218915917158265 -15.261954969253203 23.34738681125269 0 0 0
3364 200 3 -0.0182 9.167346763646563 -17.0857519735757 22.619634019944918 0 0 0
3374 200 4 -0.0696 8.996808213380175 -16.08358027737077 23.454164074008744 0 0 0
3363 200 1 0.0266 7.99479959399937 -18.12592395729142 22.75335234406689 0 0 0
1657 93 1 -0.1134 -1.2963163939141176 -12.86176762748075 20.88108060210631 1 0 0
3306 196 2 0.1288 1.8683555303176747 -15.35875083144509 24.083911501239744 -1 0 0
3305 196 1 -0.1134 2.2038333625009408 -14.356825157484224 24.218480939816494 -1 0 0
3307 196 1 -0.1734 1.267008726200667 -13.423366387555879 24.731367780271725 -1 0 0
3301 196 1 -0.129 3.880403068631849 -12.836379313705962 24.958190108045716 -1 0 0
3303 196 1 -0.1734 3.5399441442755237 -14.117551381993579 24.581629926078136 -1 0 0
2227 129 1 0.0266 0.8883356867527936 -8.426245331337073 20.842836707689454 1 0 0
2229 129 1 -0.129 0.8809179392937536 -7.721933072097138 22.070240538731987 1 0 0
2230 129 2 0.1237 0.5483273939284756 -8.222764138249593 23.003814977687334 1 0 0
3304 196 2 0.1403 4.272305293398783 -14.951336965028128 24.373055177216678 -1 0 0
2240 129 2 0.0354 2.0809478895890665 -10.627401745095472 21.78190553307586 1 0 0
3302 196 2 0.1237 4.968854847028412 -12.483166282429927 24.884912469991168 -1 0 0
3299 196 1 0.0266 3.0072627354763095 -11.80209453475816 25.178021663015613 -1 0 0
1368 75 2 0.1403 -2.1481681588975015 -8.288094729341605 23.428854213169025 0 0 -1
1367 75 1 -0.1734 -1.8052284762746957 -8.853353160299433 24.285970151054695 0 0 -1
3300 196 3 -0.0182 3.479084071645409 -10.443211291507405 25.42340246318529 -1 0 0
1370 75 2 0.1288 -0.8964078819861897 -7.0878611085395455 25.373315476105493 0 0 -1
2233 129 1 -0.1134 1.53376323767974 -5.584449204004923 20.893806275354137 1 0 0
2231 129 1 -0.1734 1.0901656313312105 -6.30935369161884 22.04682768961675 1 0 0
2232 129 2 0.1403 1.000807574958931 -5.723321564448245 23.002380166901215 1 0 0
1369 75 1 -0.1134 -1.1336185748861158 -8.122346113966652 25.30838861293788 0 0 -1
2319 134 2 0.0354 12.457396401505989 -6.9078983516163195 22.011750609023508 -1 0 0
2353 137 1 -0.129 6.933912890641766 -14.177575988446385 20.86180080021929 -1 0 0
1655 93 1 -0.1734 -1.7696136785160366 -13.544933788997422 21.93727584134777 1 0 0
2363 137 1 -0.1734 6.656928078736241 -12.80166862047225 21.0696600658588 -1 0 0
2364 137 2 0.1403 5.994924222145403 -12.362315845261715 21.846579272465757 -1 0 0
3366 200 2 0.1237 6.9748757282692075 -17.7048869510039 20.996563452976254 0 0 0
1654 93 2 0.1237 12.2781996088974 -14.128551402092535 23.345839989456238 0 0 0
1653 93 1 -0.129 12.389150771699317 -13.533144268857907 22.338082686828695 0 0 0
1366 75 2 0.1237 12.652492018851483 -10.73433628880291 23.8333545805583 -1 0 -1
1365 75 1 -0.129 -2.2218612153593478 -10.162001207620603 24.593671992651522 0 0 -1
1363 75 1 0.0266 -1.9144270736975708 -10.759083170110875 25.813131896111962 0 0 -1
1364 75 3 -0.0182 -2.308366198216408 -12.144935615518305 25.882889732084156 0 0 -1
1374 75 4 -0.0696 11.877899329590866 -12.142018050496985 26.08509007467121 -1 0 -1
1376 75 2 0.0354 11.654128591705991 -11.6458674271502 -25.272669250784602 -1 0 0
1373 75 2 0.0518 -1.9937460673817309 -12.682247921535108 25.011956692503542 0 0 -1
3310 196 4 -0.0696 2.9941839902099097 -9.412792633152863 24.62649633208048 -1 0 0
1651 93 1 0.0266 11.514133840985282 -12.664975378642591 21.65972481932076 0 0 0
3312 196 2 0.0354 3.130936778891461 -9.459484997100729 23.51972602683761 -1 0 0
1661 93 2 0.0518 9.664038285129235 -13.759231645289967 22.001727421755753 0 0 0
1652 93 3 -0.0182 10.068405126465043 -12.718252826638476 21.81039942218136 0 0 0
2784 163 2 0.0354 -0.28885443113604387 -1.8839222130834659 23.326551744028084 1 0 0
298 8 2 0.1288 3.953103767228494 -4.672143259303678 24.702208598044894 0 0 0
297 8 1 -0.1134 4.910325363648538 -4.124212594517514 24.433468299599507 0 0 0
2317 134 2 0.0518 13.101051317144382 -5.427176990044981 20.25588786559083 -1 0 0
2783 163 2 0.0354 0.9532323921914077 -3.1305953256164862 23.13319516682531 1 0 0
2782 163 4 -0.0696 0.03922802558959715 -2.838209080237756 23.637903434061457 1 0 0
2772 163 3 -0.0182 -0.7739823307616744 -3.778766124049461 24.178709855343893 1 0 0
2781 163 2 0.0518 -0.49635968518168183 -4.821560265015712 24.32182291947928 1 0 0
2771 163 1 0.0266 -1.136470820672612 -3.274391242965181 25.569347193263628 1 0 0
2318 134 4 -0.0696 12.754346936286925 -7.354404533767301 20.97119967458626 -1 0 0
2234 129 2 0.1288 1.8205821653538643 -4.590013978078425 21.040289709786524 1 0 0
2235 129 1 -0.1734 1.6093579951577197 -6.2968117546123406 19.752009322512922 1 0 0
2236 129 2 0.1403 1.5801721044762935 -5.790366188928352 18.65443423771296 1 0 0
736 35 2 0.0354 12.299593777366956 -4.511982555806162 21.717708985815122 -1 0 0
295 8 1 -0.1734 5.402150952301265 -3.2994757981280967 25.428549003843294 0 0 0
1112 59 2 0.1403 10.34339283348557 0.35235735688852726 24.934478721871432 -1 0 0
458 18 2 0.1288 4.3442359419333405 -6.748057180474375 21.06599623480738 -2 0 -1
3311 196 2 0.0354 2.2772769299123725 -8.610352546992363 24.77426104275628 -1 0 0
300 8 2 0.1403 4.970485764783076 -4.468066464290058 22.35454171281538 0 0 0
293 8 1 -0.129 6.47939661984863 -2.4626210115728426 25.211567747758753 0 0 0
304 8 2 0.0354 6.497413731215524 0.17313438316999236 24.836581995387178 0 0 0
722 35 2 0.1237 10.467622495624289 -5.422500786992892 24.21229572730094 -1 0 0
291 8 1 0.0266 6.848845946623016 -2.0812763742142395 23.90733509284645 0 0 0
289 8 1 -0.129 6.38833831141524 -2.9277477960635303 22.86913906123854 0 0 0
732 35 2 0.1403 9.008565923748082 -7.377511554598953 23.980558945313515 -1 0 0
299 8 1 -0.1734 5.48026693227125 -3.9541402274861013 23.169380784435024 0 0 0
723 35 1 0.0266 9.89595426318026 -4.507973919489537 22.355400989802334 -1 0 0
290 8 2 0.1237 6.612778044179022 -2.7990737000215113 21.8452879170675 0 0 0
721 35 1 -0.129 9.894013375522565 -5.530571195660205 23.262911823326878 -1 0 0
729 35 1 -0.1134 8.224520127500094 -6.565662792557071 22.02638451621678 -1 0 0
731 35 1 -0.1734 9.03766176018772 -6.659665171470649 23.156000530667324 -1 0 0
730 35 2 0.1288 7.382956177516164 -7.296045214135137 21.960883661646623 -1 0 0
725 35 1 -0.129 8.975372603522192 -4.381557862334495 21.406102926537194 -1 0 0
728 35 2 0.1403 7.4462158856255565 -5.3513828666327035 20.375107723976022 -1 0 0
727 35 1 -0.1734 8.135721627096371 -5.421360103103049 21.18549751863377 -1 0 0
724 35 3 -0.0182 10.866105214540076 -3.326624786597547 22.579968735852827 -1 0 0
734 35 4 -0.0696 12.111810393956194 -3.5859175133019434 22.200943225737653 -1 0 0
726 35 2 0.1237 9.187794891908379 -3.467739862837294 20.842964963910703 -1 0 0
1548 86 2 0.1403 2.358772649812743 -0.8663870409929487 25.63907529640178 0 0 0
1515 84 1 -0.1734 13.022460774809682 1.3641698542246405 23.65927317865453 -1 0 0
2347 136 1 -0.1734 5.142916227343001 -0.30263265058731614 21.412300106881126 -1 0 0
2348 136 2 0.1403 5.0631958443835074 -0.7067091475319334 22.42205789589314 -1 0 0
264 6 2 0.1403 0.18644256952008828 -2.534699752239748 20.55369684831327 0 0 0
261 6 1 -0.129 -0.03389253550217511 -1.4153866334088845 18.71660626363415 0 0 0
263 6 1 -0.1734 0.12955046155613004 -2.630398458358601 19.453723580517067 0 0 0
262 6 2 0.1237 -0.21640366396544153 -0.5348119400432424 19.178326278513808 0 0 0
2337 136 1 -0.129 4.327835755108744 -0.9782352460978644 20.48555607241454 -1 0 0
2799 164 2 0.0354 1.0445532062482883 1.8057268170004297 22.799430853481827 0 0 0
2774 163 2 0.1237 0.8369692409168862 -2.9453307019948807 -26.088416534110568 1 0 1
2773 163 1 -0.129 -0.22016434753454747 -3.0440747937247714 -25.766633645317263 1 0 1
266 6 2 0.1288 -0.19680344215396217 -4.774573112354214 19.353694849492808 0 0 0
265 6 1 -0.1134 -0.11066886162411643 -3.81314700586624 18.780695182092057 0 0 0
2338 136 2 0.1237 3.7196333724584036 -1.7708596284786478 20.880541400631316 -1 0 0
1547 86 1 -0.1734 2.293910907893108 0.2360089874595579 26.053364887983896 0 0 0
1511 84 1 -0.1734 10.875575419943006 1.841514292907706 22.85608601488725 -1 0 0
1514 84 2 0.1288 11.737039921764378 -0.044568667942883035 22.413618182355272 -1 0 0
1513 84 1 -0.1134 11.893178104170559 0.9009002470985047 23.023359327133726 -1 0 0
735 35 2 0.0354 13.047172902016873 -3.120235700511295 22.602719323885353 -1 0 0
1113 59 1 -0.1134 9.432610041264585 1.4144391500408517 -25.77441158464577 -1 0 1
1114 59 2 0.1288 9.472679860977035 2.3661940981524476 25.97246904261545 -1 0 0
1434 79 2 0.1288 12.334547141463721 0.42816174911683885 19.195571497362696 1 0 0
1433 79 1 -0.1134 11.425495803306355 -0.07519131426420743 18.97401762591147 1 0 0
1431 79 1 -0.1734 10.226572898629955 0.6082753557204942 18.95590881955602 1 0 0
1429 79 1 -0.129 9.072306682134407 -0.13816131397650824 18.652716976711368 1 0 0
294 8 2 0.1237 6.931113604695894 -2.019758261192291 26.081583464469563 0 0 0
292 8 3 -0.0182 7.825586627456383 -0.9486112606204105 23.523919079468616 0 0 0
302 8 4 -0.0696 7.333193532380747 0.1579915089851478 24.037555020816573 0 0 0
301 8 2 0.0518 8.47011185293588 -1.1533518246558516 22.665476856697538 0 0 0
303 8 2 0.0354 7.522696306045293 1.2418686388744675 23.70371956775754 0 0 0
1537 86 1 -0.129 3.424053500903634 1.1215975724482958 25.809045985489096 0 0 0
1538 86 2 0.1237 4.548574111600524 0.8227346327683266 25.8153399262129 0 0 0
1539 86 1 0.0266 3.230927129431954 2.5576024045944568 25.85690157212712 0 0 0
1549 86 2 0.0518 4.603573531621236 3.577255379238079 24.480966936197284 0 0 0
1512 84 2 0.1403 9.913734700348956 1.5524118690505708 22.324413483677787 -1 0 0
1432 79 2 0.1403 10.289731394494018 1.7188859793145204 18.8628645929338 1 0 0
1430 79 2 0.1237 8.088377799732129 0.3432223708196262 18.578400795552938 1 0 0
733 35 2 0.0518 10.660671492634343 -2.798443217092682 23.442115634200686 -1 0 0
1550 86 4 -0.0696 5.259946081531801 3.4658498316444075 -25.80401634371259 0 0 1
1551 86 2 0.0354 6.319461010537566 3.652514729027958 -26.061112234626123 0 0 1
1552 86 2 0.0354 5.225567458702823 3.4397652780312735 -24.62240155765627 0 0 1
1540 86 3 -0.0182 4.312576060299621 3.5271330993541254 25.631830021711014 0 0 0
1509 84 1 -0.129 11.012499660860561 3.2156893511370703 23.24254005202756 -1 0 0
1505 84 1 -0.129 13.088497596249505 2.7274720917474014 24.146834838584798 -1 0 0
582 26 2 0.1237 2.348621592836532 8.25764514080554 25.853746969547288 0 -1 0
2786 164 2 0.1237 -0.354229525615492 4.954805096303395 24.063577778001605 0 0 0
2800 164 2 0.0354 0.4508805803902704 3.088765157289552 24.070418572955216 0 0 0
2787 164 1 0.0266 1.346910847314688 5.157297397561036 22.769448750708854 0 0 0
2790 164 2 0.1237 3.126554789050078 5.816409982684463 21.566745321070194 0 0 0
2789 164 1 -0.129 2.1651974821975557 6.076056795000224 22.103140160989984 0 0 0
2796 164 2 0.1403 -0.9732897438717144 7.236508643739963 23.84953464147558 0 0 0
2785 164 1 -0.129 0.28607873113806365 5.619229613044145 23.4554310653667 0 0 0
2791 164 1 -0.1734 1.7560542400437746 7.406802073141254 22.051486260833013 0 0 0
2794 164 2 0.1288 0.2981723722354097 8.948743489645564 22.567400924209824 0 0 0
2795 164 1 -0.1734 -0.09525314272066913 6.934078824876286 23.226401740039996 0 0 0
1508 84 3 -0.0182 12.068901729854977 5.112090893010583 24.508401305552663 -1 0 0
2793 164 1 -0.1134 0.6812055563404849 7.93032527938302 22.682882662572766 0 0 0
1507 84 1 0.0266 12.13268060462118 3.7030100469685534 23.933167074108244 -1 0 0
2798 164 4 -0.0696 1.0269076550198175 2.893274544332137 23.145934396373065 0 0 0
2788 164 3 -0.0182 1.7669314039507193 3.730150183672598 22.42334515287638 0 0 0
2797 164 2 0.0518 2.300640078979198 3.4840542529861076 21.472148334194056 0 0 0
591 26 2 0.0354 6.311273392578702 9.55626487221282 23.70414343290018 0 -1 0
2748 161 2 0.1403 9.517601874617975 8.771465613025036 22.396501000095554 -1 -1 -1
434 17 2 0.1237 7.52116957665691 3.689916831846103 20.45324489298537 -1 0 0
433 17 1 -0.129 7.870980448815022 4.387749186307647 19.607961697068088 -1 0 0
448 17 2 0.0354 6.437132334491497 5.931288535245903 21.30484423471336 -1 0 0
435 17 1 0.0266 8.444954124409838 5.688559457653592 19.828581967832992 -1 0 0
1039 54 2 0.0354 9.119540566883074 4.646757965017085 -25.206097466777532 1 0 1
1518 84 4 -0.0696 12.711409608197986 5.186435499992631 25.64821862597989 -1 0 0
1519 84 2 0.0354 13.073789244535325 6.076539276472016 26.069997062786072 -1 0 0
1517 84 2 0.0518 11.841178368706814 5.8426526402448475 23.72257940442482 -1 0 0
1510 84 2 0.1237 10.231365705224905 3.9648737401172824 23.034084193609132 -1 0 0
770 38 2 0.1237 13.02468751805333 6.288534776693025 18.348723317721102 -1 0 -1
447 17 2 0.0354 7.41795433228531 6.42206317193332 22.79903059008577 -1 0 0
446 17 4 -0.0696 7.413481730858097 6.113381458060912 21.745464557737634 -1 0 0
436 17 3 -0.0182 8.595276357417147 6.3042538449164125 21.102854083049344 -1 0 0
445 17 2 0.0518 9.571117017771238 6.426444101520332 21.63892244546363 -1 0 0
590 26 4 -0.0696 5.314791578970656 9.558146456615487 24.218070206678053 0 -1 0
592 26 2 0.0354 5.060211699188071 10.531841447043078 24.554561928613595 0 -1 0
781 38 2 0.0518 11.494485071546746 7.195963414810381 21.548784529815627 -1 0 -1
772 38 3 -0.0182 12.351748017644777 7.053972058601509 20.995975230807858 -1 0 -1
589 26 2 0.0518 5.331899829494372 7.5704662458580625 24.929779001866557 0 -1 0
580 26 3 -0.0182 4.9513090501881685 8.560691771093605 25.022790767827505 0 -1 0
3105 184 1 -0.129 13.042624839155101 12.615853106067341 19.719154556451777 -1 0 0
3119 184 2 0.0354 -0.15383587968636958 11.474548419236529 22.484091269882793 0 0 0
1152 61 2 0.0354 -0.9343545517649998 13.291729097705698 -25.995383314979378 1 0 1
3108 184 3 -0.0182 -1.7117161849293054 12.73584486218712 22.102508741329146 0 0 0
3118 184 4 -0.0696 -0.4150626619989592 12.401923008251577 22.145263912173785 0 0 0
3120 184 2 0.0354 0.49320457199147694 12.983474753240673 21.872651868843555 0 0 0
1488 82 2 0.0354 3.7615152999689347 12.235018628301253 19.797191499733795 0 0 0
1487 82 2 0.0354 1.9974016217966668 11.71967481052306 19.735262178554677 0 0 0
1486 82 4 -0.0696 2.8604988622984937 11.888631564687758 20.377804164058595 0 0 0
3109 184 1 -0.129 -1.969132878693587 14.7576839987053 20.728377373260116 0 0 0
3107 184 1 0.0266 -2.1418951442134215 13.393652398001016 20.82199584271388 0 0 0
1476 82 3 -0.0182 2.9619421270696975 11.35279759229643 21.594177795320757 0 0 0
3110 184 2 0.1237 -1.5451571193579723 15.289637370800586 21.633418689062076 0 0 0
1475 82 1 0.0266 3.8911356595933784 12.10011652621957 22.542762848159295 0 0 0
2739 161 1 0.0266 10.271104841407306 11.434983672491171 24.316186887097768 -1 -1 -1
2749 161 2 0.0518 12.162391503677965 12.583001791865838 24.538301295184404 -1 -1 -1
2747 161 1 -0.1734 9.414583501764834 9.374273762178882 23.203422562372747 -1 -1 -1
1738 98 2 0.1288 6.200964342148754 8.531029398627062 20.5880209500961 -1 0 0
769 38 1 -0.129 12.635463818373879 7.305913592253806 18.372724155606498 -1 0 -1
771 38 1 0.0266 12.032156575261839 7.643112928703286 19.64069168163491 -1 0 -1
3117 184 2 0.0518 13.047700439716676 12.037628136993236 22.303386148538515 -1 0 0
2740 161 3 -0.0182 11.069692208374976 12.683478852827827 24.234033604192526 -1 -1 -1
2750 161 4 -0.0696 10.4716383091571 13.804735666212833 24.505972737144962 -1 -1 -1
2751 161 2 0.0354 10.906482246217644 14.442448457825215 25.213899703182467 -1 -1 -1
2752 161 2 0.0354 9.651486293001158 14.11888603464556 23.980313087677438 -1 -1 -1
774 38 2 0.1237 10.274017211040775 8.96285266580987 20.34295034241106 -1 0 -1
2737 161 1 -0.129 10.252342303724316 10.527344787365989 23.197548621976235 -1 -1 -1
2738 161 2 0.1237 11.035718177751368 10.654283689703954 22.353983242144245 -1 -1 -1
773 38 1 -0.129 11.068867275707271 8.676376501399577 19.51125453880218 -1 0 -1
782 38 4 -0.0696 -2.099161692430201 7.793188151364427 21.313423281962738 0 0 -1
783 38 2 0.0354 -2.04346321798131 8.46501374383063 22.114094309197156 0 0 -1
784 38 2 0.0354 -1.078660291672469 7.829543005705885 20.734932085975586 0 0 -1
1485 82 2 0.0518 2.1806532602933926 10.80655260312618 22.0738982835981 0 0 0
1479 82 1 -0.1734 6.019324608058574 12.59681936919862 23.369443203279484 0 0 0
1473 82 1 -0.129 3.32659019596721 12.768937448079761 23.66395261852743 0 0 0
1477 82 1 -0.129 5.284580426300426 12.11574592617303 22.3042424091914 0 0 0
3248 192 2 0.0354 7.503644406499272 14.773543313378505 20.113955765948127 1 -1 0
1474 82 2 0.1237 2.2274605497443183 12.768871833834385 23.673198780229875 0 0 0
342 11 2 0.1237 0.740618701245074 19.62068132981732 -25.17073021940227 0 0 1
2543 148 2 0.0354 -1.5218678540034214 15.174888302364433 25.728403329630485 1 -1 -1
2544 148 2 0.0354 12.502389912213113 15.33224963108254 -25.575412692656453 0 -1 0
344 11 2 0.1403 -0.013277486623903018 21.773488794106758 -24.31046253690819 0 0 1
3115 184 1 -0.1734 12.887201328792674 13.25471443272964 18.52307671904435 -1 0 0
3114 184 2 0.1288 13.048995241332221 15.14897033807695 17.374865768620452 -1 0 0
3113 184 1 -0.1134 13.091900770208396 14.674469758183658 18.36608235994662 -1 0 0
3242 192 2 0.1288 5.804068677684407 20.204001911537688 22.68663664986265 1 -1 0
3241 192 1 -0.1134 6.264834308729031 19.247745233434717 22.565175334076635 1 -1 0
341 11 1 -0.129 1.0785942751281987 20.540255224871647 -25.635028559792218 0 0 1
351 11 2 0.0354 3.396330477531917 17.714477188795282 24.00091293929793 0 0 0
352 11 2 0.0354 3.7743949731341657 19.35908996413265 23.59066539574127 0 0 0
350 11 4 -0.0696 3.2980107287763682 18.74236744360534 24.2885808006372 0 0 0
340 11 3 -0.0182 2.6150217253515207 19.17350430792322 25.38923087323302 0 0 0
3112 184 2 0.1403 -2.1310857761448565 16.502216329492786 19.284469147807215 0 0 0
3111 184 1 -0.1734 -2.0138704116800428 15.46569151136493 19.452436893219975 0 0 0
349 11 2 0.0518 1.9563349103152587 18.483175666563703 25.95506704812944 0 0 0
339 11 1 0.0266 1.9229648355680207 20.523710128483522 25.543480626202122 0 0 0
343 11 1 -0.1734 0.6788631536674429 21.734808653589376 -25.10374043780893 0 0 1
2524 147 2 0.1403 7.363318019908149 22.324914209849453 -25.916361500169998 1 -1 1
2522 147 2 0.1288 7.038997314966992 24.893234552687172 -26.089121205922805 1 -1 1
2521 147 1 -0.1134 7.55025366230979 24.224625506708186 25.369387443233872 1 -1 0
2523 147 1 -0.1734 7.62410444138846 22.86021849546149 25.446585361175583 1 -1 0
3238 192 2 0.1237 6.874375452682684 16.92935440399135 20.130771404412343 1 -1 0
3240 192 2 0.1403 6.442699645655039 19.55947607678998 20.390271065834675 1 -1 0
3239 192 1 -0.1734 6.625013380617144 18.930971461716204 21.27193764020854 1 -1 0
3237 192 1 -0.129 6.947310456322123 17.48149130595829 21.081376606396695 1 -1 0
3247 192 2 0.0354 7.475093058158314 13.291903344591272 21.28003823991434 1 -1 0
1482 82 2 0.1288 6.116895151444971 13.265788556091774 25.487809283750664 0 0 0
1481 82 1 -0.1134 5.515426625885494 12.922060613778424 24.5808663264637 0 0 0
1483 82 1 -0.1734 4.106789636286622 13.263575990916538 24.655431665501883 0 0 0
1484 82 2 0.1403 3.645169792351966 13.639845179338531 25.51384239944225 0 0 0
3246 192 4 -0.0696 7.6241321056194735 14.359182907843127 21.13092130304487 1 -1 0
632 29 2 0.1403 10.200370579547883 18.013185590626914 22.7163579149292 -1 -1 0
635 29 1 -0.1734 11.528102802411624 20.07388365565707 25.171641465959947 -1 -1 0
625 29 1 -0.129 12.862553641212136 20.102994102323905 24.845447163654367 -1 -1 0
633 29 1 -0.1134 10.669193448568326 19.16448874034258 24.545087125743976 -1 -1 0
631 29 1 -0.1734 11.071643457709206 18.4767286388813 23.409481455166567 -1 -1 0
629 29 1 -0.129 12.402242297779507 18.366266501979297 23.066249922181214 -1 -1 0
627 29 1 0.0266 -2.296573113079087 19.159324969064148 23.81896133216692 0 -1 0
630 29 2 0.1237 12.669908569699993 17.795991696787333 22.170451228212013 -1 -1 0
2513 147 1 -0.129 8.364593932582768 22.156923379468495 24.393973996616698 1 -1 0
2514 147 2 0.1237 8.472393782788792 21.049057631013998 24.40728806387869 1 -1 0
2525 147 2 0.0518 9.49799256182137 20.94107689752352 22.40524632170715 1 -1 0
2515 147 1 0.0266 8.755014762791852 22.83943920414277 23.21492102937729 1 -1 0
637 29 2 0.0518 -0.36161935019549235 18.21369741386346 23.91000781579065 0 -1 0
628 29 3 -0.0182 -0.7778167660095213 19.114828779409905 23.525102228256486 0 -1 0
1216 65 2 0.0354 0.6604353812670114 24.890638552684194 22.528244109825433 -1 -1 0
1215 65 2 0.0354 0.8283034680748401 23.129502523363357 22.906380299334625 -1 -1 0
1214 65 4 -0.0696 0.08398314683946914 23.936840020501265 22.526574861790476 -1 -1 0
2520 147 2 0.1403 7.8653503036212165 25.965660429661412 24.11334839026396 1 -1 0
1709 96 2 0.0518 2.443236322985918 20.503085158966027 21.12639968069569 0 -1 0
1707 96 1 -0.1734 3.284225044336717 24.77775963205658 21.17267129577084 0 -1 0
1708 96 2 0.1403 2.8730815668457255 25.764282138497805 21.098998635750576 0 -1 0
1701 96 1 -0.129 4.702980362316801 22.361543877778832 20.812259150982015 0 -1 0
973 50 2 0.0518 4.766340396972163 -21.66743004494016 -25.381516636245703 1 0 1
338 11 2 0.1237 2.8972323591104305 21.655261944384197 24.01612099191693 0 0 0
346 11 2 0.1288 0.3925485085153899 23.916638144564384 -25.613779748105742 0 0 1
1703 96 1 -0.1734 5.387738694973603 23.5137792776859 21.24630493206697 0 -1 0
337 11 1 -0.129 2.3533863620743682 21.70537771871552 24.957211526321764 0 0 0
348 11 2 0.1403 1.952965738504977 23.88572426363573 24.789815717239275 0 0 0
347 11 1 -0.1734 1.7491776551180478 22.928858355962326 25.38026288628384 0 0 0
345 11 1 -0.1134 0.8770619072489971 22.940986542010236 -25.79293009075917 0 0 1
966 50 2 0.1237 3.789019791730633 -24.64926835872247 25.84822191567575 1 0 0
965 50 1 -0.129 3.041658993463247 -23.854189448009453 25.79652425532556 1 0 0
968 50 2 0.1403 1.3608818284246582 -25.288542761676364 25.354511070802857 1 0 0
1706 96 2 0.1288 5.111202128025762 25.717284059199272 21.50473240101332 0 -1 0
1705 96 1 -0.1134 4.692837468176875 24.75929951938993 21.262151871487678 0 -1 0
1408 77 2 0.0354 11.978074930403492 -23.150254584340022 18.885190443730256 -1 1 0
1406 77 4 -0.0696 11.319004353207017 -23.157639238680744 19.7434080651208 -1 1 0
2519 147 1 -0.1734 7.853174945452308 24.895678574080776 24.204508245612097 1 -1 0
640 29 2 0.0354 -0.7631014106943116 20.50848462036902 21.782324614289713 0 -1 0
638 29 4 -0.0696 -0.3330800855828162 19.631106596625624 22.319978658792337 0 -1 0
626 29 2 0.1237 -1.8619968435921097 20.695441639267788 25.271842836971565 0 -1 0
2527 147 2 0.0354 7.872586554418626 21.33728097213462 20.67941361164248 1 -1 0
1702 96 2 0.1237 5.28027341913776 21.448607437170864 20.677103961145566 0 -1 0
1403 77 1 -0.1734 9.146605668005309 25.447176292691825 18.983442819294105 -1 0 0
1404 77 2 0.1403 8.198693947996977 25.10261340362504 18.390050082199586 -1 0 0
1395 77 1 0.0266 10.783779336358197 -25.38237456411763 19.981961155279173 -1 1 0
964 50 3 -0.0182 4.656509231376606 -21.833797230847562 25.940752594720387 1 0 0
974 50 4 -0.0696 5.564829668182223 -22.594078841548814 25.343874827463164 1 0 0
975 50 2 0.0354 6.400298378357768 -22.912192384044534 25.988088324031885 1 0 0
1202 65 2 0.1237 11.833357541354472 23.131527971550682 23.29991453414411 -2 -1 0
1212 65 2 0.1403 10.658130847957299 24.608111678038256 24.920154719754382 -2 -1 0
1405 77 2 0.0518 10.835114653637268 -23.996069093435935 21.53848445633187 -1 1 0
1393 77 1 -0.129 9.567084839986732 -25.53272660836333 19.34848681500518 -1 1 0
2516 147 3 -0.0182 9.354944466019633 21.975203793201622 22.090676952081647 1 -1 0
2526 147 4 -0.0696 8.45816956937286 22.076495184770558 21.07094375067573 1 -1 0
2528 147 2 0.0354 8.156656693167402 23.000498712578867 20.700886515861892 1 -1 0
2517 147 1 -0.129 8.448639357808608 24.173604000902156 23.163457031308106 1 -1 0
2518 147 2 0.1237 8.698615916980089 24.59152883665655 22.172371162943485 1 -1 0
1394 77 2 0.1237 8.94640261721616 -24.656595467537045 19.133330880682806 -1 1 0
1396 77 3 -0.0182 11.335890730600266 -24.14404430433415 20.610665387547108 -1 1 0
639 29 2 0.0354 0.4707921197941159 19.19208245188695 21.73845944568155 0 -1 0

Velocities

1991 0.01034827932249255 -0.010988292368437905 -0.003936549623339756
1989 -0.005416938711660986 -0.008217211004740776 -0.005319943155990976
1992 -0.00785990819381574 -0.0446549790328905 0.03621114760062763
1990 -0.013947910308522675 0.009019237886434668 0.017141402108735215
1987 -0.002513647565979748 -0.0022475312242323997 -0.0035449200173180606
3101 0.01004847969356031 0.015972343206670216 -0.007076986514027834
3258 -0.010061640024345815 -0.037888365693082855 0.00329043286448628
3260 0.013188477412197242 -0.03622808134995899 -0.008325731257730775
3103 0.02269754222655205 0.008936836452633674 -0.00034686946177056826
3104 -0.011867024213920474 -0.010859723313803096 0.043182707396469656
3102 0.0007013498011935539 -0.0008380797636280745 0.004783520463098116
2837 0.008534691829528832 -0.0038143773582496113 -0.000958930795281329
1599 -0.033746779171132474 -0.02363773836184526 0.036994826174840775
1598 -0.010611540594202624 0.005747274322135899 0.00226748907154749
2839 0.012737499111356498 0.006659221355919029 0.007855814423148574
2840 -0.015131017712751368 0.006856484005417828 0.007159964772892678
1988 0.003322762906973923 0.008505266050272511 -0.0023742328107926734
2838 0.006116633553583034 0.03328044684285536 -0.011603873704306511
1600 0.0069673137249950555 -0.0014084561384998995 -0.008921995480809271
1997 0.01479376851700538 0.04527069093006444 0.001840919131811799
2835 0.004377791826142932 -0.008726556249146797 -0.001580657689902685
2833 0.010964393249788075 0.009694453510119588 -0.0064054962083266295
3251 -0.0034387478622797552 -0.0009279840155659103 -0.003776189189946408
3249 0.007621019482837453 -0.002999209324491708 -0.00330569878308029
3259 0.0029840603087818596 0.002545861685256008 0.00592290878183933
3257 -0.0009765031521012735 0.005702203032374984 -0.0035620002674970263
3253 -8.206942210298385e-05 -0.005287369178041141 0.0009154127387445009
3254 0.0025098185869309015 0.0030017935168208565 0.030841913524299668
3255 -0.005225147829108541 -0.0049404787531830375 0.00029845418992431274
3256 0.01920778536502905 0.04392704415715454 -0.010162651401359312
2843 -0.0011101023119673649 -0.008240248493356389 -0.008970907408356826
2841 -0.0009695524389201193 -0.00028151124661790033 0.0011857782950773607
2842 -0.004649890462936774 -0.0009534072242591391 -0.016532658846246426
2844 -0.009565746395806969 0.022495971386843807 -0.045417291439763086
3261 -0.009642025803833878 0.009740626502828689 -0.0032415338986045896
662 0.0060948633824570156 0.012509996495902996 -0.009854092157701872
1206 0.019606787757549878 0.008532679932566869 -0.025941555226890185
1210 -0.023462091167237655 0.0014659316583866444 0.011387145292887396
1207 -0.01972463510388294 0.007304598844469117 -0.004101610599855377
1208 -0.004819272418850264 0.022349370768147896 -0.007560526682148469
1993 0.0011202630196087827 0.007372514440647153 0.006633546906392071
1994 0.014471850696622515 0.017207273412558205 0.007481394659638504
1995 -0.0008826534560850556 0.012367409996505475 0.0018220637250011373
1985 -0.001739976239176598 0.007005588578803 0.004944704918872643
1996 -0.035359069177225075 -0.010809907663936637 0.007436278790022108
1589 -0.0038179167295329434 0.0007350177764813539 0.011809140693889286
1590 0.031056904381742315 -0.008970907312981976 -0.053008358016930775
1594 -0.014435674547849612 0.003787578785758431 0.0019749296224657893
1593 0.003389484416255111 -0.013448129072921408 0.004541629927110824
1591 -0.008499263026678208 -0.012341677968770327 0.002918985048611974
1592 0.01894012035068116 -0.00635394762865046 0.006962227105500071
1595 -0.008370675463389779 0.007920394300946116 0.0013439404494837211
1585 0.002550894934109948 0.005329786274682996 0.0018327460707620981
1587 0.009231796760972102 0.002983968057293804 -0.0025532597513353646
1596 0.001287058287385052 -0.060657011749524 -0.025928858256313293
2000 -0.009450465928793688 -0.010679708684849914 -0.03368759433982719
665 -0.008472689377566133 -0.0012913636977298425 -0.011059865759488639
668 -0.015598156254066227 0.008440193724443799 0.008760233783690055
1101 0.000739375533052617 -0.00043421775759303706 -0.01459939052368255
3252 -0.005752310994800315 0.010277664899184415 -0.002123629263876752
1998 0.00291832841324751 0.0053239988631280655 -0.006057474043061452
1999 -0.020877207450230386 -0.01102690613162633 0.0252419466188398
2591 -0.05747577803063393 0.008176112605327173 -0.0010236121821592093
2592 -0.0006912825591534847 -0.009402115289038037 0.004761855512072604
2590 -0.0011566305229891727 0.005382348672268458 -0.002284778658707416
661 0.00026363945083320803 -0.0040972639361508785 -0.0001469702344688861
1104 -0.00038352941547750545 0.0024489455915799752 -0.0173258087244661
3182 0.00961722982310336 -0.007308758470087541 -0.006260627737914945
669 -0.029981774443324657 0.003915914055500348 -0.024844724638235186
671 0.012004852087077468 -0.010204252773884061 -0.020611878723602872
660 -0.004160553307161327 -0.0030175007234481423 0.0031787146609622715
659 0.0021104644053096754 -0.0010690615264993479 -0.001990482963094911
670 0.00373103273204853 -0.008502189705205209 0.005602588442964637
658 -0.02630753569009664 -0.04262009780369115 -0.02438518320589997
657 -0.0017139573453458811 0.0032293592260257296 -0.0017065410650432748
667 0.001335281882852401 -0.007312249884472466 -0.003443942112555916
3184 -0.04040447621854814 -0.024340592330803698 -0.01525880659573084
1103 0.035799425489253855 -0.0039248062098437 0.0024935032198386705
1092 0.001907525632539495 -0.0011374327936655125 0.004805044409263246
1102 2.3424975985246415e-05 0.003251341467436263 -0.004833834258705072
2584 -0.008124331479682714 0.05319519906373676 -0.040201670583355255
2583 -0.0034385116902964706 0.00169482308533076 -0.009251005414432608
2581 0.007042030862491859 0.0015834042512161742 -0.010270541411967092
2582 -0.027403404307103196 0.012649014907569691 -0.010226541022428226
3175 -0.009885862435057454 0.0030526706607399436 0.005354146810388805
3176 -0.025805352255320303 -0.014171491091595916 0.018206189491949354
3178 -0.013871000588795398 0.03673479294067042 -0.03811244769752834
3177 0.00035451116095149135 0.00023009895588299936 0.002899913097775377
3179 -0.002047585546481695 -0.010907197867373916 -0.0007501709146003084
2586 0.006191690518342454 0.005325836088756488 -0.015366320050724597
3308 0.006171354804345545 -0.003010024605789692 0.007179094619811592
3180 0.046123518076059786 -0.016738415882868795 -0.014625553954570582
2585 0.00022531595638363594 0.0050896660251721045 0.004201790007016561
2587 0.0025949878963330095 0.0006036190415107057 0.010794621022034582
2588 -0.00801674145796966 -0.01692772169914409 0.04113800889422427
1372 0.01619428312355434 -0.0045173499111033 -0.019451909179849205
3309 -0.025209570728983437 0.023665240292848794 0.02228553426878657
3298 0.02839293199488666 -0.02230124129761585 0.006730840310194684
3297 0.0039458620627451715 0.0015933317242002015 -0.0016915862664035278
1371 0.0022628519887641333 -0.008821673711313344 0.0009683550492399894
3170 -0.030363550959482597 -0.02631443806427677 -0.006546707722067731
2580 0.004692697449608312 0.0002596669318384789 0.003717717481108588
2579 -0.003786519427633149 -0.002848778885303015 0.0011472447241264031
3173 -0.00030857144511722574 0.004570730604318729 0.001223783296185292
3171 -0.005487962829881875 -0.008178706614292547 -0.011072828064507982
242 -0.02251972852845708 -0.043583927343459825 0.0040786665516006106
1362 0.030519163978533905 0.0213528648410504 0.006245401536374551
3169 0.004313123546569216 -0.003729435654999841 -0.005123831189706464
241 0.0003586807293674368 -0.0024673475840726517 -0.006729519231698387
251 0.00734032704701663 0.0028043708786419596 0.000755566216270391
252 -0.01959762876696209 -0.010854150041058379 -0.006517294933421984
2589 -0.043825503341529924 0.014680264410954894 0.02078106538635309
2577 0.0037009277344274257 0.011518409184219033 -0.003727502835237019
2578 -0.012247555445614133 -0.005687748263407925 -0.016537620591241333
3172 0.006017097495518041 0.009426764177754692 0.006614031782117482
3181 -0.018397806667744272 0.0030391086349015896 -0.007800456767606032
255 -0.0017331275128176784 0.005266369883005948 -0.011717995442337833
1052 5.6017610374461805e-05 0.004855821976677116 0.05019695448211005
1361 0.001618778540104959 0.004425120664590733 -0.0096970812194468
1375 0.022795794165629955 0.01822148143197591 -0.00937921162552818
867 0.003066476569490763 0.011375550665438706 0.0052400905920970305
868 0.006409808190655642 -0.00696003026023152 -0.0015085803460193636
866 -0.015362826939311408 -0.01347657700571928 -0.043002914452014256
878 -0.004688516557248223 0.01036350255874762 0.007280540909524234
880 0.03359104019754081 -0.011657642329511398 0.008452085375001708
879 -0.00016628975415182152 0.002933268218629611 0.022414673471949746
865 0.00079973667269391 0.002986277483698369 0.002559345684432477
877 0.01595463544872969 0.022812687345915936 -0.007118169017543952
2770 0.03031229797535842 -0.02906612396001635 0.01541166923912052
2769 -0.0016466757978397565 0.0021267491229625462 0.005244905813583407
2779 -0.008421573703013772 0.009040656135962838 0.000922588810301921
2780 -0.011289163718350793 -0.005793030631645851 0.028849527311949143
871 -0.009464889087254798 -0.007246461352136815 -0.0035176011014966227
869 -0.0013369078565507017 -0.0031994796710047343 -0.007821774763370608
870 0.020494325082058274 -0.03724178666712372 0.005206168684112613
296 -0.006945138813198929 -0.002954241883019872 0.02076582990467975
1696 -0.01310097906607909 0.005569340677749949 0.027110818904625043
875 -0.0041444216673765764 -0.0012404698220911507 0.0014474611718205642
873 0.0032871656562490394 0.00604087138094891 -0.01176639595943156
876 0.018231578547198164 -0.02032292934145028 -0.03319138364392974
250 0.006465462242606857 -0.01240350436608347 0.050274754338672394
874 0.024822097966365985 0.0151407426209477 -0.0009551428317778009
253 0.004131683145805037 -0.036197823669509584 0.02760391658090172
243 0.007479958823328169 -0.0030666128196580665 -0.012288725480816925
256 -0.023813170469310106 0.03255123001952011 0.0014194075329407652
244 -0.006343585956300259 -0.001014188784240234 0.0012719294369342802
254 -0.007380226429228467 -0.002221517734236757 -0.00028234144511738314
249 0.0036966045209491614 0.0029667706993899857 -0.0002880532513335195
245 -0.003308943674503981 -0.0050517622278904795 -0.005577679279046578
246 0.025521379155460964 -0.002221706775594433 -0.01154402658082545
248 0.02781345755220043 0.002366297824187284 0.03744074842000232
247 -0.000976947173473407 -0.0048211582123185714 0.004247383444041319
1120 0.0283144961338666 -0.040043251450607505 0.015013059392440225
1111 -0.007479845124102013 -7.379276364785267e-06 -0.0010773306792812654
1109 -0.003755602897708444 -0.0005665345824008488 0.008817167746954709
1110 -0.019592211580494512 -0.007153254121675889 -0.02304157627586613
1453 -0.02832303181111173 -0.0019202620175778223 0.007015632955560479
1444 -0.0015723353919089647 0.005700504408525233 0.0012588838519179805
1441 -0.006892575965638914 0.0010547680280169934 -0.007576284955360188
1442 -0.01620521052349775 0.01125312330831668 0.02772602665996457
3035 0.005315522768748736 -0.003946206350469265 -0.0018521025118893237
3036 0.0015215280848778461 -0.05044891170237319 -0.06234147347350148
3026 0.03397389755722287 -0.007932158197043588 0.004867219662656998
1690 0.028809746767306438 0.020560696688228866 -0.024520070017821367
1456 -0.00489947564819089 0.0054858869580261755 0.04242285917059929
1454 0.007193104873007093 -8.334325821980656e-05 -0.0018929364089240658
2777 -0.008202935108993305 -0.012943825904814377 0.003937821777076101
2778 0.009937659003487222 0.01453352673955877 -0.007294982965837281
1443 0.003391444073617888 -0.003530170258036695 0.0026256641574577007
1516 -0.014830232485393176 -0.002758079079484199 -0.01960163153056283
1688 0.005829819502912483 -0.011633123136429713 -0.011217376734535416
1455 0.035505561828051924 0.016033582691393548 -0.051292280901186746
1545 0.005295891323870044 0.001800850885218576 0.004327537499877669
2775 -0.006008299276236944 -0.004294226680460311 0.0003556684436554712
2776 -0.0113101990112722 -0.0352631395524432 -0.026799610858774036
1546 -0.016368839473136464 -0.04862947598271639 -0.024285832128834194
1105 -0.014282605999037811 -0.004024085488960302 -0.008233882212230904
1106 0.005280697721110726 0.02659072699945156 -0.007552518859218901
1118 0.008877476978504537 -0.0024236600660930115 0.006866764652525597
1119 0.004545811072971238 0.028873089149416074 0.011557121822560407
1108 -0.005690421575452438 0.009245940439857226 0.0007482242055631109
1117 0.020548673260982937 0.06236157976640746 0.011713062695688526
1107 0.013890063032675648 -0.003838468747419031 -0.002741042873272833
3034 0.025774529120042102 -0.009366292864939316 -0.005826824107487203
1452 0.004888416902709734 -0.01593936781757679 0.0036006890017099484
1115 -0.007478208362495363 -0.0110386119862547 0.0051026155351788175
1116 0.010583818310425139 0.007806439514649987 -0.027172828575005536
1451 -0.015077523627085638 0.0005975816597827711 0.0013983832579597172
1449 0.003381988980455609 0.015523522035334388 -0.004427099387916174
1450 -0.04216760204445403 0.05183109811538435 -0.016054229103186154
1354 0.0022077681339212093 -0.05661781416101299 -0.020580872219137306
1352 -0.01819071135633408 -0.01782926843412177 -0.02598113219791612
1543 -0.009738356544567645 0.002027268811109437 -0.0007276270608417904
1541 -0.013465859316260589 -0.009789184662991212 0.0022682351458352483
1542 -0.03485159136510985 -0.030420396031934673 0.009758501001069989
3033 -0.0036358148164772467 0.0015884097571860541 -0.006356218274783064
3025 -0.011916259476164186 -0.0006987011000591206 0.001431850492177923
3029 0.005799253341530715 -0.01020467336967347 -0.0007177611537624571
3031 -0.000696645016847062 0.005798036100472824 -0.004302347022681031
3030 0.013887939704501773 0.018501541417900138 0.0095932132275142
3040 -0.012390021875453678 -0.011837428904942656 0.014444576198690485
3028 -0.0015929740219048204 -0.0049795370708597825 0.002971166440144047
3038 0.007557268025105248 0.0006613392164046243 0.007140413952205452
3039 -0.02560186471466015 0.006680383453513327 0.01111115521462516
3027 -0.012186889785190886 0.0036522594938254 0.004717870614154211
1506 0.027126069644097597 -0.01871803472015242 0.01882075399346065
583 0.012069091668901955 -0.007112042982388962 0.002716201483716333
581 0.002609872311624889 0.004848405232075754 -0.0048373175732770515
584 0.010853571673932803 0.024501917081264868 0.0021929857505780265
3037 -0.024855117852616973 0.0341530951122502 -0.010168790551658086
587 0.0030993555951365874 0.008635929501477995 -0.006466829172508884
585 0.012213266102941892 0.0013612215372667273 0.00263986636935803
586 0.015317106631255264 0.029723084483483205 -0.008171405266343435
577 0.0011506270412441565 0.006820298974867021 -0.005560769393968635
579 0.0020173296967343447 0.002158581609566266 0.008154314681735697
1037 -0.03912303923005477 -0.022563602147812667 0.015297223811450041
1030 0.029702599077749477 0.012651618354342434 0.022802027517739517
3032 0.011961843184553643 0.015180908431810063 0.012019558203511695
2447 -0.020396073823769175 -0.007472077014596291 -0.016533437838447504
2446 0.002999123763414763 0.0027399893973197565 0.006182690074430319
2436 -0.0020868493817636237 0.004252372518636855 0.00031159507787777185
1035 0.006965566115439849 -0.011292004143222427 0.00054318574258108
1036 -0.0047566745276150044 -0.016427336402249745 0.004187036475151173
1026 -0.004192624927274916 0.013272458503535945 -0.02837945472298945
1025 -0.006388416716497252 0.0032369837068763952 -0.0008719836968019071
1032 -0.011302237629016842 -0.0016019647089208925 -0.022936954665871687
1029 -0.002295405489457714 -0.007095428792463142 -0.005432571322012792
1031 0.0036926328877954656 -0.0073109034036333695 0.006354679221860749
1033 -0.0037401000625356976 0.010845763755436784 -0.002827055735839187
1027 0.003871555484532946 0.005005499491459558 -0.00022983946057646606
2808 0.029557104079460245 0.004578391517816407 0.03760185822259904
2445 0.02453643267724981 -0.008895038497362633 -0.00603151330324772
1028 0.0003923543768361231 -0.001676133998426893 0.004658571194124269
1038 -0.010855075349825667 1.2262544243298166e-05 0.01122632075386077
1520 0.00848217388258335 -0.017177554944690785 -0.027532109023765936
578 0.011880801121385506 0.020886765037503457 0.009410949039761049
1544 -0.02612716919540483 0.01675495647161344 -0.03009042283527204
1040 0.020310794617718547 0.003919479958005523 -0.006667844947765892
1764 -0.0008502685170602406 0.004975028782424891 -0.00741774712507782
1138 -0.018788891567550953 0.015387757940950745 0.037214682219255016
1137 -0.010971137491399094 -0.0009831545619273 -0.00528608936316149
1139 -0.004794650588115157 0.009315797509552302 0.0072523168666327594
1141 -0.0016225299153803884 -0.0032796769373080762 0.000397527642407132
1774 0.0037092187168447453 -0.003003053017520509 -0.012291195125331797
1775 0.003775838191584722 -0.035625756195683846 -0.01161989886213339
1148 -0.0036606335589382684 0.02288343118805516 0.015703591232570483
1147 0.0032474264468048335 -0.011424773982773329 -0.0007261937475625799
1918 0.003759249794277986 -0.003589113703844409 -0.0019430509154956667
1920 0.01823973341137682 0.01673462672459553 0.003650652345295986
1919 -0.02520560023424846 -0.015753887684169243 0.01619776440449894
1145 -0.00446000630631447 -0.016697389280399117 -0.004892050776686936
1143 -0.0052423004339033205 -0.004369078910941506 0.002488584486027772
1144 0.0007773531846668603 0.008098404757347959 0.014394738908026786
1142 0.02337276930731848 -0.032321086147526726 -0.019491005607466104
1776 -0.0025071764118537207 -0.00195861687973041 0.018686999448721153
588 0.0025035386929292973 -0.020975787585840767 0.006629181826890417
1150 -0.00749187704767537 0.0009044002279091018 -0.003330453542852797
1140 0.005931899016963474 -0.003364577278856894 0.0027528655566817707
1149 5.1520757250363693e-05 -0.0007820511696907538 -0.025125060794755974
1151 0.025174720769262273 0.022691901254013144 0.0002563137003888854
2448 -3.742277446329571e-05 -0.02004306831523658 -0.0214176175574907
2746 -0.0001104911829567251 -0.01833009658477441 -0.003663222167508314
2812 0.013214117307497325 0.028906707342474525 -0.018247437468928228
1146 0.009691656126264575 -0.045738502971063466 0.012607531725885576
2741 -0.0020771440512951113 0.007955189109078937 0.007512774798732711
2744 -0.003942065519115021 0.01815647605689931 -0.017703429049646162
2810 0.017683539824420228 0.03831528645965905 0.0018268772108260092
2801 -0.0026073767932287594 0.004947438683406547 -0.007125765465910271
2807 0.00909730834337876 -0.0018629224047303722 0.0034293260031296032
2809 0.014217548361788472 0.012085097943683315 0.0001425532259759714
2811 0.0006815589384167835 0.012544599694923402 -0.007788930532929899
2742 -0.014052224905213103 0.017998564812407185 0.006490962661970479
2002 0.005396829483185223 0.010196300506505853 0.010261289589396492
2013 0.0005178597794642704 -0.007976594122902686 -0.005841752421535083
2015 -0.015758661562545087 0.03251830628089513 -0.012552115889282721
2004 -0.002994436304238909 -0.003181211174739683 0.003179687626972355
2743 -0.0005993929336422372 -0.006670737075145689 -0.007846024274694672
2745 0.012039982128210718 -0.0005034733026385025 -0.004025836769557769
1480 0.01604706347972684 0.009064334488718784 0.043169297135289345
2001 0.011785454249088547 0.007681678817044473 -0.0009224096471454781
2003 -0.0021101071483867096 0.0014838311359586668 0.0063232803118694735
1260 -0.03909941869092184 0.02184518398337361 0.016098437136081747
1478 -0.0027453945221995422 0.01591355548565437 0.01154618062677144
1908 0.008687209073843585 0.008786096010924673 -0.0120391414970589
1907 0.0034187044829578407 -0.011988026168866418 0.0015180663661710787
2530 -0.024545888588844163 -0.046557732975019826 -0.05620019212315646
2529 -0.0006145905129296687 -0.00254626272085525 0.004540806544092553
1909 -0.011029088917838051 0.013749108083418865 -0.004216002258976722
2539 0.002843457734645414 0.000919078192513144 -0.003762059008310769
1905 0.0028567167880122275 -0.0020296153134931956 0.0014004360889561648
1913 0.008003417189175445 -0.005252074751695611 0.0018107276496440265
1914 0.03266502756906266 0.010853481547159304 -0.020589719914980324
1915 -0.001833520116235236 -0.004124698417534146 -0.00037883432853579545
1916 -0.017071257649954045 -0.007271994512879474 0.003341417263675848
1912 0.011938215282860754 -0.004281902637164809 0.016779380171520614
1911 -0.0026539569657969752 -0.005047809081519681 0.006964675631193885
2537 0.002937811773512675 -0.008429281120441015 0.004392805734459934
1910 -0.005023887795270709 -0.010052011324858197 0.008149608390123438
2542 -0.014300336871624445 0.007771990697082348 0.0064986984315451995
2531 -0.0025197652173481948 0.00170972351647692 0.0018349567073005452
2534 0.005736287151544332 -0.02550366845957964 -0.029874909153667282
2533 -0.00771091463623453 -0.0017255231774830342 -0.0008960888250605695
2535 0.0020905848491341505 0.013592123589158766 0.009160475473084346
2541 -0.015784823402931688 0.042283629010545866 -0.027257565792559217
2532 0.0017973260973551326 0.011365812207945662 -8.37374671134207e-05
986 0.03066525800752309 -0.01070914270394568 -0.0010802772189861293
2540 -0.03292723060251347 -0.04963165285456686 0.002790630927963886
2538 -0.013176186548848447 -0.00022872567850903744 0.022999265258711783
1906 0.009461540845903546 0.003978945757690115 0.022467242557967358
987 0.003489803747839455 0.00011473916387303895 0.009519530318296627
988 -0.009000638005665735 0.013737656812889453 -0.026796562354454226
1256 -0.012084522215566055 0.013550834069696137 0.014594075074811672
978 0.003062932506019228 0.032460339398560197 -0.011708739353873685
1258 0.002441338049297404 0.004490722810635308 -0.03548543075278487
1257 0.009763559732997487 -0.0070738608726782825 0.005792693075117971
1255 0.005295496379461913 -4.2359424386359366e-05 0.01138703473213321
1254 0.007091295844844114 -0.006155897353023894 -0.03561092399222421
1259 -0.009843319505144374 0.00510956952189435 -0.002842332943743844
1251 0.009200274772910117 0.0012854760427897796 -0.0052374726175678345
1253 0.0060595287943186645 0.0006607555466119588 -0.0023057978643162844
636 -0.020898495826315967 0.030481612839428112 -0.05674206020012785
983 -0.003253872749425371 -0.0020135861938479307 -0.0015421010055946672
985 0.008674607603721105 0.006253354350331235 0.0014889751875744109
977 -0.0061918034049331895 -0.0010079249890495726 0.002002508299277963
2016 0.032514220791878816 -0.018431240515270852 0.003711014932778021
2014 0.010930354196839047 -0.00847630204559812 0.007919568955060921
2005 -0.008893855882588285 -0.007475554072747156 -0.0003150871774098914
2006 0.008882219045404403 -0.0009775682096329558 0.009792008089904287
1249 -0.006454521624283057 0.00022822819344220136 -0.009416945352937259
634 -0.0650968666148864 0.002542360641775873 0.014349023616330284
3092 -0.004544965492538464 0.0068437940209884855 0.0009169012651259344
3098 -0.0034115598575991508 0.03539648110530631 -0.01138336567027435
2536 -0.00264282365958339 0.0063371315475102205 0.004390282441192274
3100 0.02682199100047718 0.0013329624469149758 -0.0037396145967750465
3097 0.000989657665378237 0.007366755633583134 0.002173002468591841
3096 0.05787871377330286 0.015490099936119215 -0.022869571773387297
3089 -0.004360596376251163 0.002305178612433905 0.014042397966759011
3099 -0.006061664208251106 -0.007749845116089828 -0.0035069674058391853
3095 -0.002122713919623239 0.011781977916869251 -0.0036174894365965547
3090 0.003918292122663792 -0.016754662069995773 -0.020813471302123476
3093 -0.01229908733857437 0.0013982775526774143 -0.004242428278249379
3091 -0.002309093944527197 0.002988944705775579 0.00925498454097988
3094 -0.0210052690693643 -0.017212066435948584 -0.04074414289144431
984 0.027118423420226412 -0.031007255054283183 0.002683014961298513
2848 0.0034253872956168377 -0.00602708147000465 -0.02874436811248372
2846 0.01332016967480464 -0.00168616965521105 0.003498171580289994
1204 0.004789402805285125 0.0033204853295293124 0.003926044153203919
2847 -0.02516650300289974 -0.004930943333403695 -0.01051042876170234
1500 -0.027353608698979185 0.002603471186545758 0.0316900292877683
1498 -0.00845260946408124 0.0012263572160576286 -0.014768599145262502
1213 -0.0038426137231568616 0.011122124299263018 -0.008678418216546873
1490 0.020697681826951565 0.017233742685063957 0.029972984745236953
1501 -0.008404002186212614 0.07832010541314707 0.024462068112686308
2834 -0.00755758371010725 0.017707241099010854 -0.000485842181988344
989 -0.014118929697661299 -0.05614738701537327 -0.027980937427411156
980 -0.0043289448670566005 -0.005829298688918503 -0.0060874950222535446
982 -0.006287235824632381 0.014653079087303714 -0.012327464611878022
981 0.0013556574881691125 0.0013111231337857463 -0.00010645525088377317
992 0.018953717899554252 0.0011696362467553075 -0.02158685435416456
990 0.001536533716526472 -0.012104498815130019 0.0029167915395797144
979 0.008668905161278615 0.0034059841081172104 0.005364945507331894
1491 -0.002164212425009586 -0.003034531781293167 -0.006274644649896117
1489 -0.011307709712680252 -0.012338626789148639 -0.0028600241023465363
991 -0.016216923276528836 -5.087089073910328e-05 -0.014169030682068354
2845 0.01098014370295832 0.0035740330251083814 -0.038326932886377056
2836 0.0058951587584059 -0.003450991845874309 0.005949291262541427
1499 0.006598688065980005 0.006949400065219596 0.002081336174342044
1497 0.0011333368873608018 -0.005283532076841141 0.0003956456008724883
1201 0.006532534513275707 0.0014773956649458803 0.00018400648805200632
1211 -0.00012680518869014884 0.007417150504237234 0.0011905555506210052
1203 0.0017708998022311572 0.003703422465057088 0.0036231393665955743
1209 0.008339742896138027 0.010750410077262157 -0.00024781023931603574
1205 -0.0007149155720938889 -0.00767928331159072 -0.0030784721665269342
1597 0.02818746419999062 0.009149436323912415 -0.04291047891180772
1588 -0.001029837288905235 -0.008943405606194697 0.0037400112013174936
2322 0.008563098419436371 0.03482203751676084 0.022803894574023216
2629 -0.006819283268310609 0.008502196141538297 -0.003796640758157553
2630 0.04013568985572928 0.017135786210595957 0.03398907835568365
3058 -0.04079867504799416 0.0027588623584323536 -0.018927125210014335
2332 -0.003410269679061744 -0.0048972414174310724 0.0007702359373722065
2625 -0.003172045398284056 0.001389454216970798 0.012311466066207161
2626 -0.02721732187173772 0.022751749790316238 0.026078379201564993
2627 -0.003704544829472534 -0.004662342911718113 -0.0022389853008746028
2638 0.0050493801902726605 -0.0031941706425698655 0.007804617260462426
2637 0.01521565465697324 -0.010475210864322097 0.03295300375561594
2628 0.0024959998743197386 0.018467375142022145 0.0008000710173064853
2640 0.019271053208237368 0.011199751208676065 0.008080184614593396
2639 0.013413117312880496 -5.1116434230089565e-05 -0.0024225092165385625
664 -0.0011621504022810369 0.02318584171807565 0.007688944244112499
2323 0.0022869854120179224 -0.007515602334509641 -0.005835173608828346
2324 0.006956930227878327 0.0004707784123012138 0.0022626365139264077
2333 -0.017257467379577323 -0.0540224708094045 0.022153291418378112
2334 -0.002001407015007083 -0.007078955398594023 -5.425880203736573e-05
2336 0.007731920910470672 -0.0038885252519584653 -0.01666088989211529
2321 -0.002619262930577257 -0.0034312581824726776 -0.009554251443580975
2326 0.005558813739838428 0.015795568723936948 -0.01635294712366455
2331 -0.00023934568444687875 0.009366604948212834 0.007232860864078903
2325 0.0029860493843136943 0.0015507390080310673 0.0053381226383303745
2327 -0.0016141483106248788 0.007007406343291383 -0.0023010343833227034
2329 -0.0007502561717197714 -0.0001688479748641394 -0.00035710303707607306
2330 0.02787944171118032 -0.0031220585238127007 -0.020070160608504077
2328 -0.011514118588733756 0.021808483113376662 0.022739565312227115
3060 -0.0010213916358949979 -0.0022214175606706313 -0.0040177159375851925
3059 0.00799373145384513 -0.015981340156753322 0.0015677675045136078
3069 -0.017208296358253408 0.01953216604392683 0.008370335428682795
2831 0.03459552847949495 -0.0029795565815840127 -0.02645458487311339
3057 0.011980992260291682 0.0013693307899518938 0.003695577372783997
1586 0.02291021152809889 -0.035224017327677395 -0.016108622041897783
1130 0.005900683270538765 0.009902249571697537 0.008735474567099437
1136 0.03401805218063811 0.006658243007498762 0.0088987845658958
1134 -0.002417347306745303 -0.01635582520985906 0.005712700244237683
1124 -0.0017937635765090042 0.010537350480687147 0.0030513303025659004
1133 -0.007843441936811907 0.02602019582644099 0.013411648060501926
1123 -0.002813107666179482 0.004857606025943442 0.0023838401890397863
1125 -0.0007648400915160501 0.0058562947919165035 -0.001679039544134031
1128 -0.032442627585846366 -0.0010750092002400422 0.018862625303484294
1126 -0.004548675466227732 0.0033985705338547205 0.004016424101512034
1121 0.009523383771497331 -0.007941617023878116 0.0032595277955149494
1127 -0.01046662680767154 -0.011023780748955981 0.0015110631556402142
1131 -0.006919319482362609 0.0033905612436298817 0.004940161361348283
1132 0.0014141107731273329 -0.02737991628326408 0.01299022354195005
1129 0.00040770423755699496 0.002200991753849884 0.013000607254969179
1122 -0.006424852811516444 -0.008569580062959797 -0.01848800185587931
666 -0.02752297130964106 0.018709281168220748 -0.026020937603714447
562 -0.005257125155734486 0.03488627868557131 -0.005745164161629841
572 -0.025061964374623026 0.019844407854863837 -0.08648109453124246
663 -0.0054116058953122955 -0.003461729869604113 0.002685204918688291
3183 -0.022550136432311498 -0.0033709031990382795 0.014828070545588025
3070 0.004333206970985612 -0.0017014341803087674 -0.0012040108204839348
3072 0.015416248552446086 0.0008518491291305068 -0.010466513220845181
3071 -0.00924783138833159 -0.006918667484780769 0.003891505620396548
575 0.016726816716758106 -0.0009581770927273493 -0.022815369571483956
672 0.024608932283927052 -0.012812022981441355 -0.02343539901486304
683 -0.0020093356528244374 -0.004823035485709836 -0.0046095601649488414
684 -0.01972008940796246 -0.03646022762148897 0.005393250672856174
680 0.012473776200872108 -0.013427971131401808 0.017797287535062843
682 0.027835034287045063 0.012573945921638702 0.02243007202089888
679 -0.004812702896276241 -0.006749828985887418 0.012474015872198586
681 0.0054688330833864 0.0009063522225109326 -0.010084793079584563
574 0.005516927233580837 -0.004021027581510066 -0.006840609088122216
576 0.0036287540906763294 0.0011646592038150993 -0.014594392849027847
677 -0.006640331422340838 -0.008260827791050612 -0.013719616784816493
566 0.03234519766026465 0.003942476324988159 0.017011626426016786
563 0.00400477784384156 0.014901574087393026 0.005492374091166566
565 0.0011201900462683185 -0.0032461247526889103 -0.0020731521471111323
567 -0.012397644541191114 -0.0036445197358466364 0.008680916759626936
571 -0.0014509401331056489 -0.0032154090844564638 -0.008192074665492377
569 -0.0018835868009726298 -0.011816385605513647 -0.019453709980087632
561 -0.0013821613118258518 -0.0004078908655536128 0.001511651646914197
570 -0.011684824038078918 0.016342111832670415 -0.014001459068953184
1932 0.0004488062781641923 0.021039010172240514 0.00876322137901994
3226 0.010463810581041422 0.019247828952363013 -0.013102158624808704
568 0.013492558982882381 0.015568500235426193 0.0013475678733850833
3174 -0.03017247389617043 -0.004872846916824462 0.01244472615061413
1050 -0.0020729863923245554 -0.004392700038900312 0.017897057797609254
564 0.005932118035301905 0.00609951430432751 -0.0024326055749202074
573 -0.0004970146497957958 -0.014465834787776726 -0.013397905570045119
1049 0.015533494706906356 -0.0029502893581945452 0.004319809214825159
1047 -0.009184986556729391 -0.01095451190459226 -0.0024518060968452405
1051 0.004945831778383127 0.007443090872847746 -0.005827046481327359
1046 -0.022659173447833813 0.008621370489048595 -0.04072017043669773
1045 -0.0032092877560391483 -0.0038296761405295 0.010492972457739995
1043 0.0013916998778769943 -0.005031472554591392 -0.003761570478013643
1041 0.0006896981166524729 0.00957212570919747 0.0024040754837922904
1053 -0.009928771808786378 0.005064789012032759 -0.006261524185352261
1042 0.006879347681013444 -0.03409562028007684 0.009515752252405354
674 0.004064105938269593 0.031948565514528876 -0.013986729919111492
673 -0.002747500069119498 0.005688412913270175 0.0006179146938301995
675 -0.0067272890943228005 0.008153960199769578 0.009831224033877381
1048 0.020317212851709034 -0.0005464458933056562 -0.006905642506379971
872 -0.04942007440763669 -0.00491256042596845 0.008459050035347963
1691 0.0009137439217380597 0.0018612976710659808 0.005577786460494999
1689 0.0011116185323707668 -0.01597846299646914 0.00035966656377056254
1686 -0.01704212351558641 -0.017932126810926687 -0.009441182210191969
1685 -0.0006497357644702675 -0.012414376290750302 -0.004785597884494251
1681 0.01124077003905452 -0.004051185250677362 -0.00032775521121990555
1683 0.0006206815862797183 0.0024317543635852166 -0.007876821996712994
1694 0.0012833391720882882 0.000354358937617283 0.009063169305363302
1684 0.005214755119835696 -0.0021914034057933123 -0.0007500617576083686
2097 -0.0036007177834465743 -0.005615454339777212 0.0010046908460053894
2107 0.0023439172167672917 -0.004277536673334534 0.0006640395810534983
2098 -0.03340995051258345 -0.022438399698672458 -0.03301814642107374
2108 0.04755102877281891 0.04389912255600909 -0.000836528862989042
1682 0.023129809620147556 -0.01862576531297987 0.006453694860781576
1693 0.009979510991826486 0.01808519737098341 -0.03582595309939764
1695 0.01812117453363436 0.010740186936364369 -0.023395227970915037
1232 0.031351856639795644 0.0207206265225231 0.015527680703208459
1231 -0.0015383828692869944 0.0067494831159235 -0.006264922894635557
1220 -0.0011022607184663627 -0.005660941919539669 0.00899871544364111
1229 0.03146642525283802 -0.0032867818230286508 0.027371758984620548
1230 -0.00526277938882964 0.003219670885248165 -4.1455313635246106e-05
1687 -0.010981785023776376 0.001817301265490333 -0.0004895020889285101
2105 -0.00116921963914029 0.009211886580126087 0.0013562649003330265
1224 0.02858149175808952 0.006494962004759399 -0.02265336096836307
1692 0.014464772143360708 0.0028268662243856437 0.032533261435378436
1044 -0.01571780116339453 0.005022979166035799 -0.007860032994782187
1054 -0.005408561490477979 -0.006501941527502141 -0.005717332357620614
1056 0.02179347068534129 0.032682480803432536 -0.0047054475850601615
1055 -0.017735590109024993 -0.01723493978570541 0.006557995068679183
1226 0.004512216305132088 0.006380168122820687 -0.002794545513700959
1223 0.004887860722205178 -0.004736230925591839 -0.003167002724783519
1225 0.0049002236188614 -0.0024110834664777354 -0.004242387977141182
1228 -0.004032159855833498 0.004612803247198325 0.0074928181232827235
1227 -0.013665810475747296 -0.008905842527350253 -0.003874749485954912
1222 -0.027154329814071478 0.03534335347687749 -0.04260122883364235
1221 -0.007064737431541196 -0.009765463460053032 0.006430368970829631
1219 0.0009691266071073656 -0.015643792160018512 0.0037683079768751717
1218 -0.0013240306397633976 0.02340050791973418 -0.00853021124511109
1217 -0.014294000127216802 -0.0023735211793283546 -0.008893906571914748
2415 0.040543572568666315 -0.009164836043653419 0.04789742949573178
2414 0.00674392393985427 -0.004781939022531973 0.0015920679487029716
2404 0.0018860287403121476 0.006817801485239248 -0.004763509869190175
2413 0.0027011393040988975 -0.006141422399555497 -0.009557750825238596
1445 -0.01375475885415888 0.009205779642939458 0.004213509805147316
1446 0.00023955609626439986 -0.0735683525427365 0.03534651868584206
2298 0.01773975447247661 0.034999990476238904 -0.008498737245682127
1717 0.005949991331212569 -0.002271285352907978 -0.001836614548395423
1715 0.005852063971281496 0.0029127785173171535 -0.0022737454305822324
1725 -0.006317303283588869 -0.008723030503214527 -0.02576460692977981
1716 -0.011757506328155296 -0.008317169186429158 -0.002110495943052872
1726 0.00032531994910743817 0.0022297323518225176 -0.0019531314061773217
1728 0.029791681586591793 -0.0220102311239986 -0.02238991984378823
1718 -0.0018645565558464334 0.0002732155127008455 0.011604159116330889
1721 0.005650993088050271 -0.002410866955668132 0.007870785080769823
1719 0.001349462355547092 0.007403208315510681 0.008310162089207991
1722 0.003768659493575073 0.020651121565765068 0.011112380438755298
2300 0.012224242994657148 -0.00036607442722350693 0.019629393398453935
2289 -0.0005836617979582099 -0.0019688186862343404 0.0015383198087922905
2299 -0.0028332370814249967 0.00573642039556781 -0.004709169029881614
1348 -0.00443291697906012 0.008536008988335522 -0.0010221321164796315
1357 -0.008599095585728902 0.020599811190634927 -0.007348820320722884
1359 0.00962380185060067 -0.023800964920193467 -0.03263175103077998
1358 0.005106235802092451 0.004821474166970314 0.002828434451115617
1350 0.010414973252148206 -0.02643532704009894 0.026692885853322086
2106 -0.004550843837680296 0.00760865234893458 0.009980157627951286
1720 0.007650204500322792 -0.021487424702470274 -0.025132089962844623
1447 0.004568174357169403 0.006963869667249574 -0.010401458601459376
1448 0.03616665444329168 -0.008962191076736023 0.019851899251546366
1353 0.0018091458388248608 0.0019910390709956304 0.006441051313897945
1355 0.01189114045451281 0.0007188715121141458 -0.000825890902725438
1356 0.007702501663034871 0.020847941614102528 -0.006485097445376078
1349 -0.0006048025154268378 0.006525068235794679 -0.001403121079849238
1351 9.083299960835085e-05 -0.0010709638692744396 -0.00787826310453939
2291 -0.0012104030929137302 -0.0009079913427478904 0.013897862925440372
2294 -0.01376287488936709 -0.020634035788027565 0.017844638017136868
2293 -0.014706162283536517 -0.010636808433067618 -0.0031455981354742042
2297 -0.0029794844326700674 -0.0016500758160144559 0.001708782482810882
2184 0.03899183921828017 -0.009712981092976261 0.03249006860593341
2295 -0.013506126155688823 -0.001357024286158362 -0.005214865748594151
2296 0.016382919467104972 0.006303782459863366 0.007283347711173177
2183 0.004792916547315445 -0.004323920495039552 0.007588152483458568
1345 -0.007277598305450963 -0.004664363405455719 0.0021340252897712516
1346 -0.01831550143986411 0.013182400745470106 0.0032962877275219985
1347 0.011200963636167235 0.005612534247318439 -0.003955901988724804
2182 -0.029742624492302073 0.0041811295949987825 -0.039598670467395874
2181 -0.018998859961202694 0.00619082930821244 0.004878449957421778
1360 -0.03996872819819258 0.00574613218448889 -0.008020936149733133
1766 -0.017469863136740402 -0.01761353083383469 -0.003439611447375594
1713 0.007199875965203512 -0.004913882736890673 -0.0038612167892716795
1714 -0.01970304176538179 -0.04783655345100649 0.039513118181254483
1724 -0.019366316462844146 -0.04447545733909939 -0.031423152172354016
1723 0.002692711023244165 -0.0075608809156002986 -0.002255740996425202
1727 0.0003970452148429451 -0.0074720562489534285 -0.0024772905837953502
1765 -0.0004975994055386605 -0.002231831988859363 0.006691908116970692
1763 0.0024573735491519783 0.010349375166233413 -0.002317665963460193
1769 -0.006113890567837512 0.0006515425895359548 -0.008488327108755007
1768 0.0022556250235475934 0.006694865790687649 -0.002275340181793464
1767 -0.003803785934385604 -0.011377691560226357 0.012031536057045367
1771 -0.0018814946191388936 -0.0030555781782049575 -0.0005847735488143245
1772 0.004242734914593105 0.02519569130384835 -0.014108948407171092
1770 -0.014745242830765382 0.01304013565773298 0.03356552947772109
1793 -0.00454851801919574 0.0022090265612884387 -0.006520634985294466
1804 0.021043090013951226 0.02826737345016654 0.0054423528458478225
1803 0.013844856022525515 0.006183606302081155 0.0016301758577149516
1802 -0.009810564517574213 -0.00750106643393926 -0.0008070464019105954
1801 0.0027533177659196596 -0.002913877771906581 -0.0017396874144503997
1574 0.038237468179165415 -0.01096174059642548 -0.0034490751126451647
1583 0.005614098185563545 0.02461376466219244 -0.0031585902711324405
1034 0.004049153041045406 0.024206513770020185 0.00320080697626994
2438 -0.01379023543705677 -0.02895125630661811 0.007340151245450672
2186 0.02098600317537661 -0.004006082902591194 -0.023879890598910505
2185 0.0009370834641431047 -0.005961749925448719 0.00233666846471553
1794 0.0185305448220498 0.017531586763123993 -0.010652727017940315
2435 -0.006379858402401181 0.0029362072020894503 0.0001381389850955598
2188 0.01552982266742981 0.00022388542156866854 -0.004302061008121573
2187 -0.0017974804985237348 -0.006728030568703995 -0.0021213546722190276
2439 -0.00447594136915076 -0.0019385761558460277 0.00511093909688801
2437 -0.00840443639941425 -0.0006531820744655562 -0.006021193816481166
2177 0.006717233491983197 -0.004373228804719483 -0.005591624852110586
2440 -0.05344896379602158 0.029608030674789152 -0.02033460953834567
1805 -0.0013174918238712371 0.023639762021713008 0.0046009037840414576
1773 0.02397606557585797 -0.027106281846254045 -6.239378275760943e-05
2380 -0.009411139511014032 -0.021797293461872286 -0.0005016478112054735
1761 0.010610236923826462 -0.0015698924583934857 -0.0062783884490177615
2816 -0.0077476871824408945 -0.009514689180995581 0.00148741111421933
1762 -0.018859402210669222 -0.02056784406194363 -0.030067672194737168
2376 0.028264118281173218 -0.009377985313573683 0.018140378109101355
2378 -0.034593842890768965 0.043815554723444096 -0.021509254359467867
2379 -0.001504396495192401 0.005589506446209996 0.0008041494466617795
2377 -0.007822581362589343 -0.013692436496312502 0.0008877237727724155
2375 -0.0015151073257224526 0.009843425547568367 0.007103285162052441
2373 -0.002205409266971045 -0.007523276676823571 0.005563539771586311
2374 -0.026979658754872134 -0.002574969402804296 -0.017661431870888675
1584 -0.002264950279405345 0.0062941421569185545 0.021278807890489814
2666 -0.012658986832448779 0.011756073863445599 -0.011965827284559395
1582 0.0041182643958441265 -0.002841136525726596 0.008379267576461935
1572 -0.0015953308537964303 -0.007219631077794545 -0.004436990093811167
2805 0.0013648151264676253 0.004254927968331886 0.0031519072656626423
2434 -0.04054591041959468 0.05186692644830437 -0.02329525423137651
2433 0.003374718952417866 -0.00547200672265668 -0.0011297433697421283
2443 -0.0023568001019511615 -0.0007476896805285185 0.009813821540560305
2442 -0.0029225678076583482 0.0014369919132488352 -0.020079281139875785
2441 -0.0018309094878314522 0.0027535119803095585 0.0031839464474999325
2444 -0.015428349855698246 0.025462132458780234 -0.010277008655452185
2802 -0.009327419170815457 0.011403421453376493 0.055046325915176754
2806 -0.00551464983623155 -0.003714970804347144 -0.038634217591106974
2803 -0.008087155059643282 0.006050782437375416 -0.004407960115619323
2804 0.0042381958806224085 -0.002027916067562128 0.006101813155229
2814 0.0041379765926860355 -0.005450888641999273 0.005988536201399013
2813 0.027662293002110233 0.028215571905017316 0.011327751363317512
2668 -0.02602782266487338 0.004769849877494876 0.009140297296488168
2815 0.0033183503841896222 0.026046861893624925 -0.001975197116090778
2667 0.0012494105776507305 -0.0003746049211674001 -0.0018160078056320794
2665 0.0028473580673129438 -0.0010077184943541615 0.007049624083232695
2658 -0.04368965615860472 0.031359506468296605 -0.01794757035512041
2657 -0.0002087018085309834 0.004010505530900625 -0.0074930257796727365
2011 0.003146966787805826 0.006342544431938002 -0.0028367652900786566
2012 0.007409974006802298 -0.009004413178830245 0.028195633115670315
2010 -0.0008717437569747767 -0.004862632271975296 0.001235100890710098
2009 0.004756313152726455 -0.0009258918448454061 0.00241965921594048
1164 0.014908797070601155 0.022517385359096573 -0.011933507041162913
1917 -0.030302238300385025 -0.014935614518756121 -0.007999010889481021
3014 -0.011654879304493382 -0.014248666890019412 0.024583347017209947
3016 0.0015634530489337698 -0.009206911517714604 -0.008643600521154784
2371 -0.0028792455371391607 -0.012162847305577852 -0.0034625483374021624
2384 -0.050826057927803064 0.021009375676944664 0.04399041623301682
2370 0.0036048762937376066 -0.01907516934825248 -0.008050258492460424
2369 0.0016118129271557996 -0.0006533410289538203 -0.0017859726796718605
2382 0.007665355674299037 0.001954197304800018 -0.005376207327902686
2372 0.003321937581933578 0.0026832603963307423 -0.011138058535874818
2381 0.025008170979482835 -0.018009758255543778 0.0008383460098525694
2383 0.003782147630777559 -0.01235386119668512 -0.060393348555790115
2023 -0.016151073046185835 0.002226234634285253 -0.0010933463488227377
2025 -0.0001358671394876838 0.006857997146468953 -0.00575120500581808
3022 0.00301144206574931 -0.005024765961154056 0.004248261478929436
3024 -0.012428258602565164 0.021533848927310084 -0.0052477683109588705
2024 0.007976272578350398 -0.019425646471251015 -0.027125936839419478
3023 -0.007280753330396209 -0.013087328627545386 -0.001430980131758198
2027 0.008061234188314682 0.001601236140282241 -0.013238261470819237
2028 0.032146232277738544 0.0036539729193733263 -0.007994819641276305
2026 0.010099957171123934 -0.005122975602418 -0.016936965964784566
1264 -0.00658803434358666 -0.002516636045707816 -0.031911913681115574
2029 -0.025132035910530398 -0.0022507485631957824 -0.00128498496858686
2022 0.004375504558843475 0.015710672598404096 -0.04433585115165997
2020 0.0025458833794779288 -0.0008884024471734231 -0.003765380178314665
2019 0.0070463917715376185 0.0013800550188771668 -8.213460522870512e-05
2021 0.009646208812093441 -0.0021020666089019316 -0.0031051522597202543
2007 -0.0017669546335201158 -0.011408300232139582 -0.004412515228030517
2008 -0.005763363290001055 0.02298955589793089 -0.017495318647925317
1165 0.04033753350887166 -0.027899971463630453 0.02228641160566843
1261 -0.01748112874462261 -0.0006447396442416124 -0.027155915279734797
1252 -0.0013574041145358513 0.003074289249382855 0.0013638070839265724
1250 -0.00984525773361102 -0.00697071778753803 0.006420775926202198
2017 -0.0016912407870865143 -0.00014658600159142725 0.0046332633532804165
1166 -0.006501955914712549 -0.0013095802184879125 -0.0033916835601217076
1156 0.002636769514516767 -0.003471994834880551 0.013369998222235968
1263 -0.038546281906290815 -0.008216573307319104 -0.002745037227031178
1262 0.006461410005997042 0.004112802331993607 -0.001996317668439014
1155 -0.003924478571069162 -0.00152687874543656 0.005121212067517632
1154 -0.028010871626427337 0.012108148754442823 -0.03292833971346619
1167 -0.002858237515957115 -0.012315024878189258 0.012661706012786864
1163 -0.011655516887433378 -0.008798135392459935 0.0051963668260921435
1153 -0.0011145512786005251 -0.004631410539584821 0.0017033309724267963
1168 -0.03278223235382908 -0.026745097329820024 0.013418322590717272
2633 -0.01152686537914914 0.003313603574174737 -0.0011288804173411565
2631 0.00045272280691939417 0.005046743209564324 -0.013122617781904789
2632 -0.02681963345733086 0.011169137208288606 0.0015205151975771867
2635 -0.007748143753404572 -0.003818220629540394 0.0006667417096051364
3012 0.00039227664028511887 0.0038870867410855797 -0.009611687982169109
2634 -0.0008174024410406087 -0.009996473779541989 -0.04411554213399323
3013 -0.011851921406596884 0.006117584469607884 -0.0029634566297056728
3021 0.03697912486860549 -0.01649528944693078 -0.020469726668511195
3011 -0.0006014820396873012 -0.008333198639130188 -0.0018562780477044585
3009 0.000448593751268643 -0.006374855257891519 0.006153231507072031
3017 0.0023999670110524092 -0.012205830435714719 0.0014193269043278822
3015 0.005399542961479738 0.0034670829770768693 0.006260171256339738
3018 -0.0050532174279550165 -0.001993725040628056 0.010344443038257432
3010 0.000859971442343826 0.036417176992063455 0.007815630055764605
3019 0.011108647832261617 -0.005138352672119666 0.009077227995285854
3020 -0.02765139773372587 -0.0006573071606706734 0.007176535421883336
2636 -0.042881104049379594 0.022192774242899397 0.03322744850934949
2045 -0.0321498214067563 -0.007508861026014138 -0.007223280839290057
1503 0.0020361850966848765 0.03916179176066413 -0.04672924328217644
1502 -0.003704326940585044 -0.009001307699264861 -0.005723072812129857
1492 0.008181157714755615 -0.0029899939025938723 -0.002569766940502989
1494 0.007185394304298555 -0.005217921102035283 -0.0007886845394114509
1493 -0.004559964506934486 0.004497009646973042 -0.004015199181335109
1496 -0.01503342685047905 0.007890212118141001 0.0015103850907093657
1495 0.007247147349047159 -0.0072728744742238845 -0.0021475879178904345
2335 0.003833664304117446 0.022649760383769077 -0.004677798254397506
1199 -0.013837968723202828 -0.007650995593323379 -0.024007445692950134
2047 0.016308726428240057 0.006760574643601201 0.0008094557316041248
1194 0.026065301380071505 -0.028099545328001022 0.011887275637908909
1504 -0.011576630857453729 -0.015067330487167295 0.008862880065332418
1192 0.04863165448880759 -0.01288790742086332 -0.004004947378380072
1190 -0.0068885662211059 -0.008104407806342463 0.005284327250271832
1191 0.002887266791160587 -0.016561326273205213 -0.008399933969244364
1193 -0.006126233769070821 0.0015734696693864203 0.0026429717449231124
1189 0.0023916207916959724 0.002882873994034782 -0.0023569539561126957
1185 0.00034073083863582146 0.0027251602118065527 -0.0016261189051078153
1187 0.012425074455864257 0.005174856857722548 -0.003313083319206743
1198 -0.010575959650644782 0.0009576179029859813 -0.0036764083067450763
1200 0.01430486517886696 0.035735219931159364 -0.007544652548423826
1188 -0.003812693926954169 0.007172754529914814 0.004474089184583625
1197 -0.0002882802600519261 0.009428176226111503 -0.03756469910178045
1196 -0.019451061101828173 0.003528360791421829 -0.020715196456181046
1195 0.008825314327978017 0.006370395367131342 0.004502187740422584
1186 -0.020511854444196488 -0.026408310792392597 0.01692551173137055
2824 0.02279113976726512 -0.010160749816874337 -0.01330086067785991
2823 -0.004356341829035377 -0.00768047203813712 0.008545746288405247
2821 0.004390610520862242 0.017817312800882154 -0.0005025572016740999
2822 -0.0008332235449484394 -0.009836658982472187 0.011794732522979828
623 -0.015743168344803327 -0.015066067301289064 -0.0009545123090360286
2826 0.010296921921441868 0.0011162352391957955 -0.007903368826187513
2825 -0.0025130277382539295 0.0074112779462830606 -0.00025812373776695915
2827 0.005681386551930637 -0.0037073049532754176 0.004651124098177187
2828 -0.0005748177250590947 0.01765553772874657 -0.005303614359822746
2905 0.01078909694596117 0.0013463995494010406 -0.006754627276844717
2906 0.024025603614427155 0.007998795243866322 0.008959085353248396
2817 0.00847396601334952 -0.0007440966523007462 -0.0008537683107452249
3067 0.018635283625696292 0.01333625291195667 -0.007973270197760564
3068 0.0009958058666891595 -0.030550278908595796 0.02594944423829191
624 -0.030603815655618934 0.02426072892641479 0.033676674499601156
3044 0.007613336231984227 -0.004975605532667549 0.006928340245739414
3053 -0.008950037128209253 -0.0243890536555228 0.031728211250732184
2901 0.004013686087498554 0.01320476486214519 0.004838006496561712
2902 0.03217401707240425 0.03190584313361662 -0.006900273588748538
2903 0.003971340652519248 0.0009894453222443684 0.005458813392096182
2904 0.012527344275128003 -0.05423916619233157 0.004031579590907399
2832 0.006983936556531237 0.011116459250386068 0.0012718940939099547
2830 -0.002683196150333749 0.008296203589122298 0.010137725666395982
813 -0.017604643196122653 -0.026716203119561275 0.008227041600714696
2819 -0.0009260582756501471 0.0031736557932098486 0.002818690107810443
2818 -0.011071342559373355 -0.018577775039842714 0.022670592063664865
3066 -0.007900052486139699 0.023017068354347327 0.004059778259929283
3065 -0.011007154446658653 -0.00024832819680489337 0.005361535118603697
3061 -0.008621657090608421 0.0020771489608531206 0.0015144542768038445
3063 5.6850820848505486e-05 0.004059526155467629 -0.0006570288224916551
3064 0.012482414708970909 0.01882425598083144 -0.02895095118607548
3088 -0.052059522023436874 -0.041229414930220226 -0.014287000894771187
2829 0.006597263592930507 -0.022754257002934045 0.011062129641307455
2820 0.0035046792741326117 0.011872620502761522 -0.0041296669034568915
3042 -0.02778750090379466 0.011589362568677769 0.007017734068021386
3052 -0.014395798930597671 0.0014586648307805448 -0.0050753914696377005
804 -0.006211772469066024 -0.006327581042549743 -0.006771694162702941
802 0.02504762336118486 -0.012340711548469342 0.02305018376319919
3062 -0.012841690554766333 0.0056342792150073494 -0.0096517111379812
3041 0.008222671061868204 -0.003377414486268232 0.0013533753566669117
3087 -0.008881019749850408 0.05058288422503117 0.010992532274389085
3086 0.007214233787892137 0.005953445828915384 0.004571690961262044
801 0.011872022872518952 -0.0009350056996785503 -0.0014738124069989904
1135 -0.012406536458050621 0.003443548235583415 0.03404523466727538
716 -0.021894080526858085 -0.019952473965449465 0.006502707841301016
715 -0.0018841547767766455 0.00409904860226421 -0.004095970052213213
706 -0.010410481153304367 0.029913908512292385 0.05780185955772495
705 0.0055856226141961195 0.0026832334137321997 0.0030857908233963343
2907 0.006958147874933972 0.0015024052087252444 -0.0059118385239433375
2908 0.010285753969399677 -0.014921080795775471 -0.005219175735544478
1933 -0.032650876119082586 -0.044970865740468886 0.026323533130099823
1934 -0.0028413723883057205 -0.0017159685448123007 0.009344772364710078
1924 0.005703584350056713 -0.003577885113055377 -0.006097769634813705
1923 0.0017969709906831461 -0.0045490159214145705 0.0009998925259371424
1935 0.001241486761323281 -0.003258581020998501 0.03040793995017552
1936 0.001950163176100957 0.01569120510346585 -0.030629332566265734
2897 -0.0005039552620889372 0.000901405626892118 0.0011520204702330848
2698 -0.00982770915880346 -0.0023894635289695232 0.0027196342156630524
1926 0.017975884535023808 -0.0038369895641741612 -0.03599445424235521
714 -0.0017156782802114628 -0.01850249306556103 0.011092641937904522
713 -0.0072756164386020014 0.008430283862297683 -0.012986713607350476
805 2.786894176111782e-06 -0.006476131764586342 0.0014781193435423905
806 -0.029677937253815685 0.0003200597637794082 0.03256839743684877
711 -0.0026796883918359404 0.004822078452229471 -0.00010272400788864268
709 -0.0020142351433840846 -0.0002073795818466476 0.00237474042391963
710 -0.030854674114869213 0.032292428860305644 -0.03336655470011432
712 0.018074962085895357 -0.019938664255040074 -0.0060073347230585935
707 -0.001746550032820988 0.008182378467270796 0.008679481134355935
815 0.021366968028577408 0.014587290225844263 0.04352052499184606
803 0.0015368230204855075 0.007935426096593168 0.012530864381256186
814 0.0017702060748004864 -0.004411623807814623 -0.006516826746837483
816 0.011826338052793109 0.02378359056537079 0.008218023154800927
2892 -0.03343352553516202 0.022705445793736647 0.030418315809953276
811 -0.003507488204111158 -0.005755227228967533 0.008750289600309881
2891 0.0009116260894966993 -0.006499248359100867 -0.004513820646773159
1922 -0.012471887307475685 -0.023382486336335835 0.015906809252359093
1929 -0.005880570490361317 -0.005123572082280473 0.007751390426283742
1930 0.005502634153328448 -0.030213601612549604 0.009138299523110075
1931 -0.006757857490346824 0.004950779471194083 0.0051192816140988836
3223 0.015379667339278579 0.002848041300668793 0.0011841566988685028
3225 -0.007680127802145038 0.005014474218755465 -0.005054643302777302
1921 0.004509816808242576 -0.003123843261483182 -5.968650638449025e-05
1925 -0.0159355630780845 -0.004013147762252026 -0.0002636638461914393
1244 0.01834547568477548 -0.007740920993297444 -0.00876878231852403
1928 0.004401649960504253 0.050086183902601146 -0.002339775490571524
1927 -0.010069539717344683 0.003071770457766228 -0.009262363510513467
1242 0.01087301104004478 0.008626287915288897 -0.007140778738900567
1241 0.001515894831594613 0.0067863019251003425 -0.010343643166445407
1243 0.0010945304171457873 -0.0017369528677533782 -0.008341765934650872
1239 -0.001226138734132703 0.003868130387073086 0.0017149736338763065
3221 0.0026870713132770667 0.004373309302717504 -0.000703325362482998
2882 -0.014243384636526945 -0.006324063720916324 0.012466247679993853
398 0.002542791463982176 -0.01103008342967628 0.0021554603634914037
400 0.001992703753132791 -0.01949711764693185 0.0012414148126859367
2884 -0.0024060177037772503 0.009148280906523244 -0.0002902774614433971
2894 -0.0047141157000400325 0.00474920383051888 0.0028626703912975455
2893 -0.03456808468654542 0.02712255377503155 0.017111146724739464
2883 0.004290504251365106 0.00268581534581085 -0.0031428054466172573
2895 -0.012084454280212886 -0.010610748189801272 -0.014910179798753415
3227 0.005551551091086666 0.0054278777885761 -0.004140259647055445
3228 -0.02594927662132844 0.02599633820841204 0.014288384494581743
685 0.006891482473998262 0.0045648506775792285 0.0032834293674210294
676 0.009548772851838201 0.00847321580800213 -0.0053997060303803855
687 0.028694390033939355 -0.011439642726599086 -0.01969100342296739
686 0.003208443496752794 -0.01372744359362418 -0.0036135978978712184
688 0.005087946549769012 -0.02292757483507889 0.010975374900701896
678 0.014793588375587365 0.00468666752499843 0.00015628176067507786
720 0.00204786090291362 -0.03206787850235896 0.0025273621068245132
717 0.01991107409271912 0.00683500441760679 0.011151464117687408
3229 -0.010996763066725118 0.02209931264229249 0.01231613936998962
3218 0.01825296037623832 0.004274109157696465 0.010223268789134588
3217 -0.0012349389476687311 0.005543791670860474 0.0025473071299739933
718 0.0022186976005708287 0.006436794736415897 -0.00487867872008412
719 0.024926935280304905 0.035790677421858465 0.014001977626183663
708 -0.0016011482131745422 0.005243398324866321 0.006409022356031866
1234 0.011221907012679517 0.002678275686989082 -0.00789496329791525
3220 -0.00044737221708223963 -0.0013711702413294715 0.0010696381478633066
1248 0.01986419120349828 -0.021330687686596832 0.017716607367318223
1246 -0.002639595371866938 -0.007484027960445678 -0.0013740180301053035
1247 0.014589174648673604 0.01024977858000569 0.016081060335335483
1236 0.00415774843225729 -0.001336864240693307 -0.003371548500736012
1237 -0.006853583786767105 -0.0007759956446350005 0.0012454278593283298
1235 0.0024934338381359124 0.013219741304032901 -0.0041947861338524975
1233 -0.00580845939493257 0.003179241194937974 -0.005519596164675748
1245 -1.200506998983606e-05 -0.008918762482817031 0.039865679434289585
3219 0.0007351379121427422 0.014108564701126633 -0.012850989102842774
2896 0.0217330457512011 -0.011842055561418275 -0.010037162152064523
2881 -0.0031468144259955756 0.0072782479321817925 0.0008063731700923605
2111 -0.001086500571259886 0.012676090886748911 0.02539464209479501
3224 0.034142665212337976 -0.0018248038770280178 0.019258248046723058
1240 0.0018041177743370056 -0.025134896367554994 -0.003699437801580771
2110 0.00906821712189663 0.002072802156340123 -0.00502627157569415
2109 -0.01040528690286847 -0.02391718920908792 0.0013180624998625112
2100 0.008624262896460965 0.0016870340018856301 -0.0006793879940589137
2112 0.0044627403101041175 0.02514842518565228 0.018426053841957283
2099 -0.008775063353323434 -0.00799804021546088 -0.0015244436568815584
2101 -0.002616142609222102 -0.0018105599667157714 -0.009669350807921948
2102 -0.010578334649004815 0.012440245285465432 -0.007215053234591666
1562 -0.05086548268783607 -0.006987077683450769 -0.027965485697221536
1553 -0.004367721673683033 -0.0002577406661858287 0.0020510036282809017
1563 -0.001974639218132702 0.0009149913365517348 -0.004176938077890088
1561 0.007124213430531041 0.00048632619756664927 0.001531200290264519
399 -0.014805612795579147 -0.005308602067395296 0.018322896413849935
1564 -0.04497154538223699 0.005951309831477482 -0.01807812879514824
1554 -0.024703041712878734 -0.018882487490389517 -0.0011334515714352161
3222 0.04701943318013902 0.021195985422181794 -0.06183238436255451
1559 -0.0015932508902344578 0.011265484526500526 -0.006476350469567472
703 0.016851121936649133 0.005863310674949114 0.022633379687709943
1555 -0.006717474556225505 -0.001569624546999885 0.0046255007653165595
3230 -0.009201630973285987 -0.010490163419722623 -0.0031728245896500314
3232 -0.011757656763450934 -0.0026813853476807805 -0.008519933869797077
1238 -0.017040705465054356 -0.00232179158702568 -0.014277187225597534
3231 0.03296226478784692 0.010713245370978198 -0.008483140118921878
3391 -0.020071966384147356 -0.027920378614986408 0.016126969682169985
2416 -0.009189490911922704 -0.000980197518063913 0.012804964725256943
2406 -0.03765492492600258 -0.008329492919188107 -0.028191338687409875
2405 0.002106841021770784 0.002755655342008539 -0.0010303030993377175
2408 0.01915937712610722 0.024276387225541676 -0.043125856072622766
2301 -0.025595772125522373 0.010931919713564378 0.06686172685007705
2407 -0.003934120478133006 0.005368002642333656 0.0004703701782371793
2409 -0.00828879628139849 -0.006863107174964716 0.0018120686172661592
2410 0.009375064137644426 0.008481998328745643 -0.004988540734418973
2403 -0.0017503174612481325 0.00197941525000022 -0.007072760091017036
2401 0.008704240421369542 0.006166420765001457 0.005182741723356051
2412 0.007387315796128364 0.029654772922969065 -0.0014966108026316116
2411 0.0066565982500456245 0.007880740426462586 -0.004786514736671727
2402 0.02319443136273507 0.007386319377347911 -0.0005921214724891277
2674 -0.021609001652996587 -0.008638138177901444 -0.013338975904838818
1082 -0.0015732454097887446 -0.02496387862990878 0.032269558718862536
1081 -0.00042989378563339307 -0.002688140312243385 0.003311098989477329
1080 -0.008212107809133127 -0.041831627801088386 0.01104407548160431
1079 -0.0002517761324687491 -0.0030987378540839865 -0.006832814986694775
2684 -0.006316018412128991 -0.022203571405110367 -0.013405636783338172
2290 -0.017963546512421887 0.020057628295705544 -0.005422435395924712
2104 -0.01609556056950234 0.010023372839882689 0.023916339359544174
2103 0.0031260252434742344 -0.0057741577292136715 0.001270812343839583
1560 0.01806179923729539 0.024490032000119965 -0.01895521636561298
1557 0.005729771348524877 0.0016318406876547772 -0.004187526713399736
1558 -0.003852590627219289 -0.015421719038821759 -0.012843343871184312
1945 0.0027698572538072527 0.004960720488561854 0.005843412978708013
1943 0.0014258532834454784 0.005891855069558449 0.0021322380739379485
2679 -0.0020052264343864033 -0.0005821991841554804 -0.010452954168497895
2681 0.004600757670660637 0.003565016976660342 0.003948443428811068
2677 0.0020535916458488818 0.011109640388927046 0.0037095179450580525
2678 -0.006430297403670487 -0.005413146033425697 -0.03354015444292591
1941 0.005994110549486739 0.0037844206765619203 0.0005992339853499357
1946 -0.014463948621837436 -0.0068362859050256665 -0.01643702004023791
2683 0.0052707578250032056 -0.0022948625288431346 -0.0011729561451465041
2685 -0.04623260198391159 0.03222953624924276 -0.006884394754683029
2675 -0.009146776833316028 -0.008522049766088917 -0.0014000161640657946
1944 -0.0012645196688881998 -0.011045334242048847 0.01061415045662534
1947 0.00782202525505363 0.0011215020160462537 -0.010799364399972736
1084 0.006315804617642401 -0.006036582644510689 -0.0042638476828871855
1948 -0.012999635267493455 -0.01805180912806845 0.03524250345496009
1937 0.0036813036536766544 -0.003127349569117068 0.005996494088396214
1939 -0.0012704112877687883 0.0037877559712417275 -0.01051716936989385
1938 0.04229171905220167 -0.012652808059410338 0.047401159452318514
2141 -0.01996848855055146 -0.010496092366239244 -0.0005587117466368829
2303 -0.030567650799817995 -0.00966183783426112 -0.006551662839267265
2292 -0.0018280534199974971 -0.0006730066604939708 -0.0005914996854607933
2302 -0.007031027287296562 -0.004183088239182931 -0.015435061822728108
2304 -0.007165734073616956 -0.017994229795568844 0.01696076002294743
2179 -0.0019648798156339615 0.013407103880850164 -0.001737043153124729
2192 -0.02161637945085304 0.01104236548557656 0.004206176381270118
2673 0.008270972439996187 0.0018365741158245647 -0.004794995825147803
2189 -0.014840475433077418 0.0036863673045997854 0.00849801296336107
2687 -0.02028625773957771 0.014542562078078863 -0.0006014249289507654
1083 0.00488060473727022 0.005051980485524667 -0.0005879327147390993
1075 0.0051217863834398455 0.0015755203859256332 0.0004486289935875991
1077 0.006585324110651555 0.0023747948953916896 0.007170566458986974
2676 -0.006583476880430233 0.0017604506670865947 0.002927449867095298
2686 0.009023438409665078 -0.003483732930768527 0.002007185167570874
2688 0.01924245547224027 -0.0030579255893228687 -0.018187598653366624
1073 -0.005483433579888491 -0.005846484666514679 -9.323145272793542e-05
1078 -0.02003385339234895 -0.0034640876031416354 -0.020768442767143763
2190 -0.0033911518714099813 0.001438392679621071 0.00418296022699243
2191 0.026060244780170258 -0.01825831251603219 0.018470404772425675
2180 0.0026829485344977574 -0.0008137862353707482 -0.006170831433711209
1086 -0.003150421621531432 -0.014412702018963223 0.0022979972013610715
1088 0.025950408507198323 -0.025076825181951225 -0.031853304270473434
1087 0.013115547903366966 0.0004908971537058187 0.03467801598440728
1795 0.009769445081170907 -0.0008645781133843264 0.009964253153412816
1942 0.022585744392115702 -0.012038528876037262 0.0012784289115573616
320 0.020150268045623684 0.006016559203408698 -0.011788442192131281
318 -0.006005171086421104 0.0023337886746421592 -0.005868140308118404
308 -0.008379964219213804 -0.004150918618075212 0.014347602703515648
319 -0.019951429399331453 0.02553222704193843 0.00438459278593308
1800 0.0035521988355340225 -0.009891729228641136 0.020066047503856398
1799 -0.00037311270320426407 -0.0018536784246913991 0.00665436977211248
1797 0.0030835577959748327 0.005659411431103178 -0.0022669103834749
317 0.00853087032104165 -0.02129600303323932 0.00032875307906946076
1798 -0.013632077312796713 -0.010449445021467116 -0.026389645244222562
2134 0.015681461590207956 -0.009985804942337341 0.034715165916841595
1952 -0.0066341556280325115 0.026705201115080502 -0.01839823660206063
2136 0.016868860429404827 0.00433058829004471 0.03489718411536901
2133 -0.003169613230630321 -0.003086293442957655 0.009401572754606829
2135 0.006487507576950867 -0.003839267266126802 0.0110668648143972
2137 0.0017511801656986399 -0.006521712571195114 0.005861552698293274
2131 0.0020480388840048006 -0.002016605848802554 -0.002600555733107142
1581 -0.05218362213219067 0.00694934716938301 -0.002258862301884875
1949 -0.028819994328135628 0.04407022251956063 -0.016925668333764982
1951 -0.015461992559406999 0.0006551385272534692 -0.017464146852834976
1950 0.00441719654171819 -0.009258046025677162 -0.00732481757183013
1940 0.006166342861781206 -0.00524855857271996 -0.007784080274026018
2178 0.023971240292956636 0.025713294808391057 -0.051109467062656753
1807 -0.0188907977974816 0.0006349638538014111 0.035702549737860786
1796 -0.0006477595382118469 0.005081586661367103 -0.005901922916069163
1808 0.026287429470636735 -0.0311896060714684 -0.011155422686638071
1806 -0.0056685221619253295 0.006363584679190657 0.0017156061918318626
316 -0.009905840366420974 0.0035813647804217945 -0.029514668432753258
2143 -0.0021827541858519196 -0.005151650504128008 0.010617983431286294
2144 0.018649963355825295 -0.011277124334395748 0.00770627341895655
306 0.0014171683470769352 -0.016826906122114658 -0.009381105599660733
307 0.0005787908629615824 -0.008702114131405918 0.003714415360505458
305 0.003129639238995596 -0.003993303815225741 -0.0008617295855418203
309 0.008729623675117074 -0.00034581378471451395 0.008270515367533903
310 -0.020471749093958144 0.001127358529051895 -0.030505551003826067
315 -0.008070212965399807 0.0013660968465056436 0.007813420508602875
314 0.002722305993656421 -0.03099979113330878 -0.0007201047228604675
313 -0.007153472888090105 0.0002037130753315721 -0.009908119358103346
312 0.009333578818727343 0.011769775929756457 -0.020383849648722724
311 -0.0034937574971226084 -0.007357123394262405 -0.00843879373453445
2142 -0.0009133982881925369 -0.0013559381517247462 0.002483477619728391
2132 0.010336725691608437 0.003918249858532168 0.00010588977725588676
1010 0.0013999063129422065 -0.008886962771990942 0.008154870786181934
1020 -0.03257528114032919 0.003654164165239948 -0.03239659420374195
1576 0.02358355030178909 0.02473711580450984 -0.009474642988433715
1575 0.0024792418608076293 -0.004838545588707295 -0.0006956583542168893
1577 0.003283389620885968 0.009585650535199546 -0.0018844554444824163
1578 0.02295794705181753 -0.03595608270140723 -0.006330127361925818
1580 0.004154420000817495 0.009464542497842662 -0.00628214053901195
1579 0.0057820169188025974 0.004579040754784995 0.0008335101750389112
1569 -0.00119694870040901 0.006165941569029569 0.002977090102393533
1570 -0.041375394029809935 -0.001819961423918087 -0.007300459842440871
1573 0.006310901184067206 0.0009332287910258849 0.0017171550526778737
1571 -0.0002665795649271717 0.0030749876100206477 0.0005338439669607233
2267 0.002817844407994522 -0.0031013569645090273 -0.002887066412658706
2271 0.03283676971749369 0.00962630773662934 0.0023449766936168106
1023 0.045190857622097895 0.00958095001166037 -0.0429426020990171
1024 -0.012493207116525884 -0.0047561493358145865 0.020339694773938075
1022 0.001292566623468478 -0.006934330649449126 0.0036441940480811627
2258 -0.050393348383603064 0.0008325201124233646 0.02421752782170236
2257 -0.0061909034305130005 -0.010321642217008807 -0.00166607123804827
2272 -0.020028190950740394 -0.012807557503950982 0.009563837062268198
2270 0.00651633341038859 0.012826179370201064 0.0035333159762181306
2259 0.00822792490127018 -0.007203866254018618 -0.00019836709537083476
2260 -0.007816786543254992 0.0017890534849275155 -0.002506493673313989
2269 -0.022638400331106655 0.01060568182225674 0.01024442406306953
3332 0.005572424427257217 0.008091814518100976 -0.0023252792752982898
1012 0.007728402791783113 -0.0029506813931485625 -0.002448546360253306
2664 -0.009648277016092431 0.014980388160582685 -0.0015930969884522454
2663 0.0021234172647975834 -0.008080632740267173 3.95802018784115e-05
2672 -0.026932856518759016 0.03801941573198922 -0.02789165900192686
1018 -0.00427889462867904 0.0025341563518782566 0.019714168301077892
1017 -0.007619211427000621 0.0007315454638560316 0.010494300357465673
1019 0.011071936282739201 -0.0007855986713256379 -0.014607185162075724
1016 -0.013831592112587504 0.008843089856836505 0.021366753984630425
1015 0.0040707984201418185 0.0019092923838113004 -0.004121117961194694
2659 0.008551447626865789 0.0035917852169365144 -0.018800386935039597
2669 0.0007739709767988424 -0.0025366425231908444 0.018158265837052438
2660 0.004855876851602518 0.0034564352901111013 0.00193106408587226
2661 0.004971434829895839 -0.012377792171300715 -0.003235180149643649
2662 0.002213071595883588 0.017893346778677814 0.012326078356329437
2670 0.0008939992845993992 0.007558138915875529 -0.0020340707035058536
2671 0.034614934896115224 0.013654684310450749 0.006458023654574558
3341 -0.04007775080495593 -0.01353369555403811 -0.019436299576303523
1162 0.051917572575052424 -0.01723539043349541 0.0210003390898972
1009 0.0024939347651263305 -0.006850594148017819 0.004136499537560447
1011 -0.01104890904349893 -0.00020308602267129515 0.006177089667560554
1013 -0.017257769197563104 -0.0017116034589956177 0.0020021942218970182
1014 0.018111402290706808 -0.0044341409165907465 0.06591763333330684
655 0.007841528433718738 -0.0005845192486820337 0.010278547953573006
2268 0.01128983767895745 -0.023233075200041746 0.003190229962162257
656 0.010137447044870029 0.006047432893552173 -0.041650192797929975
642 0.028898050020971205 -0.006585744178866398 0.006667571256037175
653 0.04505083880229903 -0.010502252323627509 -0.00991152323254425
644 0.0026835778756471433 -0.0019432669110638686 -0.005026065406179514
654 0.0026415768512859255 -0.002621588519926447 0.002624428623594008
646 0.01786777335495929 -0.025582598584326093 -0.03468501690129758
647 0.008097737651656422 -0.0012263122218469963 0.008643690628572922
645 0.0008903352913914823 0.004918058709623086 0.006145299430599208
641 -0.006132863905256031 0.0006886431325334865 0.0027713981127872114
643 0.003274736226831784 -0.00355011003035526 -0.004363903353764809
1160 0.022503137191228092 -0.001386152168350622 -0.012238394525808443
649 0.0043503764818084946 0.01330277416383004 -0.004590716470439287
651 -0.012701318011291948 -0.00536110019481276 -0.005587431586693349
652 -0.013243346597792154 0.017770690444649868 0.0007287577261214116
3334 0.011133599365592124 0.036147527349991826 0.02828216378649635
3344 0.010448162741251333 -0.0037432519651604767 0.027416998953217996
3342 -6.309095464576875e-05 0.0007342020468809251 -0.006535198881420296
3343 0.010345786676012962 -0.01412300233267339 -0.041014359826386
2031 -0.02975813812327766 0.04681958828032411 -0.021990758671604077
1158 0.012942000228226206 -0.04627968484907762 0.013131744696929097
2018 0.002251357850854192 0.002963788499707914 -0.021217274011570298
2030 -0.004235501507776643 0.007462221022105223 -0.0006493272577243282
1157 -0.0017391289681578208 -0.006475876144922422 -0.006628748801443223
3330 -0.02930489926916931 -0.02045467282085379 0.01344749252784501
3331 -0.006679474231006294 -0.0006578663276524258 -0.0034412878450057693
3340 -0.03144310151245019 0.006370237826712714 -0.0321668819114635
3329 -0.0054559276558873515 -0.0035472350946967506 -0.0041755403478902515
3339 -0.0012057026583326164 -0.004548646339319945 -0.006911864192335575
1159 -0.003926448087131501 -0.005917853120051748 6.202742713335898e-05
650 0.008135336385861894 0.005969165337913628 -0.007728448147839636
2032 0.03351326435735011 0.06770904782799546 0.015292470229091753
1161 -0.0028956777277257453 0.009353751386035426 0.00015427148437240776
1302 0.010183974078645035 0.004909160600420648 -0.022381475939559435
1300 -0.0067125750757119716 0.0027930096111535405 0.0012302711745945372
1299 -0.007937042772296113 -0.003158871204282408 -0.0013058798089760249
1301 0.008784641102375033 -0.004579827755217224 0.004737063237587971
1310 0.00023190325204178923 -0.006069957514881304 -0.005091261429233347
3335 -0.0004738976154699538 -0.017082986671038466 0.016290108074074574
3337 0.007428661088371928 5.1470098323396076e-05 -0.001098312109874237
3333 -0.011120712989127791 0.0010610809392322357 -0.004304838933796945
1312 -0.007439992009649054 -0.00752289064612825 0.02353663104241381
1303 0.011218556932442909 0.010580722012238716 -0.009534866743773076
1304 -0.029564368373109946 0.017269653155237555 0.011439163040974856
1311 -0.022798679384294553 0.00683312690781667 0.002708916206836933
621 -0.007921474106596207 0.01918236483422162 0.008853502913336798
2037 -0.0038780913091331993 -0.001583401854865193 0.005833314440766521
2040 0.03444558677751297 -0.004251932491436064 0.015829790038290017
2038 -0.0020698132975652066 -0.023049211461626428 0.0257190558083035
2039 0.007942911323098928 0.000533928617112777 0.0019547969662230217
2042 -0.01175132989237055 -0.03034254882691034 -0.06428200102141456
622 0.0008732290454448071 0.004857911317601766 0.0010529619824114144
610 -0.0013989978268924364 0.01971785294516767 -0.008883343546761527
614 -0.0033986555466657175 -0.0027100896911369976 -0.02282042153393109
2041 0.014689310291731695 0.000565947180896938 0.0012369062252217307
2035 -0.0002378080435431387 -0.003909527693766262 0.004469597300087945
2036 -0.0012684545148131975 0.0035332657665669916 -0.007967975191852751
2043 -0.003090736778170923 -0.0003537701213202332 0.004309216859172299
2044 0.005130582821933713 0.016634339623507216 -0.019957981115371958
2033 0.002422052771610732 0.008918702431143247 0.004231121277842346
612 -0.0018228976916947132 -0.00413747172630375 0.004068819852606739
611 0.0032176669950781433 -0.0012774349783762355 -0.0038023737855671876
3055 0.038782403073007767 -0.011378808914762293 -0.013383817617814825
3054 0.004687063867095093 -0.00884535379397118 -0.004198235514827665
3056 0.01886612320507857 0.041209747865520785 -0.02059485341248784
609 -0.005501218388866896 0.015536540648506066 0.0025310124814851313
613 0.012190539989969386 -0.0006333124514443682 -0.009262440483422887
615 0.008883228922007684 -0.0060647837619384635 0.005243755867579448
2048 0.009406410165131137 -0.012459245681438615 0.012621460458856102
2046 0.007369769411813181 -0.008439088203280121 -0.004939745642953832
2034 0.015092228038316627 -0.015975951913136683 -0.007633307221756907
620 -0.00862106984705645 0.03141128896630062 -0.02610030453913577
619 0.005192893262063185 0.004228207535355306 0.004553002758440955
1309 -0.03496547690172835 0.004511578391170211 0.0013012026649010992
3048 -0.00030540557786034857 -0.029693714498133652 0.01965909313175834
3046 -0.01904849869835696 -0.004719913035187611 0.027174328460779502
3050 -0.008952643353144937 -0.009343942634229442 -0.0446619095737351
3049 0.005289728628585606 0.0012515731224702824 -0.0028933590685818415
3051 0.0006444336343864474 0.005838586412960773 0.009187028103965069
3043 0.0004139663431018464 0.01040888207447706 0.002257260381613468
3047 0.0013982044310257233 -0.0007061118738139162 -0.008208317215606506
3045 0.001247551693560665 -0.0015765370610782367 0.004548433010237547
617 0.0037451324178536926 -0.009463977238098711 -0.005502370631567657
618 -0.00951371027198546 0.015251454869964116 -0.005723429535928743
3082 0.023714905915613236 -0.03405335313077879 -0.00673249524571349
415 -0.01051301309031584 0.003322354587900977 0.002446098893102112
410 0.0052266101268412715 0.02882263304779635 -0.033703099657992695
2244 -0.004149224590774575 0.0012729550226762301 0.0031816300127826907
2254 -0.005733617620953038 -0.0062196677750475885 -0.007024925229525229
409 -0.002388289222793381 0.0007624564089957612 0.0011405391683465904
408 -0.034449242636202075 0.02120608529200511 -0.004751416074345186
407 -0.004626566532106575 0.0022830958303833456 -0.0057407154204131726
2256 -0.005145729905184912 -0.01758912327895882 -0.023487622939831726
411 0.011940594919467251 -0.0007626973028627779 0.005052887208501485
401 0.007698383754107422 0.0008814193569632581 0.001967367269143542
2242 -0.006235157445441532 0.004710898900244706 0.015314598674848445
405 0.008736661191697368 -0.010781941163638153 0.004372622264161443
414 -0.001298646839440589 0.00012195257639141443 0.004233719471454809
416 0.006774967926623677 5.8881183828703095e-05 0.007684072307035046
403 -0.0009442798367918459 -0.010090942388621463 0.0005653448044020612
404 0.005145076249776731 -0.013750644323083197 0.013844519211489222
2253 0.0070080172863374686 0.005480383953845301 0.018606767457463088
412 0.013782996752209006 0.03359782537489681 -0.027551575490271072
2255 0.007964715278922986 -0.02806219434881992 -0.005584115382444444
402 0.019997665696673654 0.044107898510619185 -0.0319399328278274
2911 0.018100839380061573 0.0004674659266972236 0.04257363533490879
2910 0.013811156958680725 0.0068971601095887 -0.0018881445488486861
2912 0.03540427961893378 -0.04695447148067582 -0.0064724467514018355
812 0.016749437196112885 -0.020215293128066004 -0.014088956959942603
406 0.013121569671293012 0.00025390467997238564 0.013032442509709117
413 -0.03574729300039584 0.026069246921112035 0.025716246758346297
2243 0.0015111045081317015 -0.004702541406390207 -0.007971358343479975
3078 -0.021530817870292658 -0.013783628283442702 0.02791293800828478
3077 -0.0017836829520815986 0.014418660155973975 0.0002934512087090364
3081 -0.002605461801454117 -0.008176640253966708 -0.0026843253690006785
3079 0.014871243505935994 0.0005322281525519104 -0.003165463098739576
2241 -0.003589151885836551 -0.0008681587126630006 -0.002357326326323742
3076 0.005366558469408417 0.006686193538356036 -0.009641793771721701
3074 0.025184265079737048 -0.03310972907753776 0.022448293602425853
3075 -0.0029143394901551783 0.008784188881793787 0.006415724267451854
3073 0.005682912258566505 0.006983438403270547 -0.008136330787233814
3084 -0.004457631672621216 0.005090712613898214 0.0040104355403989345
3083 0.0009593612894124407 0.015477117377471254 -0.007750037170615186
2431 0.04560824822009752 -0.015626598818992195 -0.026246649602186194
2430 -0.006618464069847139 0.0032446869187778274 0.0023989295322450494
3279 0.01687091224733692 0.021678128127394208 -0.02106401331463957
2432 0.027560198021597374 -0.0008558879301243756 0.021912247227507287
2422 0.030307685391102318 -0.017263016202738676 0.008557166309836457
2251 -0.0003431574805150358 0.0023511128621855073 0.0014197141153566596
862 0.00450158230743974 0.000913068039641777 0.004181535024036868
864 -0.03486810653023177 -0.028168062448562604 0.014932649008794381
3085 0.013576252886670566 0.040120685609516274 -0.023426926035164983
863 0.01655789227721747 0.04501211348628959 0.008772237989262287
2696 -0.016053783818391208 -0.006553764261692016 -0.008156894647266188
2898 -0.011574832264372732 0.03968222593619069 -0.003697001284517825
2899 -0.0002451645392380395 0.0011668670265757737 -0.0035250869184195316
2900 -0.004392443745789156 0.00012770823094558422 -0.0032356492308969306
2909 -0.028954719032623037 0.038592993497977776 -0.013967241362662128
2694 -0.0023168787689837444 -0.016717176969055572 0.026802689176162003
2693 0.005379976590100411 0.0015138778801152906 0.0018819735761300522
2695 0.00320450411162491 -0.007991778075847306 0.011198091277235953
2702 -0.003044445198970369 -0.006204882208505006 0.012753869251769797
2691 0.001113148166302662 0.0013352065522655098 0.0006815344074087619
2689 -0.0008741780506874903 4.721858998699576e-05 0.0015338900853680228
2697 -0.015371124652886843 -0.011272957742123783 0.0015825714484838911
2699 0.004466075352584543 0.0007057112361114838 0.01535224529515118
2704 0.0025289848586698203 0.01576996669353252 0.007559064037046413
3270 -0.026699456201112214 -0.0575242887280673 0.02444658968966368
2472 -0.010114815583783231 -0.016689026211784388 0.0029285855975566526
2473 -0.0045647974247495825 -0.010941499404261633 0.00443730879364649
2471 -0.004167450516148156 -0.0009896186931968424 -0.0024487327327866915
2475 -0.0020496423600010454 -0.004283736448390983 -0.0031952418680656187
2476 -0.017470561436708085 -0.0018128311794669949 -0.020336053735075365
2700 0.009009546816411246 0.007213465734312879 -0.006201841766781711
3266 0.011982499858715356 -0.021265172874772857 0.00907246319896186
3280 -0.019100907284213767 -0.024066164089684018 -0.03557907323322195
808 0.02590379052640465 0.008309024922435107 0.05017231442294606
3278 -0.002156842669209145 -0.007855387325575648 0.0027826320926087685
3277 -0.00803637624636043 0.012493953392541631 -0.0019457793655952627
3274 0.035058508713063964 0.021389926394957647 0.002812480289757928
3272 0.0358209382799847 -0.009123370246578893 0.011571640411464034
3271 0.004472889200240768 0.0008046802032065111 0.01155460843126633
3269 0.006746128064361506 -0.0035060291204488544 -0.004414492004983574
3273 0.004354437788983187 -0.007509093247657499 -0.00421462224805821
3267 0.013026189684571315 0.002461054636410498 -0.0002081438986556573
3276 0.02240840067466222 0.041282693306924696 -0.028028915065542812
3275 -0.004502734042648021 -0.0014062464263774718 -0.008835784918663128
3265 -0.003967503502817988 0.0015366924283383412 0.0039850775513002555
809 0.002604125805868654 -0.008431480719531011 0.0006697310700518789
810 0.006034142236123568 -0.005553323973611859 -0.03323191740689493
3268 -0.007367562777013853 0.0013687692161799873 -0.0010412648923265831
807 -0.005293802180173083 0.0021195785215503797 0.008295458830969406
2252 0.027121324600629382 0.029185611531467395 -0.040333184419802846
2465 -0.0006717230093959093 -0.007687029773328919 -0.007340004059752392
2466 0.02148795853716825 0.006422167283815062 0.040553697505591714
2890 -0.024418216727026203 0.018292775248109384 0.0019026676865397242
2467 -0.004043698458124841 -0.0005683052356452013 -0.0042559982516299924
2477 0.022282750223951122 -0.035651861164239074 0.015229728611761053
2478 0.0030760656524311822 0.003115305133859527 -0.008037187772994366
2479 0.003581700414190233 0.00567130586302915 -0.07094763813146444
2469 -0.003322418941185746 0.00867185679576776 0.0007146254565733254
2470 0.02745625209975194 -0.02764194566012305 -0.003692195796722485
2468 0.001499153150290404 0.009210714908388854 -0.0008469584606075592
390 0.03668663471123769 -0.01935943517484201 0.00357104206808415
388 0.0077217665291404985 -0.00035440181548974427 0.0012056096778755947
2701 0.028233369049483426 0.027448999400845858 -0.0011501700225178047
2692 0.003726899913419318 -0.012033194709295994 -0.006864738102370101
387 0.005809860127794206 -0.005915083765638944 -0.0031632060917921433
389 -0.0014170559626250315 -0.001969986157503182 0.010941471671075722
2690 0.03037231672240005 -0.022919861606805335 -0.033260114812241545
392 0.029822769807515234 -0.009811349675572996 -0.0032463270261622115
393 -0.00567546720257092 -0.009919383465064876 -0.0002659033507795449
391 0.00552398945220312 0.001045161861888456 0.008118804283871532
1904 -0.01390413793263927 0.007737370682681612 0.02936478566954835
2885 0.0053621477199633704 0.005467867151837789 0.0001262972335135233
1852 -0.008152735074771556 -0.0047978545501276455 -0.024841118946838298
1851 0.009380675468230357 0.0012591363175248145 -0.008640819343846995
2886 -0.01390167428450449 -0.0007427393451592138 -0.019410627213119567
385 -0.0006285358846637816 0.00045455368524633744 0.01775373477826951
395 -0.00448066824940432 0.006710369826203777 0.0021663590873393585
1901 0.01184671956610031 -0.0010954725042502055 0.018676676575678047
1892 -0.0036703616568255827 -0.01890711269630826 0.006207336152223199
1902 -0.0007088790999520832 0.0034788931007479415 0.003423064754931235
1903 0.007540656811176079 -0.019814036439447544 0.03489423869461486
3390 0.00946783051056153 0.001989503299381394 0.005177045015654675
3380 0.0032264772369353153 0.00392680888468288 -0.0013504726740419847
3389 0.01069208369807294 0.024791051438731355 -0.012528286136579912
3382 0.021403774827044114 -0.024874259079626117 0.03427836400332442
394 -0.017263292721512925 -0.012237523546787218 -0.027885891081949575
2957 -0.020117993487701404 0.004505447512416246 0.011902055000892421
3386 0.005064929142437767 0.007818028890612528 -0.00734669681670809
2889 -0.006117728552185268 -0.0005217111056796199 -0.0006309231752736097
3378 -0.022713211595783624 -0.021608333505064047 0.0029719495369845746
3377 0.003718851280581954 0.0011840921928252014 -0.009007639606366523
3388 0.02192018734323698 -0.02095666242219863 0.00978016331241764
3387 0.006560528250187106 0.0012676695394198923 0.0042691376542775
3385 -0.006577390693850127 -0.0006841749290277927 -0.002185938850499046
3384 0.03898299862715863 0.043395570441730265 0.0038773819672558597
3383 0.0043193801516626966 0.0011522809219229053 0.001544488111248303
2888 0.04320001895306187 -0.026011469045110938 -0.012986950679624064
2887 0.006367278008679096 -0.004341280927692352 -0.0144137023796453
3379 -0.002990915074936791 -0.00479721748792454 0.0041891011500247675
3381 -0.0052887751533357355 -0.013333960247372871 -0.0006207646924927099
1842 0.022059482490318322 0.015063307651618504 -0.0516498540813874
1841 0.011035791177524483 -0.007207255922897411 0.00045965298541227767
396 0.00074284409220869 0.007174156682607437 0.024241016864441474
1856 -0.004738839926810378 -0.02556737017674406 0.014732426982654935
397 -0.0016295198609353962 -0.04391769855899543 -0.027088032905360437
704 -0.007270108130610956 0.003476211802075762 -0.027903577021041653
386 0.023525220541763987 -0.013464504099106048 0.007547371241898973
702 -0.009775668155322164 -0.0022512065697831863 -0.002214508491944742
692 -0.000500424556526174 -0.0056306090074994914 -0.007759802982868518
701 0.006670198034494909 -0.005525558117858089 0.013408473150843142
696 0.013810132336155379 -0.0229058677856273 0.013810230398846768
695 0.0008574914931483844 -0.002066119262933908 -0.0010631500614824757
693 -0.0054524873241965505 -0.0006625716472458164 0.01726192426758256
694 0.012184355078509538 -0.016461632390251817 0.019492156036595203
697 0.0021823074792930498 0.00827226135923839 -0.0009004333752282599
691 -0.0019990768221296797 -0.007553421988994135 -0.013421907776413007
699 -0.008219025200313777 -0.00592390568272345 0.00473484645704276
700 0.03407783159582255 0.017116736629641922 -0.005135359024142418
689 -0.001050810818020962 0.010851664168634796 0.006431281057384293
690 0.007505461138567479 0.05561993292517343 -0.04412427616033448
3392 0.027228603193767607 -0.04321677368512277 -0.025266720597044386
937 0.0046434628027199115 0.0060469960830763225 0.0014649968645226595
935 0.0037684916801882995 -0.005359256172557835 0.00977679197983494
936 0.018678780729017908 -0.029559058909753914 -0.02145458249113981
938 -0.0236895052716598 -0.012194110910995077 0.041822692883238234
940 0.0072425922117934135 0.008093607892925523 -0.01650547546664184
2959 -0.0018227324537871926 -0.0009972454789161113 0.025537488655279657
2958 0.01015978790605211 0.0031410383315109047 0.008294203184055781
2960 0.0007945687890015069 0.017889447774227792 0.005290551166418959
939 0.007058811148149091 -0.011575371766152339 -0.004423909093942033
933 -0.008234044230742954 0.004037237072569491 -0.00793844741079636
934 0.02638664956966466 -0.01082081222992948 -0.012559982178350288
932 -0.002854583695198002 -0.0032502405466120245 0.007565444835484138
931 -0.00022009921587644977 -0.001988295811874891 -0.0055427126282643485
941 0.0044789329417620925 0.011494311165002465 0.0060873764140224225
2949 -0.0038482530577780044 0.0057448559958852025 0.001963499068752244
2948 -0.0027385584051863045 0.0028567167376896646 -0.016659369384090243
2950 -0.02155138603628423 0.011671962093130138 -0.009784789097621115
929 -0.0010313515158619094 0.006945259293282859 0.00897526743498075
942 -0.010204548021213377 0.008270125379177718 0.00519590041955245
943 -0.025702081318904037 -0.0183492108502417 0.01579799582594996
944 0.03835882495891971 -0.02515048343499466 0.010088113750134327
2952 -0.009987800868973351 -0.021816644431966844 0.020315017794846315
1565 0.0045053476347619486 0.004809248734590632 -0.009176059109439222
1556 0.0037305659643976324 0.007548362864091108 0.0037212354992307256
2680 0.019926001689078515 -0.005065502486781649 -0.031406464404739154
1568 -0.028119135957028283 -0.027046076258321675 0.0031032738442444536
1567 0.0023779227270457454 -0.020038082073722766 -0.02624113874695777
128 -0.0025067102352877312 -0.003474024265411336 0.007735741687620869
122 0.006029471124042714 0.0019249160365253336 -0.003203080061433383
1566 0.0013437933928907803 0.0031602567825411557 -0.005592477668006916
2682 -0.011072006270099636 0.011246045306493991 0.032858275653822905
125 0.0015259443443021586 0.0034125197474111813 -0.0076303770324172146
124 -0.0038688920725223975 0.0047428089048580915 -0.0013523926039646689
123 -0.0049185241323593636 -0.0004703595393560292 -0.000365229025072728
126 0.007820709388817515 -0.0011003332902942292 -0.008155219422067253
118 -0.002245742243422433 -0.011671363060528628 0.001654508149582564
127 0.008040499549858672 0.0033656471137658997 0.010341782415496527
120 -0.0026797793878714504 -0.0030781792747299635 6.576176340201684e-05
121 0.006844449005685409 -0.0005947643729237579 0.006016320548674022
119 0.0011794640814570866 -0.0008384974795493063 0.007685227697992302
117 -0.0025546815327990593 -0.004237448534864314 -0.006343055009501068
192 0.003773752702083432 -0.009571528467681173 0.0033817568869547103
190 0.000668071574766346 -0.0034481314254901363 0.005517825615555089
191 0.0037140668142342736 0.0026250467519991177 -0.003636680792073518
189 0.005288703254499186 -0.00959288880449922 0.0026049361743803435
188 -0.0062428079303226 -0.0071408207071993 0.005623148285868871
187 0.0012155094587547816 -0.0050829468084380835 -0.006339313333006236
113 -0.0046405711468001 -0.005078201517415654 0.000758616605930544
108 -0.0022750826152479493 -0.007851880327302952 -0.012182725968665282
177 0.008277758053849666 -0.01193298033974597 -0.0022928239043537983
930 0.03327619507578404 0.00097678758379421 0.014659678218385477
1076 0.002503610717516784 -0.007099581463125614 0.0017239476955776098
64 -0.00020970685291978145 -0.00032389023130368613 -0.003001315154145971
186 -0.003123227647166572 -0.002929007225772064 0.0013360774866127165
1074 -0.014954871248140359 -0.024674528001272428 -0.02356754486336777
57 -0.0037179568403718976 0.007489455923207543 0.00912176170246987
55 -0.008265188048061131 0.011782953323845019 -0.00170513994150345
53 0.0020527430294774887 -0.0035689957696579725 0.004937107469094518
58 -0.0026175941822115323 -0.0035971307644469723 0.006843086292004932
54 0.0018898359028525409 -0.003457079213116509 0.00028651236648860205
56 -0.0031202138194468864 -0.00974669543401032 -0.0034612525961544792
61 -0.004988168768517788 -0.006171629617503434 -0.0040801679853400665
60 -0.0017834155335792793 0.007791603858775901 0.006918717681807856
59 -0.004515725243287449 0.0021217177766000637 -0.0010836409491094023
183 -0.0028549278886967366 0.0026461643334707236 -0.002051673009788373
185 -0.003181292847548122 0.001091816223115925 0.003536192157147488
62 0.00431041414172585 0.0025445170001261825 -0.009960850527359108
181 0.003954361659743452 0.003379185969183322 0.005000129257639068
182 0.0023589425222548914 -0.007028681190072265 -0.007851500749018579
63 -0.005682571848154578 -0.00412096723511599 -0.0027098824730433136
184 -0.005196793142977504 0.00318222980474169 0.0022400942212710503
1085 -0.010882521496076542 -0.04556616803491536 -0.0020775526047734044
44 0.004638156911874449 -0.0019290877882420904 0.006191455997395328
172 0.00020793521526308825 -0.003854477989071008 0.003954590345102236
49 0.0023258769890420823 -0.005308931425061085 0.005337227376201389
116 -0.0009634599146600803 0.00034176237666829883 0.0024006365713579135
111 0.005158549618262264 -0.0026316814580751467 0.0026210479788253897
180 0.0021054485277066316 -0.003347504146692994 0.004448204928995655
2734 0.004357854665273881 0.000556800336936051 0.006428109034079317
2736 -0.003287940302443307 -0.013150245507930616 -0.019672142191983506
2138 0.005292625934914672 0.0286256518572465 -0.0034018080215011764
2139 -0.0019177686449960401 -0.005470785261245314 0.00015445145489804008
2140 -0.013728768447013364 -0.00569897909976376 0.01337104715980637
2735 -0.002033276991412933 0.04239803919503109 0.006652694988862675
114 0.003165486799212435 -0.0024229328721928583 0.0031278220347044057
115 -0.00041780571934644454 -0.002195279036165626 -0.014986662023028872
110 -0.001738569755982715 0.0014337378202407462 0.00849358175221216
109 -0.001742807336222117 -0.008266974900989543 0.00843750570452474
179 0.004733181192357074 -0.005241403681858266 0.0009892819200478823
178 0.0003700072548369628 -0.0019285644053422452 -0.0011245267866886962
2129 -0.007364886279735951 0.002650080381462572 -0.0005207189790061254
3215 -0.009175740797953262 -0.032296505223024075 0.028416169378147796
3216 -0.007258170748803526 -0.022511480076765317 0.0004966529210811238
3214 -0.004735644784077416 -0.006713809162485583 -0.005523201096837799
2724 0.0050603685325667095 -0.007962015154575166 -0.004239723717332187
3202 0.03045843461777943 0.033130242555848025 0.023776903228640196
2722 0.024069127590806122 -0.04092230029613022 -0.027476514028613584
2130 -0.00038821130607298777 -0.016239826610228457 -0.011647067020324415
2721 -0.005441589669172086 -0.005660977963705826 -0.0016232539121792961
2723 0.002746032776842529 0.0015609117750937786 -0.0029680654028351847
2726 0.017096653421204307 -0.008113858295064039 -0.002019241595581064
47 -0.005187293048218162 0.00467677606069832 0.009312949157629594
2732 -0.04207113091536947 -0.05459844824745357 -0.005846928337370895
2730 -0.031114314455411435 -0.017026018055153296 -0.0074469839567596575
2729 -0.005071202081754432 0.0008987125959304804 0.0014984835817729613
52 -0.005630775107957492 -0.002285937547455973 0.001563960317999421
175 0.004256526159715375 0.0007519270584411373 -0.000947842661842836
2731 -0.0019553711357744607 0.0003467275814042114 0.0029159325770583455
2727 0.002888563731805149 0.00902249092639891 -0.011018919160188892
2725 -0.013087151508246074 0.00410535304742648 0.011612344565450475
2728 -0.022510348003398527 -0.008013304600451932 0.00531989646577386
45 0.0049375306394292195 0.00921023488140636 0.0017189238814871938
46 -0.0015158722960112903 -0.0010970586375075922 -0.00644724722125498
50 -0.003775628083861612 -0.0041992093413966425 0.0017456344357296913
174 0.007980486205536867 -0.007645431497375488 -0.002462253819871905
51 -0.005285168828081433 0.007060308234822274 0.00031103524529579044
173 -0.00705044176472295 0.004077894017956141 0.0002813916853504468
800 0.008804240497169522 -0.02589815013838028 0.0007494350061717568
786 0.03797449588768497 -0.001719866021176389 -0.039542519858540424
785 0.0029002152525811125 0.0038225303343787076 -0.0022272869938054665
2265 0.0034352819179148783 0.0003110859303712785 -0.006573228248355857
2266 -0.001245174757208444 -0.029640731297359207 -0.016505770068300164
3213 0.05959759452939259 0.019498182750561664 0.005723377097708449
2263 0.0023599384165163603 0.008329060899553311 -0.008776337408638313
2264 0.006459189387130287 0.0048238663332133185 0.021778452381362758
3203 -0.008311865934425646 -0.008368557443469813 -0.0011906533195784055
3204 0.00929840782147123 -0.0032992475489362007 0.0033510317502057573
2261 0.004905479192172045 -0.0040231040051050245 0.0012364027155170188
2262 0.003964411736918017 0.04379639519180949 0.01287389502165288
1021 -0.016194171230449046 0.007471361679715136 -0.005275100240280813
2866 0.0058632660013026704 0.0047361286968820235 0.0035101637680060084
3206 0.01643886495869443 -0.008001904429232237 0.01261091142076848
799 0.0027901977388321347 -0.0027379912725967693 0.009399196410294651
954 0.010907664718230362 -0.007440285176542874 -0.000361348014493641
956 0.006056776613911 -0.023570373199850704 -0.02532093708842381
2879 0.01086107310749051 0.00019231145897079767 -0.007045448859833475
2878 0.0036504776678420044 0.005338099482682186 0.0007261715024253617
797 0.0071580494086229745 -0.0031066525482523165 -0.013936380634683405
788 0.002769628315239681 -0.0023744755854263767 0.0074929785420011314
798 0.0017736909250190983 0.005064789365556925 0.005897572205403612
2733 -0.004596357359057606 -0.001733853908721191 -0.04260717543015619
2876 0.031372600161046496 0.0228382835277723 -0.03523987657356098
2875 0.0028989495593917045 0.004268248370891368 -0.0039945924259382135
2873 0.005154454647332676 0.0032193272909137715 0.0022716095071812744
2865 -0.0014622170014132157 0.01097260288407276 0.01285680015454081
2869 -0.0004719731176909128 -0.003000076657937292 0.007323133761611832
2867 0.003398114657674249 -0.0011962621883590092 -0.006630302672237503
2870 0.018241806167966522 0.008462935858466521 -0.03234087951213056
2874 0.005926622495281453 -0.007865651951374345 0.001860094665989045
2871 0.008544809947143 0.0032585138204926697 0.007761846121216394
2872 -0.017904979478871468 -0.009393392933976624 -0.04682841748540569
2868 0.0043336693742038815 0.0007562995952351626 -0.0049033081778728695
2877 -0.00905317906280637 0.03975579267758621 0.044905291964320124
789 -0.0052229576659028575 -0.005388387142887764 0.0026886621663438745
790 0.029536248979019426 0.036239437921541634 -0.005581944562600541
787 -0.0045209976345574766 0.005390125706567529 -0.0020537195422376925
3122 -0.002286210346081907 0.00958381980803739 0.026182103128786494
648 -0.0030160147241521692 0.003664658951737848 -0.009116396198737007
952 -0.001364707872859554 0.022801993354292973 -0.0019052621126677076
2390 -0.0032249188287361507 0.039911622443486346 0.01618777976200566
2399 -0.0017920657311704283 -0.02335522413851803 0.01214697412372054
2389 0.003989604776401914 0.0023791425342341676 -0.0056159529681915205
2391 -0.002192008294107241 0.005478061494571149 -0.006522430397749559
2396 -0.019746313465502006 -0.013466160708524312 -0.040184702932026535
2395 0.006865772141996719 -0.007470451513441315 -0.005178172886042967
2398 -0.008238452001808087 0.0036613071097896938 -0.0030751322168504863
2397 0.01839102883964173 -0.023963189425014138 -0.03213127910752998
2388 0.0019058166641296422 0.003935022970506858 0.004609935483363402
2400 0.00713040854904418 0.006833643471535593 -0.006699142293311497
2385 0.00011674900821615752 0.0019199614275934819 0.0053771377353785095
2387 -0.0026037640349553756 -0.00029890575886632966 -5.6862300518744945e-05
2386 -0.007574319138459216 0.010586864245167816 0.0029441414633671124
955 0.0008735289085901296 -0.0037774795653963454 0.00478879408112392
953 -0.011994811632437406 -0.004926569316939169 0.0055384905341585855
951 -0.0008404583325405834 -0.004072769448251289 0.007311013557193575
945 -0.0030051525807495215 0.0012726745453869722 -0.005485178273885567
2392 -0.0036765243382974808 0.024456346028756962 0.0059306443570569045
2393 0.0022425552671129357 0.00480619950049625 0.013133881788384111
2394 0.03758997543620292 -0.025396464898423943 0.01429981108449512
3354 0.007507029170740457 -0.00819218126877833 0.009433777591874803
3353 0.005283307824799271 0.0013468587705060735 -0.011473824922705149
3352 -0.0002970148695864139 0.027460211852910213 0.020026210549369726
3351 -0.0003937863840700797 0.004150348073238097 -0.00530580426721853
1297 0.003621789070642653 0.013065932221059067 -0.0049394164628845634
1305 -0.0024886853562175377 0.009457226676290583 -0.0014555217488495856
1307 0.0060011352326204085 -0.004246047172346644 0.00015248776107538742
1308 0.030960069781036163 -0.007168463976704919 0.0028348474587270287
3336 -0.02318451254698963 -0.002075719728474944 0.022263130492100106
3338 -0.014007862033595313 -0.004492526297179196 0.007443449699681994
2941 -0.008072099601142208 0.021146843215384223 0.008214312423776324
1298 0.02082256338809629 -0.03929556171196404 0.02155627201287761
1306 -0.030387914644874787 0.031783358279031865 -0.016729794692725165
2880 0.023088161265503192 -0.0034930945534048206 -0.005100676225683591
2943 -0.010014588997288305 -0.021411627651973266 -0.006005144616425115
2944 -0.015191330609617358 0.03763281333454453 0.005980913236393217
2942 0.0008904749697456537 -0.006801363564778096 0.004336755744253847
2932 -0.0016191301762579198 -0.0061124541639897756 -0.002551714253342267
3132 0.03087232466622482 0.01089795665400254 -0.030204154492304614
3356 0.022070517355030333 0.010202161924686513 -0.0038113481525508986
3355 0.006191540101494784 -0.009875166123289255 -0.0006119744814376657
3121 0.0008577912731216211 0.00011866254290768065 0.0031576354714139446
3131 -0.0005380055546269028 -0.005107673865774964 -0.006512625700398787
3130 -0.009420640640430605 0.018944557138911494 -0.02993290036042386
3080 -0.00434222398178903 -0.012130606967264167 0.028634952941328694
616 -0.012604482916293805 -0.024120158971451804 -0.004161958005798023
2282 -0.03523642039863599 0.02293127673793947 0.01544669221589421
850 0.0194870518158725 0.0021746646194052066 -0.022599135729574258
2278 -0.0053219473454353405 0.02730243775363416 0.035661654390811294
2280 0.005798664727845013 -0.02930809370536533 -0.009250323234010843
860 -0.0022392557381959114 -0.009501925655744045 -0.008873960443003573
859 0.0013665460858387477 -0.0018976311422091842 0.0035097830619463376
849 -0.005305745108489634 0.011297361841856325 0.005905646273625806
2275 -0.002354114449041205 0.0032339785766113626 -0.004617133559105395
2279 0.0032861135436359256 -0.004300558371580381 0.0055234926648503714
2277 -0.0016095139999222142 -0.0010188842234011904 -0.009046373767449475
2281 -0.0019028740347737175 0.008056370871859467 -0.003417330267828771
2285 0.03515671142893672 0.043460874008542955 -0.013885577255595303
2288 -0.022612319848607804 0.006396954188288798 0.03609575081310658
2276 -0.009770510324215291 0.004132177191558308 0.0029107136182369465
2274 -0.022840164924496326 0.0140849328450411 0.008094649695117155
2273 0.011246949938669659 -0.003907969797812475 0.0005379389153014858
2284 0.001449355289661371 0.006979637446473409 -0.015300020755465433
2283 0.0023297746391280666 0.014420238733008985 0.0023086131297614452
852 0.004032987585527513 0.007370815266426282 -0.0065731839985077424
861 -0.0018398153228459805 -0.04484043656579605 0.018342065158957418
2930 0.008791651688973185 -0.0033792343516881322 0.04111079974380276
2940 -0.026848607110517283 -0.000967423386119921 0.0073068906815852925
2623 -0.04019190097142625 -0.012032985118926113 -0.016744099075379534
2934 -0.01853977710200254 -0.013418087939471284 0.07001737134147085
857 -0.008455249440710409 -0.006417632872368497 0.006351273735182504
858 -0.026214207035565287 -0.02017278214063097 0.004133692287669113
856 0.018376788561571267 -0.012350753679511462 -0.008722196527114066
855 0.0011590707167463059 -0.011174963045094962 -0.001042457420576485
853 0.003012732833354034 -0.004065315992843782 6.124960817809268e-06
851 0.005944462666728146 -0.0022849083207162253 -0.002175120582737195
2936 0.013462206504786254 0.013428697795132189 -0.00865080295047645
2931 -0.00489463593175104 0.006413868295188897 1.0278658820240806e-05
2933 -0.0027635588023451523 -0.0017860244729334719 -0.0014552630517523223
854 -0.019484182498095654 -0.018714720287855636 -0.029674669937469082
2929 0.0009596451591445297 0.0007401373690510573 0.004827793471617255
2935 -0.002164314753621096 -0.0054019861723492765 -0.003740259202293578
2939 0.0020895767199662 -0.0005262104862657945 -0.010234769815462402
2937 -0.006584727371216591 -0.006590831781145729 -0.0031522532718846166
2938 -0.006118049786545308 0.018264302124233682 -0.004176222691153781
2424 0.012918664295447064 -0.014421555274331074 0.010778845904906468
902 0.010160936867098415 -0.009241683907882612 -0.016042635360052206
901 -0.009308783203597768 0.005802621782225785 -0.0013174422301358406
903 -0.003669130983618445 0.003662836057619296 0.00424721243347531
900 -0.0025947952497716487 0.006523581865647387 0.008028672937286626
899 0.010372316050180895 0.001068044361294473 0.0035508723165741177
905 -0.0035774135501385677 0.003027482486014658 0.003974428419141109
897 -0.005670961616739165 -0.008312805021386272 -0.007985148876885588
907 0.003675840561886448 -0.004057935193984119 0.005267247217084496
1007 0.02644148075578765 -0.003591099429630603 -0.015972537224451147
909 0.027363061692844522 -0.00392653338356668 -0.019812931113483118
898 -0.019652082184677885 0.03181809128001524 0.024004011466806113
910 0.004941480960753196 -0.007228681085658091 0.002364461666915217
912 -0.03267860860735746 -0.05611133047504472 0.003922207307433128
2246 0.04911876141923753 -0.007694777810922597 0.013649579143932427
525 0.037832383132506954 -0.003515862268115332 -0.04370348795386624
911 0.0055396497480177725 0.002320473709741778 -0.031905943075629335
516 -0.007264697446778249 0.011942424292585007 -0.006286468356277202
2420 0.007663248246012093 0.0040366934273796794 0.0021729817887831183
2419 -0.0033662867822599166 -0.0022444074067965464 0.008189121735230962
2421 0.0039257980375211774 0.009637209840160867 4.967430422892727e-05
1008 0.02772247114380332 -0.009627769535150278 -0.0031152496813600375
2245 -0.00196478693922645 0.004706356248562023 0.002495170127593269
2429 0.03203047718466768 -0.022371762459207117 0.030796825366914977
2417 0.007724229572648178 0.00011296157581790183 -0.007185624246653739
2427 0.0009265026589231902 0.006242732113489194 -0.0052570580912973675
2418 -0.008732747003518549 -0.007971178532164974 -0.024759217200647075
2425 -0.002058008809109812 0.009286858012536425 0.008013881400379327
2423 0.0020767946854410575 -0.00565910446622756 -0.00010690352031450939
2428 0.0038414733926826813 -0.012556912810300153 -0.04701382938894673
2426 0.011951365344633279 -0.0009668744799693085 -0.0416505165809899
515 -0.01877811665707189 -0.010267539957148387 0.005985879555276041
2247 6.429239316879316e-05 0.006954409854822125 -0.00025892415818492794
2248 -0.005862363592221964 -0.03899710738889282 -0.005272797195607541
517 -0.006906521657479353 0.006054773616435412 0.0016741057064554692
518 0.019802729615122253 -0.001269955604184634 -0.030281806702822565
2250 -0.00883953385386979 -0.020248423963818672 -0.027037181760107044
2249 0.0026236202670818273 0.0019523709692642385 -0.0037926293404819613
2474 0.023162716357886644 -0.0035293428186708277 -0.04529876173204232
908 0.029479033041613756 -0.0044414843920898015 0.014270665438418583
906 -0.023163644238086326 -0.0163068208106924 0.015872560568987153
490 -0.00993865650622758 -0.01249395824901682 0.009215268079562506
489 0.008296274058093368 -0.002133607717385028 0.0012071506207495203
491 0.009962330164618727 0.0032069034758180266 -0.0019211678985461748
492 0.016312153956347532 -0.007395005603989566 -0.037781840214847456
3155 0.006803134786190137 -0.00216898687329746 -0.005235788298345575
3153 -0.003046640264476554 0.001936013178031448 0.005218418367950811
3157 -0.003557533930918787 0.0005371733617727006 -0.0017317565215216066
481 -0.005012701518064848 -0.003927102676374575 0.007091876987780149
3154 0.01497839899942072 -0.024006847738073038 0.0032888977369285918
482 0.0032210658525675256 0.01716063058640927 -0.005833772644978139
3163 -0.008164171173324417 -0.0024950446880391782 -0.002858594445011204
3161 -0.0038895771793036635 -0.0027765403211700576 -0.0037134443952686457
3162 -0.021595690401381425 -0.04116191853176092 -0.010933737272138882
3164 0.01609124737550344 -0.008049431999646927 0.010004859283016814
487 -0.007760431615232547 -0.003746506127373024 0.007200710337131621
488 0.00024367154478915128 -0.009463702868007058 -0.0035735871625512923
485 -0.0069098526727967334 -4.5219864209179854e-05 -0.005431143663521572
3167 -0.027944590681468068 -0.0062222880199568325 0.02936824706865045
3166 -0.014013476811302257 -0.01232248702248011 0.0022595198697712804
3156 0.0030205744309351567 -6.870489693423013e-05 0.00012229826367519625
3168 0.013878194831534523 0.0001428673663693064 -0.017212603279650237
3165 -0.037450707248691636 -0.015499333000358505 -0.004414791410801249
486 -0.006444719157792811 0.017643967109429493 -0.05461685574797707
483 -0.0002700775960710388 -0.00015580888083660942 0.006654811230942689
2480 0.014861096477946608 0.01241898663722862 -0.01890100773454416
2092 -0.03701510216107697 -0.005515082514487646 -0.010720713366183245
2091 -0.00628057277712049 0.009164381229872834 -0.0012519103303844541
2082 0.011891261978138291 -0.016273185945615724 -0.03744038426521178
2090 -0.016212466158078993 -0.023395434505720018 0.01697281062184667
2089 -0.006973235172399199 -0.0013331259938246319 -0.0013013995376514095
2081 -0.008398788286923461 0.004224396033106219 0.006654138687822021
2087 -0.004824639243471644 0.013556860011044182 -0.007025978855472843
2703 0.01064966701272359 0.004192960049018204 -0.018029216124238367
1890 -0.02815962952755248 -0.02831850572655935 0.010179716103823944
1889 0.00225208170131904 -0.0027784821792322134 -0.012331056186225995
1893 -0.018457653126074215 0.014326324206893363 0.003264545535525388
1894 0.023986190789282682 0.01820641046165887 0.005342993951850102
1891 -0.0020605091820960673 -0.0028714859225710807 -0.009523343504841776
1899 0.0036244496732956107 0.00034049632177147164 -0.00789184340147213
432 -0.007549065836895031 -0.02418318367231371 0.017415330268281036
1849 -0.0016979487783512226 -0.0003410787018766973 0.001319921527942658
1847 -0.011922165546847583 0.008079558140945967 -0.004247163164754838
1848 -0.006023067646597835 0.017767599519929858 0.029020907404760942
1896 -0.0034504775108715126 0.025224394006478704 -0.014426645650532434
1895 -0.00596051132273381 -0.0018809218270438442 -0.008381205566225234
1897 -0.007535540534352157 0.007481983644034549 -0.0012848586344755518
1850 0.0019427719760371116 0.021679895482469923 -0.069170918164518
431 0.0022146743282266458 0.009325953720667038 0.008219886301069462
430 0.006260737472042548 -0.0010768409793285832 0.0053911514439914454
1631 -0.02139657976189918 -0.011764903435638768 -0.004360356334666825
3187 -0.0021233208339747835 -0.005835731416819485 0.00986287983798927
3190 -0.002573462514540937 -0.009707082879007983 0.022098232371995288
495 0.008059891347036914 0.005588364341186491 -0.04115202444563093
1855 0.04895409699864776 -0.019898664385769985 0.001321824119632335
493 0.030165882215490703 0.013910572326788342 -0.008307540884316525
496 -0.015722100160795248 -0.03958097066448173 0.02547223846429643
484 -0.005663843948109279 -0.0027887806620771356 -0.00260610367408833
494 -0.004996038614439981 -0.00402041208004409 -0.010174611039445494
417 0.001356897375264497 0.0014371074830483031 0.0034604386744164187
427 -0.0029254506215105978 0.00809763221048699 -0.005161248912171061
428 -0.007162581329248606 -0.02269964751185805 0.014502571061325423
2946 -0.04383751985136855 0.034135668822164164 0.033300020071842684
1844 0.005038761461486095 0.004072670893538226 0.004138421765901479
1843 0.0072829730982242845 -0.007230504448830522 -0.004872327776841514
3197 0.0007836452133687322 -0.004845316501801472 0.004273937857785464
1853 -0.0025978529819620554 -0.02018742928180018 -0.00041841906451322745
1854 -0.001425962162444739 -0.0015880642624748731 0.0068568820705269115
1845 0.0032171241814735545 0.0012871607306739164 -0.0003666928210891736
1846 0.004692943839410502 0.03019441934170872 -0.029273774140124054
2945 -0.003548698898843442 0.003964325499585559 -0.0029090209791956916
2955 0.004326398332579141 -0.007900633096317205 0.004251417206850006
2956 -0.013065629848922379 0.001573532449734097 -0.013395796321632404
419 -0.008272035930329137 0.005424603875456876 -0.009727014516432275
418 -0.010484648579260722 -0.011055995266983904 -0.0036848989699143557
3188 0.004339106121750675 0.005470028165008885 0.009572648329896393
698 -0.003509749825852092 0.02720737723482577 0.014853106941887587
1900 -0.03653659285893289 -0.011467844339693037 0.025365681422347762
101 -0.00879524349379037 0.0014130625183112228 -0.0037858479957926135
105 0.007028086113794867 -0.0012411125950273008 -0.0017251462114525394
98 -0.0011725846911613202 0.002759159902584636 0.005164822523014063
95 0.0012008612106647809 -0.0038305505719998098 0.006306429362712609
169 0.005917547998549514 -0.008172409711969076 0.003887656889059073
165 -0.003241898641503881 -0.0029328686142439777 0.0003987325750214505
1898 -0.013408336208015278 -0.002379876003873912 0.0036167341306817106
102 0.009411528597779634 -0.004693490023990947 0.0008257639559569234
104 0.0019424805751835524 0.005625543458746984 -0.0028532808756502877
97 0.002573540707356108 0.0033623934976259534 -0.0013585946353389397
96 0.0001348060454407418 -0.006697839421258766 0.001712902639597594
103 -0.006737242657052042 0.008319719320364252 -0.0020719333554256357
106 -0.00531604117379963 -0.00589219146372284 -0.001850315736561841
100 0.00035663420495826655 0.011368950186942799 0.004317887203767926
99 0.0024563330043987693 0.004530936960426547 0.0012054871139393151
168 0.0011403860198830995 -0.005231522164456774 0.0026895284268659966
170 0.0043361229477366795 -0.004616192931674306 -0.005008502114631045
166 0.004167389078086684 -0.007225193432131705 -0.007446995768127526
167 0.002352551943168791 -0.0027095747833989067 0.006112295387031892
3189 0.0015387216036447345 0.0022293482405968293 -0.0014672763603093848
3192 0.047597687598242594 -0.0003772023318829116 0.05111895509472986
2947 -0.002928379218244395 -0.0033876946637897026 -0.003082227704212976
2951 -0.0016819604784912739 0.002179573965719262 0.012374243190003542
425 0.002486057976277586 0.00029345213276839007 -0.0028991128780394685
426 0.022765986349805065 0.013582005352199217 -0.006003348481884081
3198 0.003464042063332881 0.003094683675985957 0.005629587916639689
3199 -0.001561858291998079 0.0036050347993246924 -0.00473299146674013
31 -0.002910688972254194 -0.0021826198099818973 0.0005984802588141132
34 0.002723245510026285 -0.0027034807411042286 -0.002348391396160979
37 0.002268074761470594 -0.011176601373711782 0.002125566379391877
41 0.004419524353035981 -0.0006817425708353921 -0.0010446926961486843
159 0.0021884773822378753 0.004958442153602274 -0.0017922625223646773
162 0.0011514101007994073 0.00680576088289387 0.0031652341136598015
2953 -0.005061980105234814 -0.013803562048633903 0.0011034526602783077
2954 0.008025823040562485 0.031325058050325275 -0.002496273657419267
32 -0.00020990128274214317 -0.0010006624881987694 -0.004541982985619865
35 -0.002530166976509936 0.003248838817636562 0.004138381186879173
33 0.002182701879991787 -0.009168966368970678 -0.00499656503472436
36 0.0022245345703133298 0.004760937740091485 -0.001957201502971783
38 -0.0075549317028427865 -0.0017534897108372426 0.0025376038564451603
160 -0.001171922998152468 0.00242662805293409 -0.006685184252929558
40 0.003802670686906703 0.0001845793994298999 -0.0017230259080479962
161 -0.0017777446359737903 -0.0036042994675379975 0.007712240935947998
39 -0.005094003300814205 -0.001981343097832967 -0.00225550812324542
42 -0.003992376936810167 0.004557051737141797 0.004925892155347023
163 0.0038681737616739075 -0.00762356864866467 -0.0018007278481989369
164 0.001431237668372857 -0.008487067764718874 0.002609255295794914
112 0.005216866531842951 0.003492106627798258 -0.004943623088974296
107 0.0016551795315403511 0.0001603790196793406 0.006061605047658006
92 -0.002367653455949991 0.008051170802471728 0.016553177774776964
94 0.006623479545359068 -0.007938334781067981 0.0027411191446170564
90 0.0009207382682882351 -0.0037811991430112993 -0.0017911309571377486
87 -0.011385246861667687 0.007288070828806104 -0.004290384725636727
85 0.0012379559250312506 -0.0019206101361603028 -0.007189051329248733
84 -0.00920098932734244 0.007375609053861593 0.00021957275840271256
156 0.000212051175036401 0.009264472613599958 -0.008318430207099319
158 -0.007439844654708883 0.002438846921946197 0.0016906914324017611
176 -0.0017337901056467652 0.000592100162274968 0.0012858492802055776
154 -0.005496306196370198 -0.0013867181791545789 -0.006667058748134293
86 0.0038821326407747657 -0.0047036951246456305 0.0005986495974852557
93 -0.006959391116113716 -0.002001273982609264 -0.004969635376521145
88 -0.0021614294075900297 -0.011674752339271824 0.012299515485447903
81 -0.002642512145248718 0.0028073415332491936 -0.002720131231683341
2053 0.002118265113569872 -0.00459581157395093 -0.00601097689833225
157 -0.007617319816924787 -0.001928351100198934 -0.006722308316887899
152 0.010375654371349099 0.004261649094465696 -0.005218114515951366
2054 -0.02795960466374787 -0.014604428694675996 0.006772222086691042
2055 0.004043276060424864 -0.002735625407207099 0.012978413095390875
3210 0.005557766868927045 0.0259186344122102 -0.0015886551417642308
2057 -0.00271167124901664 -0.0015877581325753917 -0.001540395149134134
2059 0.004792113969157786 0.0083143222917104 -0.00508870462676704
2060 0.008024231011348477 -0.00311139180655706 0.036337709017466455
2049 0.0013175201683220496 0.0025475118742827006 -0.002187970231331908
2051 -0.005331713374437704 0.0003880691518930584 -0.000293825410893506
2061 0.03166624571323365 -0.012219637017567245 0.006206523525578761
2052 -0.0026441683767894574 0.012396306200411574 -0.0011925095702651207
2062 -0.0010959443472641818 0.0031655065112782166 0.013381339038334232
2050 0.012654766265321835 -0.034820759037516816 -0.012304032724722993
3212 0.0023442895700559016 0.011760953334380916 0.008227141469946209
796 0.013975363806638543 0.002337684770881266 -0.037872083990113756
43 -0.004990133697043166 -0.0107680254183972 0.003350929922188768
20 0.005015867935577113 -0.0009024729448590463 -0.004829804951179732
23 0.0037816615881956367 0.002948745537348033 0.0029466478509142277
21 -0.006368142724160022 -0.002681585692252163 0.002552101686561998
48 -0.00792142013100011 0.0032535487384971833 0.0007337466059749829
171 0.005508628858896907 0.0004317976004548639 -0.004412190423040793
26 0.005118545826580802 0.00015149208781248453 0.005132876515035027
28 0.009607118022758888 -0.005846986172032642 -0.002171279679542422
30 0.0031494105540181513 0.006942795000334319 0.0027071244773987525
151 0.003797667121487929 -0.001347429252794376 -0.00494741925780621
148 0.0045008032233343235 0.0019620532399020995 0.008220704044773385
149 -0.0004629783715328814 0.0005410529833963718 0.007059202290717736
17 -0.0007677862206000382 0.001338952226054525 0.0036799707214483913
22 -0.006654635820682359 -0.004739259118848748 0.003952176873620124
24 -0.0001013919633040559 0.0050335354114115875 0.006950956642543205
29 0.005575721629555511 -0.007445261844365685 -0.00609092504512418
150 -2.939743400339137e-05 -0.0060824114653403386 0.00894721510895726
145 0.00409537154505757 0.0005232265499565745 -0.002923108192339923
3201 0.004108532138914778 0.012050187100131678 -0.01475531633948107
3211 0.00040144644450089076 -0.0055021418007035845 -0.007867962752049975
2766 -0.005052994361000283 -0.001114018848395005 -0.005976506965007294
2756 -0.0016784360089928244 -0.00226890410642257 -0.008857751479118528
553 0.008795884363035883 0.004325360700877053 -0.011787655498364726
554 0.025448165175070522 -0.00601869732403922 -0.02163783691957781
2767 0.013219326804222123 -0.013947428682373078 0.01866620382608747
3205 0.007168665006667034 -0.003784895398514385 -0.0031255275655248747
2056 -0.009951520814740066 -0.01755445789755821 0.002101574089856735
3207 -0.00885228588003386 -0.01013242437625639 0.012382358128607787
3208 0.022282545692429195 0.016936562886226043 0.03338515159715529
2058 0.007932946120991446 0.02317694500885173 0.037512490014031896
3209 0.003534326060475908 0.004462222636184144 0.0038272978862617375
287 0.0030582267157042288 0.002812274318004269 0.01313700549749617
288 -0.028544624020532497 -0.01670503426436761 -0.013608766569416031
286 -0.001982905694145411 -0.004667496763849433 -0.003011401801979783
3135 -0.004311233789288456 -0.023165802445629977 -0.02165352519324888
2455 0.0007285379168442575 0.003965073176990548 -0.0006131920572565004
2456 0.009939512372620038 0.018634226569056098 -0.012591729856545662
278 -0.031325926713007074 0.02353837081391368 0.0117265552012117
2457 0.006812509177456818 -0.008120326411663296 0.00599705894477143
2458 0.0022018718966551136 -0.02791235575783944 0.003083961976576282
2064 -0.021213874012388837 0.004199630655685238 0.045592189237788745
2454 0.05016713266764069 -0.0016972623890958811 -0.004354972643312708
2453 0.00033590648949574734 -0.005369971844199951 0.0010451917973366854
794 -0.010316112300602608 -0.0002782361838125542 -0.014100855357627862
792 -0.06134235278747004 0.021551753112085438 -0.01809795845247839
793 0.01637716954971639 -0.006890792484229723 0.013107075512551171
791 -0.00398081275311657 -0.008893942785947491 0.012300914092249652
795 0.0052114022852962575 -0.007201900394009351 0.003436129041714559
3133 0.0027803947138583937 -0.008101722089463328 -0.03183019934514522
276 0.0004806248336185395 -0.008228330679141183 0.001298234904585361
285 0.016372359434388792 0.01417511301885236 -0.011024052965412399
2860 -0.017854504695574355 0.027065250222246023 0.02500069782177305
546 -0.013635651575230048 0.039725569106853265 -0.02475437872613536
3124 0.017389606054246918 0.012547136199723821 -0.008362492342955628
3123 -0.002402636695386634 0.003903858269771335 0.009529400562146396
556 0.029903203039802238 -0.018686001977404585 0.008105256610878608
555 0.003803560337850096 0.009859020526286127 0.0015521546609928228
2851 -0.0038551535906025613 -0.010822812017161818 0.0018673262987957881
2849 -0.003306737023322808 -0.01208008257293468 -0.0007055482542574016
2850 0.027896856469743988 0.0024926557002497053 0.008414821205659503
2765 -0.0032106406572011918 0.00708069525517787 0.031698438349154284
2856 0.015279671720466034 0.015185768255365011 0.018851592235318532
2855 -0.0009615784582469882 0.0028891527960488114 0.013370798045969688
2857 0.003496565812814436 -0.0050859107184114205 -0.0075556751672620544
2858 -0.007010732716480329 -0.020607430572845697 -0.02699060559537566
2859 0.0037457224696100916 0.004971122688015158 -0.001227927218923682
545 -0.0037985606132472606 0.005390571831703817 -0.0038007206586435785
949 -0.0011979471822449249 -0.000968682316303203 0.002422521593031636
946 0.03584687292422137 -0.027595721547108848 -0.030220708437849124
947 0.00029294513558185593 0.0057741273721103594 0.0036934050262754994
3134 0.005471382135406476 0.0028677740458648397 -0.006086136984157468
3136 0.020500753118886987 -0.010118732932470993 -0.006738846203941402
960 -0.02077152188873706 0.0028167572156376844 -0.0206672109266499
958 0.00047967384321046457 -0.004858228314869036 -0.00025451313536466614
959 0.015854940133776342 -0.005259769995806233 0.02481570890925576
950 -0.025907531967749847 0.0026509487949881528 0.019261203704829203
948 0.002419348856259888 -0.00016030922026388073 -0.009460363430311003
957 -0.032622721251743265 -0.0025783131627241363 -0.01716823524411665
279 0.0016542999297019562 -0.008588461873342688 0.0025793333744580744
281 0.005847147474169741 0.0004136498651407451 0.006564754215407569
282 -0.00023305303680282462 0.029994764339193528 0.014570009716465777
277 0.002627392651669404 0.0035073864157054878 0.007699611493412697
275 0.0015893104266791987 -0.006763724692737946 0.000689481673349421
3349 -0.008249668775404935 -6.794738573491549e-05 -0.011426662205594082
2614 0.004278789051021729 -0.007439037805052726 -0.008956365424855471
3360 0.022703654618379213 -0.006099888968146358 0.01579985832874358
2621 0.013653729415192306 0.0036137269130251796 0.03269229333648362
2612 -0.003229392950340067 0.007232962696859439 0.005781700394194327
280 -0.057641315222986066 -0.006151743782827023 -8.46242363746324e-06
3126 0.005476380501668745 0.0005670160526353381 0.004866343140202406
3125 0.001183634705740202 0.007462682215686241 -0.0016629063882627857
274 -0.0205190298939623 -0.020883198194434235 0.009617291998195202
273 0.0008869862747891669 -0.0003321934835874355 -0.007209537834710399
3129 0.010647322115393511 0.0063220346458179085 0.0017858314160296464
3128 0.017031796337567164 0.017376059387107113 0.01071302821480958
3127 0.004346491892043006 -0.009569499039115654 0.001994342032987245
283 -0.002205559655282012 0.0013022726065611005 0.0013853609080762268
284 0.0025067149683709123 -0.034044210857646834 -0.007012888039257213
2074 -0.004158105894843421 -0.036605001409498475 -0.0016232184685469725
2073 0.003826761260926923 -0.009556309664133877 0.0016343540078798571
2072 -0.00830746835594572 -0.011205080020983882 0.012813041201304508
2071 -0.0007791376184977645 0.009116300911869043 0.004841511416203247
2069 0.002649350277550245 0.006345579001094167 0.0005105123951967944
2070 0.01738722679132396 -0.01336620144906428 -0.03836126457540011
3345 0.009972242086361547 0.0005772474472881354 0.005267719642327531
3346 0.05548220248813788 -0.0016833016670393364 -0.00831867708205592
3347 0.006667030840135745 -0.0002914364943592661 0.006882605624488857
2075 0.006264590121763103 0.008257371765796799 -0.009294645492197962
2076 -0.012690251341822207 -0.028339093317379313 0.00022425132938641204
2287 -0.040247520870776814 0.03122558326360432 -0.0006071547572257359
2286 0.0035844284231669227 -0.010878893753066414 0.004984890877664493
1535 -0.01811182567609061 -0.005721357331080866 -0.02354024831830667
1534 0.0025653529328095205 -0.007362082340129694 0.007116504388183187
1005 0.009285401251415784 0.010593821269435342 -0.0026942120787487697
3359 -0.01200400232271964 0.01858726778649519 0.00213676327562361
3358 0.0036468232116050464 0.002721824523832755 -4.90528953052382e-05
995 0.005120444120631555 0.010762756684389104 -0.006836642203903395
2624 0.028407854528162135 -0.0038058489654824988 0.012520963325542329
2615 0.0007272533199207394 -0.0002393925667436979 -0.00782540797062524
2616 0.02426290898628214 -0.007145174210905329 0.013742356602771701
2617 0.004016827553400313 -0.0013478178864228221 -0.0008963664229725084
997 0.003373310949047792 0.006496399531897487 -0.0033422793137974863
998 0.016959495505785096 -0.0209357655249313 -0.022634597341014993
1000 -0.011620166132652005 0.00439673011968044 -0.011691710781836213
999 -0.004032953091370381 0.011857964026473747 -0.001212329903882263
3350 -0.011764822767146361 0.01440643245999581 -0.027787206870949804
2613 8.945194031360688e-05 -0.0061836942638085375 -0.005317504672798192
2619 -0.007360123147617215 0.0008433906703530852 0.0044955184744641255
2622 -0.004248088580136994 -0.007998985437050413 0.0075575307973409995
2620 0.005085348672715811 0.04902315034679911 0.03204371898449794
2611 -0.0076029691131100285 0.00593869049820453 -0.010027865903656756
2610 -0.0012437031577938972 0.0013759123205479588 -0.0026457995488698392
2609 -0.006062493336087453 0.0002554636525020777 -0.005113554678466167
1536 0.023804779240134 -0.025333230010863503 -0.024815329923630322
1533 0.0006469829898046027 -0.015026261220620616 0.01750811544233604
1524 -0.010718532622015197 -0.015128449327864935 -0.0013619938409689413
996 0.0002969089697884607 0.003659480778686294 0.006010358656580038
1006 0.0002103994239325295 0.0070024061501970805 -0.0008624434734957813
994 -0.014555199159800523 0.03171801824211359 -0.02386635394735151
1522 0.04064004304818916 0.00457012387763418 -0.010753389941425561
1521 -0.0010129004096523348 0.007808771666100121 0.005860733552255417
1532 0.04071098035029108 0.006238020389161105 0.004772238361085914
1531 -0.006027185638654258 0.00034185454531261803 0.0013301004861030195
3348 0.01349036992458267 -0.0038209969820604123 0.011234205091662765
3357 0.012903040059794693 0.009917460901397186 0.009059644738388729
1679 -0.012216804141014379 -0.08297352235480958 -0.01660228301447675
993 -0.00570264368575549 -0.0016411344129257934 -0.0007592397186247194
1523 0.001637231608633759 -0.0024417229229282936 0.006157148953899225
1526 0.015822670796388872 -0.032441017552553256 -0.02646763027706174
1527 -0.0073774317543235275 -0.00024367948531827053 0.004850759057358871
1525 0.0028899491788764915 0.004410052270146567 -0.004677818743435207
1528 0.0037964750403823183 -0.002910751725073267 -0.020350187723082204
1529 -8.317738105146491e-05 -0.0034726572777622785 -0.004450317788675538
1530 0.010873631550815822 0.020175435796500954 0.008537000585061582
1678 -0.006560578237379984 0.0001819880746109048 0.004488175970011142
1680 0.02875150183287513 -0.024395257549511412 -0.013455614326016302
1874 0.01850961878215607 -0.03499752861881457 0.047453394274644844
527 -0.011437042144085892 0.01849421127960278 -0.016422991123893158
904 0.011045382014770014 -0.005437876956912494 0.019978937617635358
2490 0.008777769357041778 0.008078287697899101 -0.006928950328680122
2487 -0.00011928513589196244 -0.01281153315765005 0.004731917211095367
2488 0.0022585305076544106 -0.012573341477043276 0.005321469045886635
1875 0.0074321877377276245 0.00026822188543860445 -2.5488215594931367e-05
1882 0.01554999724473204 -0.002315683587061834 -0.0011599540852196008
1881 0.004603302427917905 0.01163371259547772 -0.005917557144198375
1873 0.006484266506499163 -0.0011182406422887274 0.010647574210611327
1883 -0.004730931891110191 0.012416558967838822 0.007550792035832898
1884 0.0066007057551483094 -0.01390685407915524 -0.0033969014187880046
528 -0.005291233320686603 -0.047536242286800486 0.03285656856914204
526 -0.0027354461477646437 -0.003718981756635941 0.00788837833924906
2492 0.030655608353318667 -0.027180568490861385 0.004043469085287568
2489 0.0013138618346137483 0.0028257699961139575 -0.0038905348727309203
2491 -0.0040490729392448545 0.006936555290554013 -0.0020111334020413156
1296 -0.025260248953421622 -0.03804151259185752 0.007083958864069556
1294 0.008539871333061076 -0.012038214168113239 -0.004341645946237214
1295 0.009349003386335932 0.00464688868756323 0.014873453734563943
520 -0.021363903883132924 0.021723900843295476 -0.015050351144304561
519 0.005562086216790616 -0.00748363578495626 -0.007599503553444801
521 -0.0039668538854526845 0.01589707227473419 -0.005265678169275216
1888 -0.014658069231070015 0.002709921822665701 -0.002704324504433852
1877 -0.004407790941350309 0.008733525300825017 0.001158215006363475
1880 0.017481854787888405 -0.028384509930278648 -0.04293148228257419
1879 0.0013937805132408921 0.005408286634061504 -0.002052879100153591
1314 0.0073117265160259235 0.004746756407264535 0.02150600428806551
1324 0.008203845032857947 0.025446608222818804 0.04368653485704156
1315 -0.001136209641622019 1.9182622895648453e-05 0.014985485099303761
1317 0.005834862787709573 -0.004753515830294494 -0.001271504101383771
1313 0.008823581609110006 -0.0021028937392551 0.0010216538023371227
1321 -0.0013142651694209966 -0.006819812753786695 0.008443128221265308
1323 -0.0013988555410681409 -0.008827542402393838 0.005238596823033677
1322 -0.015343866294806996 -0.0029064066818800987 0.013105071955975415
1319 -0.005530780465916717 -0.003074687718496569 0.003668426253422744
1320 0.02091094247095223 0.002750544693781091 -0.020999756890771167
1878 -0.01799336679443033 0.03658071733329109 -0.015849698788043137
1820 -0.005341109941430773 -0.006564353829704755 -0.014903804053915302
1885 0.006520272381953363 -0.03548894759386969 0.007677024062787344
1876 0.0019739783739560006 0.0026834505356152934 -0.0067955855256475765
3158 -0.0043265015098567575 -0.000342599339466461 0.019527630383770662
3159 0.001305118074374626 0.012036178699915955 0.000663046008532458
3160 -0.009981747683890803 0.024181623772382407 -0.012378690392258482
886 0.00984615134672456 0.012567917435508367 0.006376808979358915
883 0.008747874765982105 0.006323583293342352 -0.0010329498135984885
894 -0.004683126007631745 -0.00032430392393699653 -0.003303406724012964
895 0.006781481062623935 0.0006213163588321793 0.047009313774539416
896 -0.06899310526944256 0.02812360387839738 -0.02304253751019477
885 0.0006359520623646595 0.0028678696054971714 0.013145283970219532
884 0.0019755601664276368 0.008527954374782903 0.0029023471961976393
1622 0.0021770102336706614 -0.007375097501395415 0.01032623525398864
1621 -0.0003300612693041998 0.007494741117308359 -0.00046468234429550054
887 0.0012083573842612643 -0.011673702549103854 -0.0050193012427090285
1624 -0.005047112198949823 -0.004659389571309916 0.0026905515202510395
893 0.025430818988927004 -0.022416294142954027 -0.011246046997959058
514 -0.007090125373270252 -0.03274318008804133 -0.006007522508316107
881 -0.008792036634445296 -0.00046385498101004087 -0.000324654118833636
889 -0.006976031495887735 0.0003117480133262131 0.011949534077325253
2719 0.025115604856006796 -0.018683975894454575 0.007458792565665832
2718 -0.004653508088334054 -0.00605537390604224 -0.0004402344169568012
2720 0.04858102137203753 -0.04122551327193733 -0.00461959117205107
523 -0.0008821835401628113 -0.00995461634084959 0.004121538841907997
524 0.007560761495117605 -0.0349230904578059 0.003754939007490351
522 -0.0011791636132748443 0.013505277169959633 0.010342799913617723
1887 0.0012134862373447972 -0.012841416490193372 -0.002776590141184451
1886 0.011468452647946827 -0.0018432742438522997 0.004869528821695029
513 0.0033732388327667455 0.009543572479754465 0.0001447922910646073
1623 0.002439921211857676 0.0058074494899692615 -0.009564666851770508
2093 -0.021932866350263987 0.010331766074684104 0.011999628375621874
2086 0.04208549347289324 -0.035136629747281045 0.012982563277119
2095 -0.0070962402637216775 -0.006807761744682351 0.00677753123270794
2094 0.009593810602402483 -0.0010003549565633192 0.008984130667729988
2084 -0.0030746787051034495 0.014473595517744901 -0.0013561893900834146
2096 -0.016778567609004154 -0.004674679837645951 -0.004814903612979099
2083 0.0007661076446963851 -0.0033741937886167406 -0.005969594186327402
2085 -0.003679592056771507 -0.001301005074227551 0.00334032884578273
891 -0.00895911332291887 -0.009434943443702047 -0.01472711266604456
892 0.02030438222702564 -0.005892117535126393 0.0035810638252199494
882 0.04413915758798623 -0.009226768910823085 0.0161740079170661
890 -0.006118316714514862 0.0100637882896749 -0.015126613193718238
1626 -0.011493780263233182 -0.014646600575197939 0.01602645044847807
1625 -0.004827238222476273 0.0004702112104492336 0.0009644933795881532
1066 0.0025921431255427787 -0.012226490878471642 0.003651972437951402
888 0.033063632536719505 -0.0035898813825810784 -0.04666464889523015
1629 0.007947988045636676 0.004628516143310834 -0.005074210423317848
1620 -0.0042465499701633365 -0.007113537453439152 -0.0052539819646488985
1421 0.019310966208350277 -0.016932341739864354 0.030459585834047908
1411 -0.003402828866625882 -0.0009120251682253367 0.006974538288412077
2605 -0.0035455554550225437 -0.008856036263355566 -0.012046337338452897
3185 -0.004033731106378332 0.004662941596384924 0.0032279709760607814
422 0.009368710912283024 0.00852220253193527 0.044797581371771096
1414 0.005577622413762556 -0.015505463513670228 0.01476902636694503
1413 0.008151728947859753 -0.011583834225683407 0.003925210553563018
1412 0.0037039354192282925 -0.004064882559027973 0.003213849126784911
1424 0.00017260397256082372 -0.0027935026730632403 0.02680387664344798
1422 -0.004956479225217465 -0.004926750528701555 -0.0028992858494842535
1423 -0.004148989395644286 0.017967467695943207 -0.021700650865310974
421 0.006632491722621773 0.005402410776579854 0.0009142033865323553
429 -0.005383801246527483 0.011448948796673396 0.0040539083767108805
420 -0.003338868390683944 0.002633496492840235 -0.0009321441927351574
1630 0.0038006872269374724 0.004133608727386706 -0.007318546271589705
1619 0.0032317309408529185 0.006291130233263984 -0.00695354617391224
1617 -0.0018324939350473572 0.006540902375171805 0.005560014337921278
1618 0.021335192981520347 0.0004940159871075785 0.014427703849759093
1632 0.03366714365001998 0.020731947377236683 0.016898835063721973
2088 -0.020663433213763776 0.03384099042608128 0.002404963454118546
2598 -0.014563966592339847 -0.0038499447692206252 -0.002763424661261153
2595 0.004691874618618044 0.004946411165306326 0.0012691450914928562
3186 -0.023957078765990937 0.017820656426534152 0.040430955298208095
2594 -0.006204537188356142 0.03408573567977722 0.011910842585362975
2597 0.002744287635212974 0.0014855501371889353 -0.0036407517296947996
2593 -0.0003052547557191476 -0.0001254629678975668 -0.002325213596178873
2600 -0.026378253398183907 -0.0002452658231794889 0.02978496091195913
2599 0.0020838365170232236 -0.0058886457497158914 0.018387802505194673
2602 0.009138207376810226 0.012085896112555129 0.016011593414323008
2603 0.0037369636511960227 -0.013414446773158067 0.0019485725190162507
2601 0.014951508625414871 -0.007262430925008785 0.015081000721733665
2604 0.02022391067005549 0.020129433018911975 0.010861118164084443
1627 0.004935646842965885 -0.0063724009278171715 0.004908182996518311
2114 -0.01718784584565121 -0.010690346619780383 0.044406773430245565
2124 0.007399297535564413 -0.022108400021382753 -0.021825595593699874
1628 -0.021565903975264863 -0.027530555113055362 -0.004665910744616145
3194 -0.034933945233648796 0.011119605052856574 0.020186029142867577
1420 0.014848591920741911 0.0007549102700125593 0.012249359741414199
1409 -0.00806697906711794 -0.013426991024236133 0.00428584267092994
1410 0.016317542481424835 -0.005017285399383435 -0.03127717052736329
3195 -0.004594566634459155 0.0003847805929111756 0.0065240429616002715
3193 0.003967890258543227 0.004182248192717075 0.0069878970191697394
3196 0.008762536205836257 -0.006496492598059854 0.0038758865149714212
78 -0.002250995845327152 0.0016316580083050364 -0.0024957320446616256
79 0.0030880477635130627 -0.001974378042812155 -0.0016954325061738005
75 0.0008298028517192533 -0.00519788725534092 -0.001443441613896031
74 -0.0062279604241120235 -0.003825542431116191 0.0021073922430319596
143 -0.009667839142623091 0.00416526908347487 -0.0038678973796721127
142 -0.003738724701299396 0.004415999851603836 -0.0057595671235668635
3191 0.005430828079685083 0.006137728254109495 -0.008848757467970864
1419 0.002248949370705384 -0.010409425066150287 0.006760059010518336
1415 -0.007192854879790958 -0.0031244663795073437 0.002286629771991169
1416 -0.003894223794714531 -0.04141852099816767 0.0007364984798736664
1417 -0.004669506049965265 -0.0014127915260950562 0.008378439391467816
1418 -0.006166892850679417 -0.01394123323707406 -0.00025212993596064853
80 0.005777813804958807 -0.010723869140944833 0.004353742724378982
76 0.000646139151666049 0.0009351901095330566 0.0029557593122769314
144 0.00037561218593594746 0.008888800737857607 -0.002708053322200525
2976 0.03238495010902081 0.014797362555824561 -0.0050132803203703025
2968 -0.04586789588097462 0.005561312067116137 -0.007230671182074998
2967 -0.00030214547957243203 -0.01013634389943556 0.006657212769380624
423 0.00019288984103056462 -0.00874879197796117 -0.002982411275818814
424 -0.019475082290190602 -0.018131391768261007 0.0027140347906607068
3200 -0.005180084152821229 -0.001586094925628676 -0.03527781742617895
10 0.0002720002786487878 -0.0018455467872051986 -0.004248403033000288
11 0.0024399960352873076 -0.0022902789406655712 0.003907792040330886
14 -0.0033234019090741286 0.009689568999569033 0.0030904626008172657
15 0.0008767434965880553 -0.009426608936919783 -0.0026384508994773295
138 0.0052723773559234955 0.01346780950591322 -0.004088664285943683
139 0.0034648242540656956 -0.0025261685796432376 0.0010011444140198705
1176 0.0020348953398323056 -0.0013764004794392182 0.0314525602456696
1180 0.0069373080887955175 -0.005355410270392656 -0.0016181135271609625
1178 0.028857986434140538 -0.0026289432235032666 -0.014069130980544246
1177 -0.006333314108519474 0.0048132086374909335 -0.005071027347483155
1175 -0.0003159740295294369 0.013980280513689013 0.0029853583816902385
1179 -0.012636747265609625 0.0038135202961241655 -0.004547401019612697
12 -0.002101939605477402 0.003718395163457705 0.002851831634402781
1171 0.007174411993771989 -0.003678454046823202 -0.01300856581290965
16 -0.015937119535200012 0.004471104730743812 -0.002859909037089914
140 -0.004955496854893466 0.00044794727552169636 0.011565421333054422
1169 -0.0009416198066564346 0.0037401239653790533 0.005396436878337706
1182 0.007528269337546174 -0.001788518955407849 -0.0014317095800248005
1184 -0.011704187870067127 -0.02212250475442839 -0.027004940419720486
1170 -0.024123734602204468 0.007048835061254888 0.010088331417583531
1183 0.004933775306963252 0.035995997738396915 0.016578752899191314
77 0.004922150598533372 -0.0070625283629374615 -0.00014610241998786773
73 -0.00432532311876106 -0.01161989498153346 -0.0004992210830927425
141 -0.0006878407539520418 -0.00023670233875010288 0.0029183528911704867
2966 0.012087245346489445 0.007344232066692916 -0.04130536201256743
69 -0.002162165188494462 0.010387233823652165 -0.004975063696554847
65 0.002494414965390521 -0.0047695305799544015 -0.001301434406789835
91 0.011235456043277095 0.005189178658925603 0.001684792870339793
83 -0.004284682921529643 0.0018143941165016122 -0.0013537059175242959
71 0.006202610279469495 -0.004576204777577351 -0.012617307272677373
72 0.0010854217932243406 0.003650263369281157 -0.0009232644598855089
66 -0.0006264348089697799 -0.0017987102855418886 0.0012011224959082504
68 0.0011754147497382884 -0.008345929777762766 0.0021383927891696457
70 0.0022211248961966986 -0.00270959950315233 0.0014659329242805944
89 0.0013940310721945234 0.0009597959235380143 -0.003714204578601219
67 -0.005611507260154348 -0.006121762777860225 0.001979772957316856
82 -0.007107215904378446 0.0013854308492328327 -0.005331213860298104
155 0.0007665255589609524 -0.0026633678639085695 -0.007279729492720517
135 0.00044882657419391354 0.004450853006030767 -0.0030081941854297406
136 0.004587936433976939 0.002232972561447477 0.001566113954342496
133 0.00043549972216652233 0.0002585678849904805 0.006253858166593588
134 0.002629641055943461 -0.0008405357101478341 -0.006084115781356737
153 -0.004271498034853302 -0.010239939973290743 0.01320914248365457
3150 0.0013354954286527066 0.013804119253148445 0.011242434500511761
832 -0.02417722008426391 -0.006769300232067357 0.03068775617185322
2975 0.0025514960877104564 -0.02040102453243281 0.0029717685173417134
3140 -0.0009987842949568534 0.0023903567791810844 -0.006016970734107048
3151 -0.011299991955987741 0.025969264903379332 -0.0049639995366003355
831 0.00797705280879355 -0.013293190742713968 0.014869094384387393
830 -0.006458408659583812 0.008681126910906592 0.015095667035270561
829 -0.0005285849651768976 -0.002886339371276851 -0.027846182493574782
820 -0.007682703551343016 -0.00545863073813735 0.005795466665861699
9 -0.00026106106074124394 0.002156964877147053 0.0002020970674584724
13 -0.0032602338326141646 0.0019530888000515018 -0.0010580934566322055
137 0.006370455524773523 -0.00942068825120694 0.0030965011261261176
1 0.004435075615537109 0.0025791450782829102 0.0022332999665553126
3 0.0009429546650340964 0.010228795239892619 0.009500877988157921
18 -0.014220944303484358 -0.0016418297832172717 -0.005608547812795266
19 0.0008585809252098756 -0.002242222372578063 -0.003303519051695736
2 0.0009537321696611178 0.005918827432851656 0.0006576805089978573
4 0.004736080202842203 -0.00349317654372398 0.004225864940470452
5 -0.005139388329733484 -0.0029419574543652614 -0.0028557346046564447
129 -0.0013573590847106194 -0.0011364979806310796 -0.002453610900534143
6 0.0032438713508889283 0.0003730752342386674 0.006437886357271353
25 -0.0011179049412554899 -0.001885421585327796 -0.002189609341926309
27 -0.004944753541188066 0.0065990202990586526 -0.004600865949461641
147 0.005203267206118929 -0.003663768858829272 0.0019120298112401133
8 -0.0021570840318803834 0.0005671451991226793 0.003920882837666254
7 0.0025219989257840897 -0.005489870841891725 0.004518029687863642
130 0.00037169206027846865 -0.0007393091634253502 -0.002042478341128613
132 0.0024161216826731604 -0.009945598703270529 0.007401621238050753
131 -0.005307202695167364 -0.00577917069246837 0.009024412734223736
146 -0.010896864801999133 0.0007708164309259471 0.00358502970998303
1272 -0.0007691303271876193 0.008160388065242144 0.02906727508896962
1280 -0.017865679786320803 -0.016281905953695445 -0.014369381549110754
1274 -0.05392194870609836 -0.00363225131991053 -0.03156522353331177
1273 -0.00618920476688333 -0.005865109147738047 0.0029928828253881004
822 0.012746412984906167 -0.009953614379327989 -0.04256176952778982
3149 0.003280160458561575 0.02876196364917755 -0.035964018130501395
3138 -0.017587946805994435 -0.01507853004441571 -0.0025151326434885006
3147 -0.00604763941436784 0.009530327647360894 0.00044658209823217603
3137 -0.0029189540783752382 0.013804676867567837 0.0049731583963585095
2063 0.01072747041442132 0.00034264556348211154 0.0011680230402659768
3148 -0.03984402722234565 -0.03794522042858499 0.02631793390457041
2568 -0.005918263739495716 -0.013310722613104096 -0.009672611073322089
2570 0.023500271549093683 0.029066458221720798 0.03412762102370448
819 0.004599029107023217 0.00047635110731279994 -0.0014345662510495962
2567 0.006257836916215596 0.008432485347290365 0.0042965579915177155
2565 -0.010021831899233587 -0.003905263591844955 0.0019325505531470894
2566 -0.000697240258901733 0.0033206529988047354 0.01433387017586765
2569 0.0022670590959224216 -0.008725889150822204 0.0037007308437936354
2571 0.0003471519280272991 0.003890622853292273 -0.012325512728551065
2572 -0.012704279698852133 0.012768414370251209 0.016315919337837867
2563 0.008302276503268645 -0.003136783519310718 -0.00138156499752235
2561 0.002695236177988027 -0.0025283242280514234 -0.008640364390188657
2562 0.004414625197379081 0.0048489377652385455 0.013020751975643861
3141 -0.007000014306947696 0.001915178923317485 -0.0010405730940957767
3139 0.0001253047483508285 0.005959271361088682 -0.00043948307062543747
821 0.0029856273478774857 0.0038464647453916073 -0.004037430673536211
823 0.008154741717367247 -0.002198770984324926 0.002708308918174018
824 0.026062032034496134 0.00954544020736082 0.0339495476952858
825 0.003262079744355337 -0.0036707350681437607 -0.003092725642242441
826 -0.010370416985140274 -0.015956840300346317 0.009625352808480219
2768 0.014855732970560215 0.007622675712115341 -0.002847006007748136
2755 -0.002042175970874847 0.008446398906158574 -0.0016095055227805112
2753 0.0013292724192150629 -0.002564145555983934 0.008716579067175517
2754 0.0399305043679148 0.030809445679273215 0.002779833297983375
3145 0.001833063531983942 -0.00231605258628956 -0.005061527106236143
3143 0.003983282826467999 -0.0038554819646644607 0.004921495701816786
3144 -0.007674621047375738 -0.00863341304505397 0.003941392737258864
3146 -0.023744066700399424 -0.019546576233401867 -0.022992333780599138
2759 0.0032651917288419956 -0.006891653223951758 -0.01243027817071574
2761 -0.00730377212439533 -0.005365850727400379 -0.003900798224074558
2763 0.0025050178670173663 0.0032860565836723464 0.00020624853931821828
2764 0.041169838200801195 -0.004346098074576811 -0.0015688835188268607
552 0.009861890169171886 0.02596371855930072 0.022378968270535874
551 -0.0090273728547894 -0.0049912526173478255 -0.003687340549587106
3142 0.005289315809569743 -0.04286902304468535 0.02408712656964456
2762 -0.022179480058927503 0.015393309693458482 -0.016726420388645427
2863 -0.02313999997057436 0.010563540414391254 0.007075755860706762
2464 0.005085010839187377 0.011563533342131265 0.005699239208916182
2461 -0.006903714018377069 0.0018026483987912722 -0.012017250174806284
2452 -0.000988499093463272 0.0030093221871550797 -0.017145167141106477
2462 -0.002173599468906212 0.005033011648034377 -0.001551613155946154
2463 0.008422633892148746 -0.015881141069146454 0.0027785410589752126
2451 0.0023837498383665833 0.006571297201790777 0.001769758943484258
1343 0.06329298693412058 -0.024932152876553478 0.0016563913943462957
2450 -0.023154866986050984 -0.003958692473446309 0.026500861439926617
2449 0.01083398139346778 -0.005988226704733655 0.005325976516944204
1342 0.0026106369656207196 0.0016160885421355865 0.00028815286166392886
2576 -0.006786328304497615 -0.0032048013882655384 0.009858448118244866
333 -0.0010539724704394244 0.0371644400524618 0.01621015483702837
335 -0.005447549428960319 0.009721971441985623 0.021233665760477045
2459 0.007498347166170217 0.008262806845368979 -0.0041061530416533
1341 -0.005459523996352892 0.010344260902668462 0.00019927299243760327
2574 0.009670387227047404 0.00302362382021872 -0.008344677501056795
2575 -0.009574464100338777 -0.0018742117169877333 0.008438626649314674
922 -0.00626834255454023 0.02611635009799803 0.00430950057320312
920 0.01889876874819737 0.016172520954828164 0.010317624865257032
557 0.03711057146855733 -0.023983267582064764 -0.020929920466869992
2862 0.003067494877889481 0.010506888210625811 0.0039288163920784165
2864 -0.0058228838494495585 -0.022870965561129986 -0.005600748374006535
2758 0.01906468717414009 0.018313265629803347 0.0178551392310638
2757 0.002889656582826666 0.011844047601290535 0.0005799382099272508
2854 -0.012161179617418433 -0.012366075787970634 0.035363580491655715
2853 -0.00048300481142490273 0.008432064277553983 0.001849942502791862
2861 -0.04736791000523199 -0.00962365052844319 0.006526582769461588
2852 0.0056487880759682535 0.005583178612526064 -0.002213817425619298
560 -0.00965458588479146 0.002999346872727096 0.020321250994795932
558 0.0008024821686546641 -0.0005477556560680593 0.005244529275290136
559 -0.018204252853933622 0.001131097434913112 -0.024822306526686346
549 0.014804618161865162 -0.0009247753148444697 -0.004264227108594449
550 0.02987851438895032 0.00807437479549423 0.021202798418531604
547 -0.006626203643392992 0.003133172132981677 0.0042102094389456605
548 0.0052167070762746855 3.934215107086648e-05 0.0011970500450958009
321 0.003787809827713343 -0.00786566422327756 0.01127069489464838
323 -0.004473787532241348 0.00012123536996392573 -0.0027626823594645716
324 0.00023942987207187743 0.010521687771970028 0.0026879578554495596
322 0.013739370315468092 0.008053273343350894 0.012060420632087057
334 -0.007823678218466362 -0.0003051206078603723 -0.00567273180063562
332 0.016645509215282392 0.007970311642387646 -0.014154877113785403
331 0.003986315581074209 0.011062566058614446 0.009871568070848876
2760 0.01986382253656341 0.015713084531550806 -0.018431472420017612
919 -0.0025593892102463837 0.0032272619162273092 -0.006027814479430624
336 0.00045263508184079576 0.017175597484584575 0.004481611663771541
1386 -0.010457473281782703 0.002279255526365454 -0.02248030234393332
1344 -0.0156745456198036 -0.02568206911802647 -0.03162827206330327
1385 -0.0018377026741281405 0.00023004186753540872 0.0014240961853375222
1383 -0.0022231387215031163 0.006185654728514831 -0.004607817266313804
1388 -0.010978885246706082 0.006500250081317248 0.020712465881213726
2460 0.014742332363642014 -0.017559840265571423 0.024532316804742896
230 -0.006733248619278468 -0.01119554694063445 0.005728487847229825
237 -0.029074747161945916 -0.024247897907881875 -0.03518374550410523
228 -0.0011000707706552305 7.751802531920557e-05 0.003619972653695815
229 -0.006622537035404916 -0.0033330400187956493 0.005265406429659204
1378 0.03413420884333772 0.0024558036351363865 0.017211390750139784
1379 0.0020944639530771163 -0.001055200785385074 -0.004598582877100135
1377 -0.004723697213204863 0.003647499397926496 0.00019569936373948672
1387 0.00301220890724907 0.012714201193004407 -0.003268487414569855
1334 0.009117482335307268 -0.009577356887746908 -0.017531828263363376
238 -0.0034019912327291745 0.00554386327265849 -0.0015483262742474124
240 0.030725918326737343 0.011370580098875442 -0.006423794540796008
1976 -0.004158920715876267 -0.03300935143619324 -0.012634176621083052
2077 -0.02276838192400494 -0.023716528648139543 -0.012864770019393687
2078 0.0007688109404344973 -0.0016440548988700529 -0.00036055701855199
239 0.05966148226633572 -0.008685191097847164 -0.023085770060839707
2079 -0.005318703431338142 -0.005034440120142462 -0.026407009153281005
1980 -0.035662495086826215 0.032115533467409856 -0.014481389098002215
2068 -0.000651189765221512 -0.0009738082086390064 -0.0033430157694401027
2067 -0.009136943519704009 -0.004030788666351946 -0.001533921040991424
2080 -0.015473840298470974 -0.01335282012806517 0.03728444775797687
227 0.003116463240383673 0.007740967141355752 0.0014711053052620454
225 -0.004677483403704431 0.006148399959757697 0.005884039136572776
2065 0.00016586052115066447 0.01429822849961091 -0.006857945232773836
226 -0.012595734483834031 0.005867607542686181 -0.006052475674736485
235 -0.004551045732533322 -0.0023475569555856074 -0.001282675172437076
2066 -0.014394596199608166 0.015195476218868392 -0.00871058778394682
231 -0.0016857036145946518 0.004655300083999284 0.013515552645381337
233 -0.0005512817929334464 -0.005549538482541436 0.010798441372272607
236 -0.003019934248232624 -0.006130820898916587 0.006994143246158118
1979 -0.013500175344413251 0.013716873933110562 0.00471895786821192
1978 0.0033088368954278962 -0.001651776667559502 0.018399864404848504
1975 0.002710256312172068 -0.0021883241603473562 0.006573132009423862
1977 -0.003560218873748738 -0.002402419588553584 0.006235501069060022
1001 -0.003464290177660397 0.0027376662690453838 -0.006712384926590451
1002 -0.04643690779151081 -0.0010052837496502898 -0.01800856766834885
1003 -0.01713036886651665 0.003550918283148909 -0.0004227733603519495
1325 0.018986181286582398 0.012455831624981834 0.02581421158910601
2618 0.010372759140385206 0.005093308159338094 -0.019121849744276012
1384 -0.00784568434976788 0.003368182638129008 0.0059487676443655225
1389 -0.003301598677710214 0.017273958692982073 0.02021429534140084
1392 -0.018404027875951755 0.0024119251181138213 -0.019142296180512323
1391 -0.004522361340922757 0.007837669067093751 -0.008109640866928745
1390 -0.0007541007596014882 -0.010267923018440742 -0.0011927077135621415
1382 0.020575048549459577 -0.027559752091358462 -0.012996533040897816
1381 0.007594730877644092 -0.012211677315104093 0.00036346463533236655
1380 -0.007408187149065439 0.006775871647184818 0.009692165917947521
2481 0.007048260752713921 -0.002498304064835564 -0.005574974505155122
2482 -0.01601863900251992 -0.03215321263658667 0.015702674077780837
2483 -0.001011539533978017 -0.0010406398341818086 0.0029106952697102832
2485 0.005561030600925296 0.005448718513403632 -0.010821190575925302
2486 -0.02299905299621606 -0.023354832421812986 0.016862547322421675
2493 -0.015807244721011245 0.001112885671948634 -0.004621011781627448
2484 -0.0020104599801396826 -0.003336626127300597 -0.01018844932738504
2496 0.008770149028410721 -0.007238601551302727 -0.01960517216612156
2494 0.014073059021094502 -0.003002259788799544 -0.0001695209987315895
1666 -0.012225426459062144 0.018657546100911835 -0.0299036839924946
1676 -0.005721484578720679 0.005811672864140694 0.02349162630980884
1675 0.004287806331654727 0.003690112142649873 0.0010167706231772433
1665 -0.002799667674554804 0.006969181263158103 -0.005436456130380099
1316 0.012004474475041004 0.0006312587321179199 0.002133301243553167
1318 0.01489958163598711 -0.006671975494710471 -0.01345943194659458
1674 0.026718747603743882 -0.03200571927514187 0.015093562726708946
1672 -0.003939090717391341 0.005067461724410898 0.042878191085566106
1004 0.016911681189209337 -0.02818250590476903 0.009120096422955096
1677 -0.012033613753447667 -0.048387899311388434 -0.015908171104825147
1668 0.003036274517865781 -0.009231649366110413 -0.003414488435567421
1667 -0.00040115441511996247 0.0014609611026045763 -0.004539266404822522
234 -0.03699987840472389 -0.007556199208708843 0.00011488806132240302
1670 -0.03171400059847897 0.006641143786575228 0.006794907449221021
1673 -0.003865917714556096 0.0052004998108639115 -0.006624544568302483
1671 -0.0005105407095310666 0.007520845226073216 0.005700470323717604
1669 0.011859419959599375 -0.00029323845655521987 -0.0020807769183340246
2495 -0.013161148094791188 -0.03165815037967316 -0.02400519679284763
1288 0.03214524386584933 -0.017082325884537116 -0.009567178385937049
1072 0.011815873043432103 -0.0012512137581011263 -0.013263342590116464
1285 0.0026114407644918765 0.0024628370039156407 0.009210383404199322
1287 -0.0020183806180220035 0.0020777775113368637 -0.00534361209643022
1286 -0.012768891576270425 0.032774338295807115 -0.017312362603259024
2175 -0.016996331592448875 0.019114542607035042 0.0036160342959848913
2174 -0.014047987712504068 -0.002773296405587153 -0.005677777783170689
1283 0.012150823530654943 0.0006132399476654928 0.0014263550610463785
1284 0.0002706378761877151 0.005096786712975126 -0.0028057218439404966
2162 0.0022610198435131616 -0.005745028000527404 -0.024652952579140373
1289 0.008819542418362027 0.0018336360147266277 0.004453219128456517
1290 -0.01214887998231058 -0.024510280513156225 -0.019467295071000167
2176 0.004293121784788996 0.0035335145282275257 0.008810288106099587
383 0.023951046280792865 -0.013157154924199213 -0.033682292931186256
1069 0.0028385911418334965 0.006398119100942641 -0.013541949460691687
1060 -0.0016539441172828365 -0.015245716788262188 0.0049684038226737144
1070 -0.0007598374803273629 0.0033668641231075344 -0.005275391937970736
1059 -0.011124406467234376 -0.0061435105661470195 -0.002906234241510991
1293 0.004145389000283733 -0.00028000275689075467 -0.0025274658400729734
1292 0.00852601762611149 -0.0105544391023739 -0.01021067031423623
1281 -0.0032173399987767454 -0.003490637940634785 0.004028668387714074
1291 -0.0037237680773588825 -0.005994898848748114 -0.003293014711218319
1282 -0.0037077556615718273 0.002448700097635802 0.0029981593100297413
2163 -0.007227886916475288 0.009705688545173188 -0.0011871460529542894
2161 0.0043467139873392575 0.006849934464173111 -0.0043612744183348226
1058 0.002762992255536992 -0.021888082480657208 -0.03638368122566355
2171 -0.0027007910742741924 0.006955402873680461 -0.001893352857365731
1821 0.005844307604458332 -0.03158285633330497 -0.0190061946601398
1810 0.017996446083363114 0.006588018190800368 -0.0005779786492020374
1809 -0.00022451097754700282 -0.014897251110865962 0.0015878965213983218
1811 -0.0005830715422375212 0.011676810207122705 -0.0041171517051915765
1812 0.0060774581197820575 0.0034926939775239752 0.0016637359431839458
1822 0.0032418073861805357 -0.005903206281730714 -0.007028140231414358
1823 -0.01558215943122274 -0.005563525937031242 -0.004808170424487231
1824 -0.0021886071297805656 0.03488793787564236 0.0020275193640567576
1071 -0.024976870076173132 0.01228051292181444 -0.009802551219206949
2172 0.012962603562306822 0.02738785298039036 -0.015977154345272776
1068 -0.023158279498170762 -0.015275025937056022 -0.02007715743213026
1057 -0.00013121463628369744 -0.00024125381624998362 -0.0037216789665126667
1819 0.00238234095877039 0.005960194856364551 -0.004535492406147155
2168 0.008569156563049312 -0.02988164037962451 0.0002451508308164668
2167 0.002888351503010068 0.002898095993806588 0.002880821024115211
2169 -0.0003507794141968485 -0.0001076352203860497 -0.0012184592178441046
2170 -0.008708789502480134 -0.01918063165687964 0.0021066974984240887
2709 -0.0019522012672219674 0.009071877591947757 -0.002854910121789937
2711 -0.004463878899579898 0.008533904185531776 -0.0030298257438912905
2712 -0.01437577964681508 0.006766860676913626 0.041507579179084354
2710 0.018787306608926243 -0.017593754169979197 0.042845656158934306
2713 0.0020643876037950426 0.008494173218683445 0.004730498478669703
2554 0.020187899804975127 0.017840270565144804 -0.009263719343916059
2707 -0.0006984076020125769 0.005018601817818426 -0.0056814001893482685
2715 0.006855945975245059 0.004827121789785098 -0.0023075356633280733
2714 0.02236619893997541 -0.016881263157481008 0.04650399867384016
2716 0.0034656886805523477 0.003557545962505242 0.012168707441224174
2556 0.0055504781623591974 0.00019084892021790014 0.0012295755455586088
2555 0.011464617811937507 -0.006877273713883682 -0.0027366857633938893
2553 -0.002048776465493913 0.00846935720889856 0.0023439561762830592
1064 -0.02064739760046811 -0.029009636417426463 -0.003544311725412116
1063 -0.001131017471269307 -0.005603787457452193 0.012093726959213867
1062 0.0398658552433554 -0.033890845351465054 -0.013346512225498418
1061 -0.000293938062551604 0.00337218987961641 0.007632745922114933
2706 0.013847762012455637 -0.002929531210211781 0.01670039626232915
2708 -0.0060031335564247395 -0.010858728376096529 -0.004013311127079636
2705 -0.011236150670245377 0.004920228365090517 -0.0013056427090320504
2559 -0.004052439481980117 -0.004384836333074498 -0.029038166131394205
2558 0.0004982387672060986 -0.016360116049051035 0.002489687051186426
2560 0.023425901997797906 -0.0008152492346923712 -0.02886116168895399
1065 -0.0015254966966858853 0.0026588470715253588 0.009532815186425738
1067 -0.0011728585656231544 -0.008900132851272552 0.005468519142673868
2546 0.022890604574256884 0.01204899443352794 0.009501981531900067
2545 -0.005598920370995145 -0.008194381217425254 -0.006190174768709618
2557 -0.01756182595510551 -0.02477066429796963 0.020180984837191045
2548 -0.003232575676756011 -0.004366638880237595 -0.0036897385231218012
2547 -0.003614389868429106 0.011586395648153051 -0.007963826643551183
834 -0.001425608910852327 -0.018370969722482026 -0.02384391478804019
845 0.014209260645767186 -0.021961787259312266 -0.020181381136009934
836 0.006858029447164544 -0.0024688171102617384 0.001482811481591751
847 0.006545034551528458 0.038896919245027854 0.020709813442089307
846 0.001444550078957238 -0.0033309870246373587 0.005888487119260332
835 -0.003843972065636899 -0.009245471931098186 0.011089467800326592
833 -0.013065773965844381 -0.0011550244560704294 -0.0072330299999862875
837 -0.0006373778365629733 0.0010965265071730087 0.002714673173284103
2550 0.012300101656323977 -0.018743715546541674 -0.043393294001545436
2549 0.0157171056187641 0.007351871776073474 -0.005739167062136353
2552 -0.004466787570258074 -0.02089547900739686 0.012334757448166676
2551 -0.0024105882573746034 0.0029049912237203122 -0.0017600987761230208
2717 -0.01734707513876437 0.007491264518575613 -0.0025188122935041507
3295 0.03783313731694791 -0.001110139453331308 0.02151755018590119
3294 0.0013695808448488085 -0.00963021870222851 0.0030491791915035946
3284 -0.0033931829096118687 0.0009109741387240226 0.0051511488369383
3293 0.00879858457178687 0.019747151316932453 -0.04439006962528625
3283 -0.005001173858713393 0.0056932294361912205 -0.003257331571043696
2115 0.011362816078382344 -0.0011242704674336323 -0.0044996006095484875
2116 0.0038519128855894038 -0.0033360878978699643 0.005222932556644565
2125 -0.001822791634593786 0.0046230065761494995 0.008634937114295974
2117 0.0013517180561933581 -1.848353335272839e-05 -0.0011633533885907624
2128 0.030223387994513986 0.009106348882889182 -0.010568517303706608
2127 0.04243128835920778 0.0046232978871536805 0.019142539383425035
2126 -0.00575313131309631 -0.0022808213974737134 0.0010131291462582251
2118 -0.024448513430685614 -0.01594560457316403 0.006732460858938512
3007 -0.022829596675440295 -0.03492365280096694 -0.017887225592983374
3296 -0.029982263973982855 -0.0031488324844859018 0.03956475066110615
2608 0.04572759990172154 0.013553935815162798 -0.06390516742635531
2606 -0.0006112811275328964 0.0002701277911522045 -0.0015080639728318873
2596 0.002219893589734103 0.0012416179638502594 -0.001611893279364159
2607 -0.023088623470432584 0.03092769005355719 0.005560064062095568
844 0.002804861487306156 -0.026754412623046273 0.03655571390205805
843 -0.004549887362793569 -0.0027883466984198802 0.012124937837618711
2113 -0.0033780221116624146 -0.006471205973461185 -0.005646997460209444
2123 -0.005993569025577022 0.005174307053501392 0.00353860140643166
841 -0.0028829090248014564 -0.007547736342792043 -0.002054918114405748
839 -0.006049433932343553 0.002726198444247922 0.008572298783759811
509 -0.008989415353533672 -0.009369425464801169 0.041783728333858655
511 -0.00032061078188774404 -0.016992008700805097 0.03354621817137338
500 -0.0033402452722394913 0.0015933147870204716 -0.006820769229133706
510 0.0030763992081160097 0.006566908663493161 -0.0012661469937332076
499 -0.006321289908665927 -0.0028176152663632503 0.003158308315134881
498 -0.028036273335051144 0.010553929706757281 0.015438670315836097
497 0.013503975498018116 0.0006746198416180195 0.00329963403467426
512 -0.0043247386315317165 -0.002625961462836838 0.02935547765069557
3282 -0.04342318533146148 -0.01958813458350183 -0.012203093434549393
842 0.02689184804014519 0.005380031940227658 -0.03447402122964836
1279 0.00796753143121724 -0.012365425621319117 -0.003026088810118523
508 -0.009679406298710039 0.014236963759705991 0.04276586203048163
507 -0.004423425656807653 0.004654454207788356 0.0034504162246464065
2119 -0.00873693162271935 -0.0012226321679722292 -0.001364883374647814
2120 -0.009947159151359266 -0.00504541137895917 -0.01900894968966282
506 0.01764720640560615 0.020157811676907028 -0.05751490573687462
505 -0.0005490729798111946 -0.005249087932286528 -0.011306297597045134
2961 -0.000247009430673099 0.0026952790544495487 0.0017453725281394263
2971 0.0005211683166816771 -0.003106119466420378 -0.0063526296302012526
2970 -0.015860568688075737 -0.002688851750474266 0.006346057969699188
2969 0.006797551102195257 0.01115603505257106 0.0016371382302157568
2962 0.011208770925285837 -0.00532122822232041 -0.015287462464203278
2972 0.03570378093183863 -0.026430397193197033 0.012893579362115895
3008 0.017104080688093538 -0.01594226555999935 -0.01159478720349639
504 -0.042967160754351884 -0.01261710733647566 -0.0010168305570574265
503 0.0006826305692811909 -0.0010976058913693169 -0.0011966605044346926
2963 0.0010763761144165908 0.00700685506648526 0.0026646334504690375
1964 0.02585799541721146 0.03626659890872499 -0.0062773023055731104
1962 0.008810776339904985 0.02351106563032797 -0.01311885388599711
1961 0.013188807393446644 0.0014386906596519963 0.004929218312349561
1173 5.278986891694395e-05 0.004832260749365497 0.005587864142526553
2121 -0.0018228780351895128 -0.0006811204897490493 0.009354762328301498
2122 0.022216858312819086 0.04169111448502854 -0.002969793267905757
2650 0.04027200184166904 0.009547492815537633 0.01765127218208706
1174 -0.0030950975849295386 0.0012266994785517854 0.046663641063692717
502 -0.017090420636538026 -0.015516814414752672 0.018712280722901927
501 0.009280430523478683 -0.0013677333523636813 -0.0016945209937231553
2648 0.025622799815789587 0.020940730742926947 -0.013357301656445005
2647 0.004587491027280493 0.0012781558861295725 0.011546495235664792
1181 -0.012286001024383715 0.010058128482617524 0.010185199003248185
1172 -0.0029202076096533826 -0.0009802712451334337 -0.0025124132251567025
2645 -0.0022750119765225984 -0.003838990554010434 0.007741608047187011
2646 -0.013501929057174466 0.04072257117354044 -0.03544766879940807
2656 0.04513501024299081 -0.005223195653427783 0.021301607147370213
2654 0.005673190730619156 -0.0015709258318058752 0.008857116385251086
2644 0.009946868623611266 -0.00934784651874911 0.006830526025135229
2649 0.0010291576997056018 0.006198492489103982 -0.0036097366769677138
2651 0.011995570503781491 -0.0168048949027884 0.0017814542177255746
2643 -0.006690536884950662 0.009280615872947255 0.005392765435644414
2641 -0.0010945705145988913 0.0007470899750615858 -0.0011944490894710124
2652 0.016722333830100355 -0.007277158385425664 0.018943909664503263
2655 0.01693503812338694 0.02677301617415638 -0.022365634515827074
2974 0.001843292625074199 -0.009326845618657618 -0.007569846031491748
2965 -0.009430372756608971 0.00541191636081466 -0.006257536457113858
2973 0.002698731011658289 0.012780874789273497 0.019941571427866255
2964 -0.0067503965299563415 -0.00487185045637884 -0.005268401374351699
2215 0.0017763889142872306 -0.015499997091616499 0.005914521338758055
2216 -0.01192748022984373 0.015701057825655573 -0.0247370655908048
1963 0.006707613034207492 -0.005400496424134197 0.0026048554231288077
2209 -0.005003318455629785 -0.0004761598965978755 -0.005838682159865294
1953 0.0017952892383728506 -0.0015638235266386342 -0.008625465304374028
2211 0.0002640710192020779 0.0051991249167105185 -0.004414847229014487
1954 -0.02160443585990425 0.0014384753943535976 -0.0488635506886914
1955 -0.0035507842710594036 0.0007228916584501709 0.0040971337520770024
1956 -0.007001241095066607 -0.0031396172083328288 -0.0066890480357233335
2214 -0.005289434469250677 -0.01586279608357233 0.01751961480228547
2213 0.0018959399089522949 -0.0017631135325289215 0.0010846979402221362
1968 0.019264610501917884 -0.024722209668240257 -0.010574574866343335
1966 -0.007510666782477445 0.01055112572184795 0.00025417328055568796
1967 -0.00993651932733741 -0.0037409956836686902 -0.04340040406516065
2222 0.011265710443023994 -0.00805186628269004 0.007600987961248295
2224 0.052787704156538266 0.0072641581216750985 0.01749559099943333
2212 0.008029730930608341 0.0014743061801911583 -0.006741103927592667
1278 0.009384711961196775 -0.002569534013738256 0.008789236995147307
1270 0.014504251230908616 0.007877117344756237 -0.02262869685106025
1269 -0.0042855475425144455 0.005574458374067854 0.0032550089182884394
1271 -0.011377614541388067 0.001637019504757567 -0.012367605260084055
2218 0.0028499126876755203 -0.0066945991735149896 -0.017210459729864548
2217 0.011685446704078504 -0.00150354306752345 0.00809922032030562
2219 0.0027578858597728136 0.004629443273928563 -0.005805902262391348
2220 0.044076734186908356 0.0252843731742707 0.007177364776147244
1267 0.003507357709103704 -0.004945631704458693 0.0007112750185305517
1276 0.0032025324907122756 -0.006221286650592719 0.03968535955255819
1275 0.0020966374337728945 -0.0017201199582773823 -0.004518581757430724
1265 0.009549938900989532 0.007348144922398721 -0.001959681093061469
1268 -0.003755675320954029 0.0009075781389381447 -0.004255633465642039
1277 -0.013949000678148896 0.027552851705952112 -0.007962669145598077
1266 -0.007980494350358105 -0.008189932096900297 0.01673658204789681
2642 -0.009150741465449265 -0.02303505019343009 0.007829538026838983
758 0.0045520397716506305 0.004939577746996187 0.006090449368176448
757 0.0013338869258112057 0.0019973918781080353 0.008719872743571415
755 -0.007423188977163956 -0.006447033849084187 -0.007044501365202157
767 -0.039852145651100096 0.01284622780565541 -0.001341235151988973
766 -0.009641288202310408 0.004501909166952706 -0.005337750200076558
768 -0.01576461426043679 0.010460604675211708 -0.021016113069292457
3152 0.04147883946198437 -0.013760413641269727 -0.04232065150806466
2210 0.02557128440842962 0.009208501108341977 0.036496224610373815
817 -0.00614185702578029 0.007332167747794729 0.0014178441127145095
1838 0.005825217589245557 -0.007032875556582004 -0.00030930481888463967
1827 -0.005325445839502623 -0.006290087734597391 -0.0026485307291861724
1828 0.0026803677125847845 0.006453581703411091 0.0003026664978214832
2203 0.012097133824167836 -0.005731066594275969 0.004129970744170099
818 0.0323803618884142 -0.011966530941339 -0.0023386135192186965
1825 0.006250271202239641 0.0037828746536319536 -0.0017740882414379487
1837 0.03502332557947121 -0.002021687032116304 -0.008228962534492212
1826 -0.006480350004426136 0.01561534100473671 -0.025191240771124224
2204 -0.004124263724585228 -0.015063842187109591 -0.008014179180918958
2193 0.008090107344715282 -0.0006957974206149886 0.0023334278028195265
2194 0.0012812454036768871 0.007384339651372405 -0.005765899685857389
2201 -0.00494941984571562 0.0030987590397806423 -0.004484631083309736
2202 -0.007060337703761169 0.008484221159208572 0.03370077000437266
1840 0.008435595501722739 -0.024568751428365704 -0.001965982210371961
2223 -0.010410446707253492 0.001514651301713134 -0.03455820824587414
2221 0.022129160702357743 0.045903699662785874 0.007044345082922788
744 -0.022054254475463234 0.03927355854802681 -0.0535331155670206
827 -0.003029222588852608 0.005283807602853809 -0.000874650026176984
1829 -0.0002608605681656391 0.0030780598300697245 0.0004976683377834609
828 -0.0028406640377152043 -0.013660996085636113 -0.005507278044348816
760 -0.03589013504505385 -0.010335006478176464 0.027873915526798593
759 -0.001032613974879434 0.0012640569819136575 0.0014997385735442488
761 0.0032644914612250113 0.006066956488604091 -0.004210495137314847
762 -0.010557885806169023 -0.005115781323424172 -0.01470944978059765
2200 -0.003050637273777555 -0.0034426267039982033 0.0017597291726873816
2197 -0.0005044905084172264 0.0036683072986111015 -0.0034303407515355326
2199 0.0009096835628857932 -0.009872429091137353 -0.0012853207707604682
2195 -0.00048124406978840913 0.002617142175487166 0.00840539818409567
2198 -0.028114819379695094 -0.033202138311679175 0.014257144466919242
918 0.02700836549412465 0.003120535892775653 0.01208094870109563
2196 -0.0033558526926686376 0.0005743399681988697 -0.005786810002958983
764 -0.005394613474193535 -0.0016239208922797697 0.00947549949809227
763 -0.0039621689847771134 -0.0026875080897740635 -0.006560191328805598
1332 -0.006304062840664059 0.011001617580014372 -0.0017030209726572754
1836 -0.03565222852017314 -0.0026629828615651165 -0.039349603083681024
1835 -0.0034596191891456836 0.005848111070661634 0.009020291250494352
743 0.0034496647670715056 0.010482276883725678 0.0001682259042194952
745 -0.005405678664963737 0.0025245438628874396 0.009122939207672416
2564 0.009251969453560497 -0.012199648154780942 -0.004233986203532587
747 0.007827622365871994 0.004249273312476234 -0.006273975579250739
2573 -0.01030039075449004 0.00449390928845978 -0.012330500527854766
737 0.00011930354528116173 0.003820975309351504 0.0068313920277240274
738 -0.03551999027936465 -0.05938527518098981 -0.005025713195207312
741 -0.0032904614797967494 -0.007487850072379907 -0.005250654967146079
752 -0.027273129846105776 0.006337810142399987 -0.017357736655574
742 0.014999195652215788 0.0018882847066883915 0.013353336999672345
739 0.0007834139023996727 0.0010361903798095941 0.0024440008336314547
740 -0.00024982302620557724 -0.005070030765319811 0.0043674594991759625
746 0.005480003709142143 0.009352754794496128 0.009605119686329114
750 -0.0043630918816311565 -0.001964455211744398 0.0002222263383222991
326 -0.020186622412264772 -0.0011489674363393584 -0.021916570266650625
751 0.00024076180024736702 0.016075640588258097 0.0010319243816441222
748 0.00684233133413498 -0.010283341038517826 0.009727727783946625
1329 0.00376269631650842 -0.006185073674603383 0.0002399938141720564
1330 0.03452708182040862 0.03440184343532315 -0.01588148400697996
329 0.004413083594255667 -0.012246183400550073 0.0008617189519721738
1831 -0.007249380489738375 0.00043137833367754263 -0.006763665930653778
921 -0.005472852992515463 -0.005074239237925173 0.007915171883564004
1834 0.03759847966880909 0.019767055024425644 0.014532652512466817
1833 -0.006589161195437787 -0.008428005903796236 0.00241853815318027
914 0.01405545894337516 -0.012575120770333514 0.03435740941464725
923 -0.003116245744790846 -0.0013152291329487486 -0.003792763142245459
325 0.0023499129883743823 -0.002675398121171695 0.0013082999305314685
913 -0.002320618281043972 -0.005548192680181192 0.00734267383104504
925 0.009643238976499675 -0.022283560366312335 0.001318508335903872
915 -0.0004251135815794189 0.002718726983192228 0.00759298059614277
927 0.0065616890033390685 -0.020542921540798578 -0.020585198154340553
928 -0.015090723488685018 -0.01574028071073611 -0.0013071722115294434
926 -0.0031769112814509573 -0.0036998474956029172 -0.007249375438943008
916 -0.00245681931831122 -0.004189910144131942 -0.00162669724156585
917 0.00464179013109206 -0.0032414868469687083 0.0002765417556698519
2160 0.013371436921770563 -0.021021932461063847 -0.07380513295395176
327 -0.002211847487423339 0.009964128068005054 -0.0017493537708872864
924 0.03880057185379959 -0.007914121548635075 0.008697352250420029
3320 -0.026714508753663553 -0.020020705369856232 0.012097037670170592
3318 0.02770291971329571 0.03511607309083183 -0.011399586008627267
1333 0.0013955560070230486 0.008255455990180944 -0.006263546344137609
1331 -0.007760834448199738 0.005342277238178066 0.006597472757616384
1335 0.0102878446085218 -0.007011239290041402 -0.00295039120355671
1336 -0.020970407299173315 -0.009880404180637726 4.617230995944824e-05
1337 0.009267143824640242 0.005094562729628525 -0.006287532634530733
1339 -0.0042814193398884514 0.003388745269111781 0.0018098352790264856
204 0.01504157191657553 0.013917510505212402 -0.03586882339364961
1340 -0.02942701629064579 0.007490617864678206 -0.009480502849953262
1338 -0.007326423965515631 -0.012139528631951767 -0.023907901025445887
1864 -0.026357856390645303 -0.025562525793121873 0.020030489699583428
203 -0.0025215089178574645 0.0027850227894176244 -0.00044176908653756434
201 0.004570142037116071 0.005532174431345711 0.014200099921309363
202 -0.008285536390690337 -0.03396252533256553 -0.0042812764783956864
1973 -0.004887466188349422 -0.0029719634245930905 0.008916967940166137
1865 0.001401832209597762 0.008273102824953998 -0.01105485157581138
1866 -0.0019916584426491126 -0.0028578500623226287 -0.028214031718045745
1974 -0.010924054219250958 -0.007076289919640417 -0.009393433435647004
199 0.0027303117746732067 -0.005946599362186536 -0.0009053222559113048
193 -0.0017904025233984116 0.006516762176238673 0.005673695628357833
330 -0.0021604190668440427 -0.037461331197447115 0.007865016735412164
1971 -0.003748959823727155 -0.0022284182345855674 0.002198326504992029
1969 -0.007517294796018223 -0.011023133105539352 -0.005171638885469695
1970 -0.005618649916008681 0.034227632102402254 0.024862818530694893
1981 0.00848776901500195 0.013886619982027051 -0.008223706579804832
1972 0.006586432706162153 0.00360051858179085 0.000517822031571467
2159 0.044021788251872945 0.015006980593443181 0.009677029492973476
2158 -0.0007943519534414483 -0.0031825624969252287 -3.842175274685636e-05
1862 0.01280749743688773 -0.02361578615567304 -0.010434863681741315
1861 -0.003509132030797358 0.0020529042882967163 0.003205326211203955
1863 0.004241612228403303 0.007620791847214329 -0.004855833419955085
3322 0.012967767643907073 0.028307913577233064 0.01784255687807123
3321 -0.002473023066486974 0.0017391737296828024 0.0027384491654311805
3323 0.007844448817736282 -0.003804225490807377 0.0037809866732568514
1869 0.011800685065851954 -0.0009101395183193818 -0.05537506853431178
3324 -0.0036687555390745486 -0.030441865754313988 0.03132640824107512
3313 0.0021081246487204878 0.014313509959744869 -0.007514566440293456
328 -0.01094202642852273 0.03685371577810072 0.02512068246219039
3314 0.026272129821579834 0.024728065472336254 -0.019266788824809134
194 0.006890452661370362 -0.0064283190159759775 -0.039594407420649916
1859 0.007753506766849137 -0.010632865597414309 0.002795216375132566
3319 0.002835549665635937 0.004726707908433667 0.008075120058755821
3317 -0.011269027503770847 0.005965285397782694 0.008440814858943012
3315 -0.00014024355449186238 0.0010944121819945719 -0.0005614217508971851
374 0.023808573299536437 0.0026417140748075576 0.01861671419658699
376 0.016201676122591543 0.012503216127688042 0.03045689762354647
1983 -0.016013448133187735 0.013493086176265122 -0.05295734228263971
381 0.022512916688196064 0.02333727210517693 -0.012116319926374162
371 -0.007720810531398352 0.00027494796181421285 0.0006746126769624958
372 -0.008101719233998562 0.0014627807683886837 -0.01086561239626485
369 0.006538692666926086 -0.010177832047634798 0.002893234857483863
370 0.0028979091901569307 0.005651538161013589 0.032270389066427166
382 -0.00214773379662112 -0.0011833534741029974 0.008586303519846863
373 0.000621402493809519 -0.002140108556525263 -0.0035759500696913534
377 -0.002765799085804674 0.0064386966214268135 0.0013863542023853169
384 -0.01303426623021787 -0.022606177255108138 -0.023907314924827023
375 0.00453705318346517 -0.000751394381276675 -0.000493307064665899
380 0.023877914053008445 0.0038024582056440962 0.0011150739756272373
379 -0.003224686529499469 -0.00012707032364827242 0.004963248380720572
378 -0.026835652765164215 0.009561509115690786 0.01663910088691775
200 0.007889610552839247 0.006071773528114417 -0.029191228096205536
1327 0.007686021858182202 0.011153376089999981 0.011935566156429244
232 0.013399754838394388 -0.02883835221858517 -0.023308507965533132
1326 -0.0077034563054061925 -0.003508718902815842 0.00016956459450653054
1328 -0.0161965426810537 0.011373565155819458 0.005927400324780801
1982 -0.004329594494453 -0.006923825586247965 -0.009402813204883842
1818 0.004984766972025423 0.026875705687754384 -0.0031778305436812155
1984 -0.01249009448709915 -0.026416640460668182 -0.0038949849275196494
1813 0.007451751864145728 0.0007427506654809239 -0.002148634033465504
1814 -0.0012966693477270705 0.00777880596779044 -0.01591069089350435
1858 -0.015650332393382153 0.010900343153794406 0.009708565146186164
1857 0.003883360068124866 0.008455403468299288 -0.0015007271170261246
1867 -0.000654533665603052 7.61854835199092e-05 -0.004835704139315615
1816 -0.026605854940177642 -0.024782738140403687 -0.02580392590196343
1817 0.006628227015458177 -0.008362859507975457 0.008030925743757146
1815 0.007146294449053448 -0.006978584499499855 -0.0012786072024214183
1860 0.0007971799429925998 -0.013038166802365865 -0.008058720359762763
367 -0.004164724238930069 0.0006066728621417318 -0.028847709699439138
366 0.0055339608381759385 0.002075657540484177 0.006378961455990089
1872 0.03565757663748563 0.01269093415041562 0.020135054834185116
1871 -0.017571993665411286 0.02172026225982141 -0.05848914228381158
1870 -0.006608634190600102 0.007493396920147234 -0.015231432044381356
368 -0.0023031217955462816 -0.02708913050786789 0.026613895246897154
2173 0.029980694995061386 0.008485581317863292 0.03787192686944666
2164 -0.00745236743356517 0.0006915330523231545 -0.007264514705573065
2984 0.013150487603176091 -0.013871502536806394 0.020484249490202427
2500 -0.005026075838074057 -0.005139545963184914 -0.006806386871870121
2509 -0.02321384204773417 0.023790163240786578 -0.02215850274922069
2165 -0.003844580940569059 -0.008594242488052493 -0.010658783088523763
2166 -0.020045476929065786 -0.05604252348955786 0.045642064016509915
529 0.009707715233270645 0.002039203795812884 0.00329978776197787
530 -0.05287362085726033 -0.025189495724992517 0.004357158485065456
537 0.0023939997117907834 -0.004931573406034681 -0.006561691267372221
538 0.009293201918139912 -0.01985793040320254 0.031176242174013786
540 0.047684170345742315 -0.00763612625769957 0.01910587577257524
539 -0.0012672333701805496 0.004800502119883206 0.011447878375361752
531 0.0025973175816410496 -0.008983693954146424 0.0007530746199546094
544 -0.019129246257872216 -0.028520088771971337 -0.003367187127712111
2510 -0.0006315547491194441 -0.0063525738594507105 -0.0008587458765584083
2511 0.008325770033027792 0.010374372352382083 -0.027593278281898774
2982 -0.009088176998553727 -0.004159618253771506 -0.025130779195058628
2981 0.002202214038635646 0.003078584131451132 0.001417202404898542
2983 0.006164392335558419 0.0003142166594054846 0.0015550924910868716
2502 0.00844195354826793 -0.02050813107729737 0.02034817731254463
2512 0.006556602300245029 -0.006969822198173427 0.009666404391168676
1754 -0.009919063809224762 -0.006925027230772605 -0.02214135122231051
1748 0.01757689882772777 0.01204155900807617 -0.004282186851282325
1745 -0.002709608862438584 0.0035262451235462456 0.006545059620673609
1753 -0.005781040494415137 -0.00039536036009997933 0.009101535250720718
1747 0.00423573002750465 -0.005998936723375798 -0.010131977039309344
1755 0.010765584611798015 -0.0023052809494877695 -0.003207176580785007
1751 0.0023817250968470806 -0.0001238639025862971 -0.0024702419414007297
1749 0.001271428430579058 0.002910190636137994 -0.008694640349068599
1752 -0.020264348027653475 0.037810441061697564 0.04734807966219846
1750 0.005497364103266039 0.015101205089924132 0.0171762302755771
1756 -0.014524081429506308 -0.02591425141676013 0.010252064323250052
1757 -0.02244414581974111 -0.008235844727821798 0.011756416465788629
2992 -0.002281182384733649 0.014380654148155923 0.020256283128668968
2990 0.0027617066600316574 0.0025793268939908157 0.002481247317581477
2991 -0.007722142933082795 -0.008162348124730772 0.012531331729351022
1746 0.030202403813863517 0.043101440791775955 -0.0012849726099066962
1758 0.0035233192083992154 0.0029599408067017036 -0.004492097542995789
1759 0.013372213323235639 -0.04473812536602674 0.005671903912603238
1642 0.020024666008552332 0.018343922705916307 -0.004311292397226776
2986 -0.02512114827538963 0.03279445260289239 -0.012141238405972756
1644 -0.005637341837361333 0.02648846354190111 0.010153324678636161
2985 -0.0019065533614262228 -0.009766549940335765 0.0024192483098606607
2988 0.027187304437337627 0.020717471327304077 0.008300005984629039
2987 -0.0018963563799230354 0.001835989507146111 -0.0008736767600549794
1641 0.0063040103632726885 0.0020447006050415715 -0.014916464712233088
223 -0.02166815052882218 -0.0025516198882054118 -0.05541198663318919
1643 0.010408098201651571 -0.016511670884995895 0.005679128094065183
1633 0.0008819436036462369 -0.003163488638958987 -0.0027961386942555624
1634 -0.008062368293017617 -0.00670888373853697 -0.01806436287103114
224 -0.02918256196644735 0.01295827958415272 -0.044540478698082205
222 -0.004921642343220231 -0.005276792549092282 -0.0006384871721521549
2977 -0.006624556203286423 0.003058623094209431 -0.005892380658202726
2922 0.04936416713348304 0.038670153678094725 0.00790467674242332
2920 -0.003765141355684312 0.013299807631912054 -0.02950354639095778
2919 -0.0034920256989260986 0.002677875828895 0.0023586218001646693
2921 -0.003928194650364071 0.008952105171626305 0.013742097851753045
210 -0.0009057559958982727 -0.005768612896331566 0.02945222908512752
219 0.00512737290005816 0.005160818044592832 0.007098687427380247
209 0.0013761427558114567 -0.0049569031089440555 -0.0008959751326148924
220 -0.04366449429592629 0.01790867481229748 0.039007320080945936
3288 -0.01809951685685243 -0.050545534904845334 -0.0013379143704070153
848 -0.009107894543275057 0.0056244820874395895 0.007121990999217438
838 0.02347009005674157 -0.005103882347932935 -0.020852727015224684
1648 -0.008290232468494618 -0.0008358031412379508 -0.004191201259920571
1646 0.003584586162242136 -0.002364393622759671 -0.0011223354324180494
2989 -0.017023284104484112 -0.02102349443488123 0.006929476960805974
2980 -0.007070105786870935 -0.00666261712637986 -0.006807133383521334
1639 -0.003577311748497427 -0.0021522747513547987 0.001428458995568878
1635 -0.007590033530292939 -0.00033880030880863925 -0.0033790928370441503
1645 -0.008047330400420431 0.017977326073001874 0.009340823334421025
1636 -0.002291968214457845 -0.013248736533809542 -0.008732252516680224
2978 -0.02022721322501296 -0.03382981031707347 -0.004346355872593712
1640 -0.0022180010458347716 0.023000407565512904 0.018408253740177745
2979 -0.01107506014151351 0.006307280559950521 0.008229378283415408
1637 0.005061021994684515 0.003894516707804522 -0.007680819628088448
1638 0.0017614621858662502 -0.018882025110957913 0.03949240979596215
2367 -0.011270546805894916 -0.0058639278750134095 -0.015804071259633075
2366 -0.01018098124457232 -0.0009609811751583164 -0.00923526368102356
2368 0.00594740952225276 -0.007259588549188817 0.008592062881472134
2355 -0.010759438468878333 -0.0025878927205158155 0.006545491344270972
2365 -0.0021763781349227436 0.017770526464653883 0.0107667862273695
2356 -0.008487214100925549 0.0006844839252444087 -0.0050448307062187555
3286 -0.024468807049874374 -0.013880902619641089 -0.017436167604769598
3285 -0.005781481360495103 0.006752820532754536 -0.005023960791459118
3006 -0.011812631236983185 -0.0058058048967009135 0.0006458434144081898
2237 -0.03325263483945856 -0.021961420718302625 0.0006823541494812404
2915 0.005977909822511236 0.0055769260206982646 -0.0002407219040881914
2913 -0.0013115278199481585 0.005937560909918343 0.007134598422291953
2923 -0.00763341985409217 0.008119335911492139 -0.0010920045754628628
2914 0.01570645837330364 -0.024725337655757906 -0.03095439968556892
2924 -0.003294540669168044 -0.018625214413496405 0.009729554178218755
2228 -0.007476842386896194 -0.005222875055072498 -0.0023828162309249452
2239 0.001566887678663498 -0.0009828206895900844 -0.005625978941513126
2238 -0.0049476911447318495 -0.004063488022102093 0.0005182485481076549
1659 0.0015299030949515603 -0.007209170627460431 0.0017609269997700652
2925 -0.03932391009646609 0.01690413609455525 0.008328292048671226
3005 -0.00409694643638564 -0.0003947329644329852 0.01933421981001479
1660 -0.027700370422536088 -0.006043162089703582 0.03911692099063758
2225 -0.0023407429384314587 -0.013538691129074602 -0.00541525816614178
1650 0.006587504667135142 -0.0028229475174956407 0.026940413583904213
2320 0.034965242102493334 0.0030130915080208765 0.006190603209354023
3287 0.003189337346220057 -0.008786488995892693 0.006687211068817958
463 0.010668255114907049 0.0182025758158601 0.004104067742812854
2358 -0.004417792384503536 0.0014414522009368487 -0.04895471850463414
2357 0.003160175706822205 0.0010803775337081194 0.002388092809266859
3289 -0.0038732376298546665 0.00022179903891303852 0.0016440144888489278
3290 0.020321454164524185 -0.012470791820028726 0.00028049285552266673
2360 0.02574664140723025 0.02400102312562396 0.009787449305354577
2359 0.0037493452699697122 0.006408235228334228 0.0027015198658079573
2361 0.005861963566428044 -0.0020196935272784526 -0.001039374807749633
2918 -0.02546120514876389 0.016046977107602105 0.036236404015813614
2917 0.004037576605343635 -0.0009849669436481625 -0.0019176762855022218
2916 0.0108431507555449 0.0034480437815220875 -0.0019509332091413268
2928 -0.01660734839042042 -0.014719869221041999 0.005585762099776865
3281 0.004059227439700408 0.01072986358711565 -0.0009886103616761565
3291 -0.008426321366438684 0.0068020796705089035 0.008962354835921754
3292 -0.001209065485733677 -0.0012671287881407523 0.026579741287670395
840 -0.03740509058231061 0.0160986518123482 0.012379828888796535
2927 0.019658407453222046 -0.012819843562643781 -0.02912824894596129
2926 -0.0005518489511029245 0.005386366294008644 0.0003785987787021063
2362 0.00764770371918796 0.0013940889918989197 -0.005765141968425144
1649 -0.003475844340756131 0.003502848436003883 -0.002273322514733051
1664 0.016847478201349624 0.007467322088208284 0.01689686294321242
1662 0.0007731123811778923 0.0007095540297857289 0.010562573591663883
1663 0.034292563780679186 -0.016433344607920328 0.0018284372916833847
2996 -0.01682188187576585 0.01500424818934624 -0.013550619216358367
1960 -0.05733393173957334 0.011759567783080264 -0.026522373102949984
1959 0.005662467429773533 -0.00010260125806383947 0.0011517631788936062
2226 -0.004846200836956525 -0.008575859347136238 -0.007652834314404169
3002 -0.021637172685901162 0.012337367621373805 0.007374853747853687
2998 -0.022962826481526876 0.01849855000064311 -0.019039367497629446
2994 -0.0027379631494234657 -0.003696104169727429 0.003655663975380783
2995 3.773970812269871e-05 0.007539845768762498 -0.0036376535563962522
2993 -0.006882099380708442 0.00045834217748462453 0.0006239320792203687
3003 -0.0013992403634921805 0.005771556619733622 0.009111901947367631
2997 0.006485345040086313 -0.0003444977403325412 -0.0014780392006587032
2999 -0.0014574731473123409 -0.01579714431551515 -0.0054896845691694285
3001 -0.004718882374149544 0.0011596575232964252 -0.00934514055968751
2307 0.005997744969434355 -0.004017333931591173 -0.006544179830352997
3000 0.021331054684017317 -0.00046698063590333165 -0.02954812752384915
2309 0.0002628790858667489 0.007736541389433589 -0.0031025890615682884
2311 -0.0037684064705704686 0.0019230877194819059 0.005949680699305364
2312 -0.04699755501236861 -0.011170002915535384 -0.006763566757755328
2349 0.005969031391752445 -0.007682340476384674 0.02343718294414102
2308 0.003280573791840494 -0.008918331785622095 -0.002025543241931272
2340 0.0059422102681347296 -0.0007779706862393878 0.0009888993707990897
2310 -0.012166967259598933 -0.044858714137899366 -0.011561573752192439
455 -0.013880957291321045 -0.016625845539248046 -0.005953868143645461
456 -0.036069656732285044 0.030210983603843538 -0.016160604044682586
457 -0.005882905106029521 0.0015454865724669569 0.005741192368262958
459 -0.0007178609098018605 -0.005783173790865662 0.006808902183198418
460 0.022525196335855303 0.007938590058779718 0.01112369181666855
449 0.0036631570966832935 0.0019481630015790088 -0.006254352281885394
464 -0.012726165817111909 -0.021604352741924 0.0038982440598022473
450 0.0051175014889988215 0.004318732985467946 -0.02830893614519038
3004 0.01139115512392166 -0.030638389232688263 0.0013066842874879742
2305 -0.007736756222325878 0.005182833127127499 3.794264769957124e-05
2313 -0.015948881116340855 -0.00816710326970857 0.0014359594118509827
453 -0.004903554385701327 -0.0037347838590693606 -0.011737787225537866
451 0.014250813982897606 0.0034509942917072033 0.010298113815099697
454 -0.0010106112321705766 0.015595688267195453 -0.01494362196475275
452 -0.011015196932718059 -0.00043591833106347447 -0.006434774336994331
462 -0.0035319745985458464 0.008520212644952426 -0.004308731861013501
461 0.001901747343522281 -0.019667234989278633 -0.015577535311880462
2316 0.044997454346878935 0.028077496760531367 -0.0030804527756546902
2314 -0.04913376871085141 0.016396550723951374 0.02013955681905959
2315 -0.0077976881179482056 0.004083060760716611 -0.013476897117703902
2306 0.03318375875523738 -0.023935449403819933 -0.01923143329630737
2653 0.03171123117693891 0.0037851001285004356 0.03339467920001586
2351 -0.0055938032319225 0.01659572024043549 0.01661593545218493
1957 0.00785159514436261 -0.0017555584829919693 2.779644376799005e-05
1958 -0.005258461816405879 0.03255928173925984 0.017812805770857545
1965 -0.0164243838480317 -0.03293222730811351 0.001537904231315707
2342 -0.006516194837844985 -0.015537147736303632 -0.0009555989985504109
2344 0.04028966580458496 -0.0029650959236126083 0.0463679720955886
2343 0.0020113954641272917 0.0007045900049486286 0.005238872645424411
2341 -0.004530009345291924 -0.011525428523270726 0.0003411371569146363
2346 0.021817248371854833 0.034336617214008436 -0.015379364712247304
2345 -0.009199289093459977 0.004855625591208053 0.017070814700689593
472 -0.0318839655550756 -0.018846693147147354 0.03672855935680981
474 -0.0021154217187025464 0.026803258969997946 -0.006994410112385784
2339 0.004688302768953567 0.0031891345983717312 -0.010356824032601157
259 -0.0029977673643944284 0.0036753468214081146 -0.004674579546226063
260 0.00799655756976761 0.00045874601710715863 -0.0027140826186224576
269 -0.025769421362677115 -0.003633602199251866 0.014579313611085493
471 -0.0032921125693783073 -0.0020822519887013263 -0.0036532697925163
473 0.009744678193021456 0.0058500722430486 0.012523113835933545
444 0.004474418145163114 0.00411908529324669 0.016252663277216323
267 -5.918823388265796e-05 0.0030347865740882 0.00035514383378040636
268 0.005305072373663036 0.004972632290701886 0.015405872661524055
257 0.003808614540722811 0.0006844956390925224 0.006655277032258982
258 -0.0013060968642126572 -0.033699658685333325 -0.026227171942879702
765 -0.009869143904667931 0.00895587702534209 -0.01608360019382434
756 -0.005047771740407069 -0.004771344844993098 -0.01087990780363203
1436 0.003622868731772146 0.011204389517284278 -0.03143979394374291
1425 0.007269183550348584 0.007611325085132664 0.0005908423988694685
1435 0.004400211263317731 -0.009663961454862079 4.7266401103909714e-05
1426 0.0013162036114905018 -0.019016748655191533 -0.005136417587619803
1427 -0.007062036038457659 -0.0028286270051796824 0.0008212641216992933
1428 -0.006770358685103533 -0.0019726164172746263 0.003457426903281774
1437 0.004524460787895592 0.004023095329753702 -0.009149164984560792
1440 -0.00772193525576054 -0.039066564331408746 -0.00035383231568153804
1438 -0.002346952699416516 0.006134127258779651 -0.0066621395675050925
272 0.007289755187789348 0.003725333801875691 -0.021950372136027605
1439 -0.007847002777044457 0.004035907246423514 0.030503222892210646
270 -0.004233544865966049 -0.006040921803565612 -0.004013662172835612
271 -0.013472418104638301 -0.01007623919748471 0.01897348022353018
2350 -0.004447912564216364 0.002138926045486738 -0.0038379145247160918
2352 -0.010797868278135654 -0.009902712905291981 0.008372761496626295
1839 -0.011945465544179572 0.004126731034638153 0.040987393101182594
607 0.009813581667612736 -0.00804963170302056 -0.03163992687084273
469 0.0013841678913078703 -0.012687324991972199 -0.004360829000688823
467 -0.0033263104742869416 0.0025900822222648043 -0.011408852633686387
465 -0.0032673187923055887 -0.00017423040636644588 0.001971844618104775
466 -0.01783580181060973 4.219974524948682e-05 -0.012355803678516821
475 0.0013805531918198615 -0.014602055689946682 -0.009252186490876349
476 0.015458654027163315 -0.0058379489028587295 -0.013642752645668093
2206 -0.005528143689509543 0.004728851608529276 0.006737403718964512
2207 -0.04326599332541996 -0.004614709740490914 0.001468379080927638
477 0.03409053280655335 0.034557432646360534 -0.01773223625334467
468 -0.0017818490144415513 0.006249055792358681 -0.00110344599477905
470 -0.04743453514161744 -0.008509457839382043 -0.02245782049597444
2208 0.02315018199605228 0.022152329219353513 0.0019877460530227176
480 -0.011443064897195617 0.015324273492108494 0.008780089143383964
479 -0.022894513211287274 0.01789443761338335 -0.033675176549506254
478 -0.004954637997842049 -0.005342253957202467 0.0007051467917407781
596 -0.00701365472879716 0.0036182107886384334 -0.0018592710379639653
605 -0.01477470981648063 0.025554812597974715 0.031223490667807365
2792 -0.025170275780610034 -0.006205000592559869 0.03170571451771416
1830 -0.002955852212913328 -0.012535399880880229 -0.024858620556336274
753 0.006786752004257846 -0.006862088455544037 0.010315706796460133
754 -0.0033360325721947365 -0.00442116471347365 -0.009368425349720327
2205 0.018986386467624843 -0.04264111233274271 0.0028914574501231233
443 0.012235178032056898 0.008888583770721058 0.007411189614050227
439 0.0011583732658059305 0.0029859501694350144 -0.01472297528854061
442 0.01181877487101516 -0.022552206917837953 -0.004464060574885138
441 0.005970697221462778 0.0026551536512753886 0.002410744477188368
440 -0.005673123201719574 -0.012319508637499345 -0.026470158384586162
437 0.004816861323510255 -0.002794802426855068 -0.0013480309247358895
1744 0.0021515711814560257 -0.02522471477245825 -0.011032180792542869
1735 0.0005915941131429215 -0.005838255346324196 0.004682128854673984
1733 -0.004645334734475757 0.009678837769529968 0.0018465496749422586
1734 -0.010598607686432912 -0.0019737764023665034 8.213662358938495e-05
1736 4.30735548124107e-05 0.042672240866294966 -0.0022102816809039475
438 -0.00957055817783962 0.005555282555867469 0.02875653358111054
749 0.019039960176739576 -0.005586647812735914 -0.02460331550658134
608 0.006584181169135219 0.04995705466875837 -0.004194288844091063
606 0.012164769543815106 -0.001352995240578004 -0.003602352394000132
594 0.008654978069632857 0.013060476220953975 0.06904780153520665
595 -0.002905420676702266 -0.006636268365734807 -0.003495456121480176
599 0.004270863821492752 -0.009942743004385931 0.00245495874976469
598 -0.01450713377780048 -0.021546660034280733 -0.030279563075601437
597 0.006091993385861048 0.007194733853285289 -0.004706834526190113
601 0.002679560586981701 -0.003410255955067555 5.6459776874003424e-05
593 -0.00026039633274231073 0.020017947431095 0.006911802179227483
1616 0.008186687212860859 -0.006582507736084397 0.013035605920725822
600 -0.027945117182521424 -0.011314741723497652 0.005496961204772309
2155 -0.003223197243156002 -0.004503270297403978 -0.012343279586634613
2156 0.00852918841795896 -0.0006384417637515875 -0.02621769328900296
3106 -0.013601798946223315 0.010427522427979998 -0.03136675141091447
2145 0.011313636522946447 0.0018694518236281514 -0.001722739651260704
1602 0.01606650947245322 -0.011996416763020296 0.02373199626016503
1601 -0.0048504088828026475 -0.016424605550173485 0.0038680565593350717
1611 -0.0026482937336163646 0.0004278862299590192 0.005419456138078007
1603 -0.005267212664001035 -0.002967395517493987 0.01051661656690187
2146 0.030023772390724845 -0.027131451208792054 -0.021683977068922704
603 2.8143215184112806e-05 0.005764378054509204 -0.00042745688395881077
602 0.013062904335669586 -0.00506170521056444 0.03613240328974255
604 0.0004891902031583975 -0.0032454004734717877 0.004129013895038013
1612 0.025919563264038922 0.05174319664844353 -0.01524537080247824
1832 -0.006928650825781326 -0.0170211838150628 0.022329949152843497
776 0.023652960589690287 0.034586578938872216 0.0077096522296511046
1614 -0.00750248952736628 0.0035840106169763315 -0.005393802341139818
778 -0.015057019451066758 -0.013191280942491697 0.011690266687017491
777 0.007996129309486113 -0.00927896940495143 0.011255220663669347
775 0.0019836319431065738 0.005657491090463903 -0.006490256652774592
1615 -0.008217383415127658 0.004479919344722409 -0.02646537581345345
1729 -0.009142072656554843 -0.009725828283544196 -0.002358123838267377
1730 -0.05413367991823643 0.011350125767689661 -0.02854935989245971
1731 -0.00013331789503982487 0.0036039421106020706 -0.010121423696069932
1741 0.027601220945162548 0.015956104906704377 -0.025904385846959872
1732 -0.007662284050084462 -0.004212684789150318 -0.004329019468103899
1737 -0.0050435232331443374 -0.0039561384175616655 0.00015102282112997665
1739 -3.10899871201041e-06 -0.005195330607309224 -0.00893646141515241
1743 0.012880007267372488 -0.006610998888523828 -0.02051608000898564
1742 0.0028800725054172593 0.0037301265755038085 -0.003790921931958324
1604 -0.01417695396420553 0.002898891827576101 -0.0044156415717719515
1613 -0.0025329226516560264 0.003169492409097196 -0.02056816767759015
1740 0.014604282374024774 -0.005110641122721351 -0.0016913623398298165
3327 -0.0157322265807536 0.026458407622759108 -0.03490635867328727
3328 0.002218380704226007 -0.013110012919104692 0.04122300520323374
3326 -0.0025620104596074207 0.008432796555457422 0.008088505434077633
780 0.014687249762336527 -0.03353577618052083 -0.0057672665822264615
779 0.003370657202206454 0.005813935941122125 -0.005618349434403665
3116 0.018989889408006583 -0.001360515351841981 0.01773568548552785
2149 0.0037895212315145073 -6.038598707381784e-05 0.0011880579606186221
2147 -0.00018587438993670417 -0.001301132592073836 -0.0006787831505581537
2150 -0.010566760472404351 -0.0032380049093957823 0.027808676994270663
2153 -0.017679867127780025 0.009904853824265505 0.005994577458241746
2151 0.0006285300261273268 0.002431663298316419 -0.003898915396050432
2152 0.020412781814151366 0.039818706378624114 0.004203075389242082
2154 -0.018047751478532575 -0.010213481578170227 0.006965749170825442
1777 -0.007970607720454197 0.007263180652901956 0.0005852802060667598
1787 -0.0026808352107567427 0.007981636824729783 -0.0014357597968661085
1788 -0.040884688615304046 -0.012073177841926233 0.0002937660249166366
1605 0.013822191357114167 0.005053540635046439 0.001379173546125308
195 0.002861611949569024 0.005555499672280333 -0.001055890387707956
1607 -0.013622578973161242 -0.006110303350336262 0.010606244628415418
197 0.0059243244378667775 -0.003185052892876639 -0.0024524943827847825
1606 -0.034190141265753544 0.016167676979971457 0.014636023438089394
1608 -0.0189906729274762 -0.0037347127928199775 0.03596231374189609
208 0.01302541207438131 0.04147480072415206 0.0014240543262051333
1609 0.002717880937753628 -0.0014520757288107458 0.0030883995159840644
1610 0.029439611742704833 0.000595210362217541 0.030500282353962956
3234 0.015749766169866765 0.03750923052300773 -0.01789246227937536
3244 -0.005538498249336147 0.03441695574390557 0.015327248050908607
3243 -0.004125107497284585 -0.008462247653117504 0.009055894095722834
2148 0.006878028246094653 0.0015086214437007683 0.0045956155726075126
2157 -0.0018290007111065314 -0.02438528109920886 -0.015057047949431987
3245 0.007291828096782861 0.010334067373665462 0.020449984010765428
1778 -0.03581011502579844 -0.013650662273004766 -0.02494919710592566
205 0.021099165366792186 -0.011148311768475333 -0.04476664572327408
196 -0.0007884286294819561 -0.006811250740859408 0.010904849710279236
3325 0.009062153834174847 -0.019406280156423334 0.00554669771649098
3316 -0.01104754415912834 0.0057882421402628195 -0.0074170651602765095
3235 -0.006451923798130721 0.0026485173942437114 0.004471288349330262
3236 0.0015371375855797711 -0.0031445200142874476 -6.671028266535499e-05
1790 0.005585822216902058 0.0024685978045426607 0.0031101462641681204
1779 -0.004204686035506296 -0.005840195499836873 0.0011637064676257563
1792 -0.025407292271491893 -0.005189535164064363 0.008049073937783606
1791 0.01701048999864495 -0.016297421702665824 0.026432351327570706
206 0.011153969465787422 -0.0035596923600707646 -0.003337347349123313
1789 -0.006530117827246522 0.018963238246786657 0.025885823039422082
1780 0.0011549471645070722 -0.004731269563171041 0.004226801790405439
207 0.04506227262645286 0.04055591039742814 -0.00768345071775158
3233 -0.004803066425485235 0.007092124334928578 0.004632708647448488
1783 0.0015042337861855344 -0.0038433563321063164 -0.0024850013271200976
1785 -0.017313195938547944 0.00216098728086608 -0.007620315100538006
2499 -0.004733445529850631 0.0005865035641252162 -0.0002616038606732481
2497 -0.0051265359592309965 0.007636541076458896 0.0006812402390493327
2507 0.000897062118801815 0.007108780077755567 0.0005515054700069497
2508 0.0039163149554133185 0.026273181122516417 -0.004821855865225329
2498 -0.033795358597007934 0.015992083849649088 0.026634179275213218
2501 0.005081914625653595 -0.015258101136425187 -0.0025348076370688795
2503 -0.003854414440590449 0.007178818664900674 0.00045456311400990813
2504 0.014452260635444122 0.012008945643604793 -0.007711063409071918
2505 -0.005654101975828967 0.0008290970998785697 0.010124684768570789
2506 -0.03226617298520748 -7.31891718409337e-05 0.0015929574881723206
198 0.024802395612335996 -0.005093000426344757 0.024584522909915814
1698 -0.016686367583840744 -0.0019560104292850843 0.0036313690413499176
1697 0.004493333532507915 0.0017510395443512334 -0.013328350661217073
1700 -0.007027264906569344 -0.0040233487738442425 -0.0018428364379295427
1398 0.008969397158339708 0.010132500879389888 -0.031146824252901703
1699 0.007505466370121136 -0.0008147235767930922 0.0032162489871185025
1786 -0.016821950808182873 0.008024094285788808 0.0040872463466070244
1784 -0.0026591226311597225 -0.015463226120888298 0.002659673676861999
1868 -0.0002619413881441818 -0.010680060754702578 0.01631007567763496
356 0.011732170258552657 -0.0025063694511969323 -0.006359411509251604
365 0.015582180261713178 0.004185967254582566 0.016113620248645655
354 -0.001103181591178123 -0.0007431611282635828 0.013075236589627212
353 -0.004054352723974972 0.005130797015096135 0.01322399433302375
355 -0.005707780699957139 -0.009900569037548322 0.005248388940431419
363 -0.0020005687643335004 0.006203691891448435 -0.0016197476005238311
357 -0.0007027289987495025 0.007669442641767069 -0.0058897709596546334
361 -0.011838090078232144 0.0008670796729391479 0.00818121758159233
358 -0.0063422556201634325 0.016683009993187538 -0.019709413911275186
360 -0.010799642283553021 0.03555288067258868 0.008746256394629772
359 0.005646353959489356 0.0024616423901701067 0.0023534291693483697
364 0.019625142450375038 -0.0006612746650987368 -0.008914875840879246
362 -0.02046733566781037 -0.00046941823596320463 -0.014940757246387692
1711 -0.022499021777052746 -0.00023333128368312493 -0.027517326942250418
1781 0.0033886426162839317 0.0022900753755195446 0.007316752240219334
1712 0.01070204479715253 -0.005339376886199075 -0.002462363590001089
1710 -0.0011094175725540002 0.008097432241315296 0.0008174249588818108
1782 -0.008857351338959487 0.0005741212087659446 0.028453511781122588
1400 0.006508762130300242 -0.013153621842251996 0.01770975830340388
1402 -0.005618492500879988 -0.016772027873627023 0.02301110213290467
1401 -0.008692653262840537 0.010280718549654741 -0.004330041829857528
1399 0.008262127617905589 -0.0028184408410373493 -0.00118154960749606
1397 0.011362181935408788 0.013519181555476304 0.0054022622611750205
533 0.002417787070348683 0.004671926032925849 0.010284183489773965
542 -0.005974292456028389 0.006972342986542037 -0.0032415736320911873
535 3.5205564735225133e-07 -0.0039300239850767905 0.0015508715252195578
534 0.001456337110930118 0.0158397605991604 0.016770714446244058
536 0.011102605869204432 -0.01465713735568407 0.006354587816188939
532 0.008065875348564048 -0.003109765503951161 -0.0008861648566076368
541 -0.037357803041531745 0.0012462728804209843 -0.011493817932768994
1464 -0.0006709404947188026 -0.045818525950344996 0.00409923344208222
1463 -0.007200556124949416 -0.002667835084332622 0.007953586509768521
972 -0.0024409782354898437 -0.00598981212219847 0.040263159383001054
962 0.01754348378371059 0.015918190093006795 0.003915703937511953
1465 0.005098354332343355 -0.0007343313962716573 0.0015186496389891523
1466 0.0051341467043186095 0.0002890445307204099 -0.005409827497096498
971 -0.006047305396904895 0.010594057543473256 0.004076330315919006
961 0.00020849021440266593 -0.010773339179534464 -0.00029713734193370075
963 -0.00014418974869517175 -0.005130005235221586 0.007808209965420349
543 0.004212519632286006 -0.016635705440976204 0.03784862259224745
1468 -0.003307581537510529 -0.005739377711233213 0.004438413510301726
218 0.040722356698351614 -0.01098284535097881 -0.014389817228137534
1407 -0.005422368866290591 -0.03185013534610249 -0.0038681826623590478
970 -0.026427787982964798 -0.004896187220496369 0.02482938709425023
969 -0.004288264107179511 0.011031206202197573 -0.005206156568973472
967 -0.0006498074170463796 -0.004883077266809599 -0.0018914166762109906
1704 -0.005075037464053776 -0.01279987570401105 0.011090120917075107
3263 0.017055722862847005 0.02133417143802921 -0.00785986134743445
1457 0.00666036416465591 -0.005084727573187956 0.0003277799827266188
1462 0.004792745022460193 -0.005053380764313514 0.04411594852769099
1461 0.003394017458450181 -0.005724846312283253 -0.007657434724860164
3250 0.05497937930087451 -0.01623521079614017 -0.02064893655681988
1460 -0.0005623071500318679 0.00637298295415317 0.003451413591356935
1469 -0.005111492601175695 -0.013892899513245105 -0.011002142339663096
1760 -0.007955949497022835 -0.01386006860825484 -0.0014638032731794821
1471 0.011245442589739803 0.009876381083275753 0.003114692614800825
1472 -0.009867009496256011 0.015152794505397324 0.005498225580953119
1470 0.0024551113808647367 0.00817727720516341 -0.010261637684384898
1459 -0.004629841182816365 0.009195417273049213 -0.0008741346717798119
976 0.008922650879160438 -0.017421967987159535 -0.004228351757838453
1467 -0.008814573962165543 0.0028793341572676393 -0.0024225290073722353
1458 -0.02693817536126981 0.0037532530777352716 0.0032823187588341446
1094 -0.03680887176660075 0.0021236133341822456 -0.014115775430775598
1986 0.015728799114017655 0.019040163554256046 0.0037914087014825773
221 0.002792996877112366 -0.024296395626605502 0.009651173030219166
212 -0.0019743710168993052 0.0021325225551889915 -0.005120194279174313
1658 -0.0017167449009722528 -0.030106665374589985 0.007621548675178797
1093 -0.0008703082314455739 0.007509676925676535 0.0021941805021816045
217 0.0017669961724834109 -0.0012831521732221249 -0.004794861283018949
216 0.023940897516017023 -0.0015859664903097514 -0.011791649568863883
1091 -0.0007853134410485222 0.0002434112899272686 0.0062878086595104556
211 -0.0037137718109382465 0.0088638989656919 0.0045791011062073905
213 0.008162320689728246 0.00216681775254647 -0.0009721325114271966
215 0.0008674191853474507 0.0032642431557708424 0.008040672819784633
3370 0.005151354092140161 -0.011719172356949867 0.02552195266727555
3368 0.027341680796526973 -0.015724034911572093 0.05236676961508348
1096 0.023696405258280238 -0.0020683083510534966 0.023042979372675385
214 0.003604374144144348 0.025823809564874955 0.008260136300052819
1095 -0.003733486502001873 -0.009928323450164249 -0.009016869685619468
1097 0.00405944046447323 -0.0006603731179168917 0.006299581716267394
1098 0.02889649588759826 0.012128096303600235 0.005332207605376631
3264 -0.030079181965582295 0.008790530006128665 0.01598061454398126
3262 -0.008764340894389445 -0.002947092284140379 -0.005082240852958084
1647 -0.03146250396030172 -0.013632283050272719 -0.03899755079686003
2354 0.011412496616088272 -0.03990386096935983 0.015305143635649865
1656 -0.01740949647205114 0.00395777709349322 0.008405697561151343
1089 -0.011774181522583515 0.0231555287759656 -0.0030797169506753892
1090 0.012578253947896268 -0.027516194904150842 0.04619361505948476
1099 0.00920763523325402 0.0012792447712797817 0.001806899431826933
1100 0.007474620510886807 0.01627274654641708 0.009861447029634809
3372 -0.021870796020905338 0.016617193156079128 0.03691383512163275
3367 0.002766380981914008 0.0007633367652786428 -0.006686756081993684
3371 0.003695891033544649 0.005828401170799304 0.0016887458916525116
3369 0.009059217656186665 0.003187591671219701 -0.01002463456184695
3373 0.015922509373149808 -0.013888554662217278 -0.011567829676572687
3375 -0.0053270497166318645 -0.017987720338053396 0.009443275147309133
3365 0.005253467909898386 0.0010211910485208248 -0.002793396280941468
3361 -0.013459577479366764 -0.0014098085390132937 0.0001497751166078249
3362 -0.009395587965173103 0.019083469332903162 0.02881822910708954
3376 0.05007985396915069 -0.016668657353804565 0.003948297226495655
3364 -0.008961388176618413 -0.0036417528271753537 0.009794060603140134
3374 -0.003134300464449566 -0.005003882494671021 -0.001264235667485155
3363 0.0011846036433939629 0.004373981240170026 0.01903807833871715
1657 -0.010619343480334092 -0.00025097675947172474 0.0058943297002324035
3306 -0.04865493318307024 0.021671648895068753 -0.01924269616406922
3305 0.004291803703110974 0.006726604218254617 -0.005525378724265469
3307 0.0019670719913345196 -0.004095323692386933 0.0012510845293757448
3301 0.00954037983491839 -0.009225856425150334 0.0064770230221487335
3303 0.013212409980465583 -0.0037973299322460784 -0.0002635108615022796
2227 0.004197686898387278 0.004721259368872649 -0.006956640220279867
2229 -0.0013280055687628408 0.013250702496860573 -0.003214091005447775
2230 0.004990863791239249 0.02874583389705687 0.00932483264125028
3304 -0.015506191811918157 0.01760136669618728 -0.006564216634860193
2240 0.01892849967121639 -0.022989210643765794 0.02606981811497024
3302 -0.005136064772074678 -0.04832186444874729 0.027998511550311914
3299 0.002532283797230763 0.004511732655312601 -0.0060907481397758315
1368 -0.016448414544317055 -0.00883344093784069 0.0004068133600321207
1367 -0.004218533938700742 0.01055004410856231 0.01004429118357577
3300 0.012660237140675485 0.009966403981545415 -0.0034005080901771214
1370 0.03344257790519849 0.05049082466292761 -0.004360992634960604
2233 0.0012232779094105777 0.0007935882546218468 -0.0002987047912865059
2231 -0.009752582270207087 -0.001803004069722153 0.014351752094413944
2232 0.01885426421346045 0.03672628611311677 0.020294184174535098
1369 0.001986251347641072 -0.007485733503667474 -0.005127444933956767
2319 -0.0014516644653541453 0.031039618608916675 0.02069170305509268
2353 0.007963317752922926 -0.013742657691045226 -0.011740507476277874
1655 -0.007431383342963652 0.0010186449130224985 -0.001049544379083573
2363 0.009867911354327732 0.003831156194073421 -0.008585703199860345
2364 -0.004849581629257142 -0.002099358276708179 -0.012249252604481457
3366 -0.0203487291803194 0.014000086662376754 0.02594410642620298
1654 -0.005752217013019961 -0.008591369867893547 -0.01115171283788725
1653 -0.0014075983343586178 -0.0006615193000566108 -0.0010969422879482458
1366 0.03662804289964863 -0.009874821920817236 -0.001683795913692685
1365 -0.0011278962730167598 0.00042486793806873564 -0.0005701278034005269
1363 0.007802030091642201 -0.006325603526090049 -0.003865042954256567
1364 0.006904422641208398 -0.005389139337406589 -0.00883508051230454
1374 -0.004519105342754939 0.0054521729451235115 -0.006614272598564095
1376 0.02555919554845766 0.04396470108734203 -0.0026572680251742546
1373 0.0015305312310108991 -0.02605791909779728 0.014748510231888152
3310 -0.009142131741813803 -0.010052004053388198 -0.0026901742530211913
1651 -0.0044333290798048985 0.006579728211851009 -0.0021449978480389026
3312 0.013477868696937793 -0.025471864545281317 -0.019798189310218536
1661 0.00733309902838934 0.02556226870768767 0.06440953736528651
1652 -0.0036986159768147573 0.009706524917963755 0.004558482238254425
2784 -0.006439527298237811 0.0006261325087425555 -0.029966698403253167
298 -0.019264657214481104 -0.0174705144244382 0.010318527532298017
297 -0.0006373881223476567 0.006588466547241622 -0.0008057588265290059
2317 -0.005088094978963524 -0.01889339297488239 0.014033089511474486
2783 -0.03490018882403342 -0.020591586035134637 -0.016955382262568895
2782 -0.006377007976993398 0.0013946398969683224 0.008430650617288309
2772 0.003398716432443069 0.006767364517374802 -0.007351122217704618
2781 0.04598639640963304 -0.029592310653678795 -0.014677889936625572
2771 -0.004568356662735942 -0.0014127052179331314 -0.00552424561163064
2318 -0.006660255521785441 0.013832808714141408 0.010348239192221538
2234 -0.0008076734453465044 -6.784639888278021e-05 -0.0005079612508094567
2235 0.009690932658151307 -0.010463430586138732 0.003576902119065513
2236 0.018055780563275187 -0.011681481764322292 -0.010497550734623733
736 -0.0029421802269422367 0.013698067880962818 0.02027064206268346
295 -0.002837943695940651 0.0020091097599153136 0.006233746581847944
1112 -0.029985660910932212 0.039793336318100364 0.02686140229052695
458 -0.004520171330281603 0.02434667210983618 -0.007074497854052244
3311 -0.0029937324523932555 0.0021756824749913964 0.0036174626210988734
300 0.01666190515898634 0.015099322869231723 -0.04201927211793143
293 -0.005098752270658217 0.0016634120103338822 -0.006397575095202419
304 -0.011645342338943893 0.012547807592435328 0.005776454806915143
722 0.006186800520049739 0.022452717944981274 -0.002437993529312393
291 0.00929954080558138 0.004205784877794337 0.006891168029605589
289 0.003025882020137612 -0.0010829309465608772 -0.002493006635439904
732 0.04594919354693587 0.018129655321178433 0.003762089629507292
299 -0.002316476097853245 0.0025532749064861695 -0.0063454668866079035
723 -0.0038175065543415865 -0.0037312932587300527 0.011669110672126313
290 0.030621693849854054 -0.014450260987706609 -0.0271015083830889
721 -0.003694406166751235 0.002035663060632187 -0.002643588220096027
729 -0.0010888891620508562 0.003254715893773855 -0.004150660232221175
731 0.0012884038933056471 0.005231988419473101 -0.014904490621411609
730 0.026716026740593517 -0.005693644538819216 0.009967881220460982
725 0.007396282928814435 -0.021830591648586743 -0.016178053577482567
728 0.06373545950831698 0.013063334212211277 -0.021717216963085526
727 -0.010688187743743367 0.00823523233624593 -0.0032922839369822847
724 0.005481265460096732 0.0062056052877876265 0.0048730627790109894
734 0.0012931931499563926 0.0026203182459748164 -0.004547636984906824
726 0.013448772877358678 0.023768236665559318 0.010371693422292123
1548 -0.005283432865250262 -0.027466720712525747 -0.002802826298702525
1515 -0.000610787518583598 -0.009612472839320357 0.003849429507696724
2347 -0.002324931654948459 -0.003860424849922941 0.003802319913178921
2348 -0.06256054195469611 -0.010147470919708464 0.01872564136088425
264 -0.011330600862313009 -0.00558948404456108 -0.011674799938593147
261 0.003140011356724405 0.0063476212445426694 -0.00124247311176303
263 0.010474364803045342 -0.012105256432578194 0.006095909372972296
262 0.002876649150149233 -0.020125802991463892 -0.024339282957857387
2337 -0.0076902788910039694 -0.012992682958962753 -0.0027785021957935025
2799 -0.005675039257435948 0.0012966178945431966 -0.011864355182819732
2774 -0.012368335246571684 0.02045120330055957 -0.014048330251150657
2773 0.0015631544685738203 0.002135052210021326 0.0011570150646753705
266 0.01910368029919902 -0.007167858350501408 0.044078277525029644
265 0.007394731075262329 0.008519083305834407 -0.010958035044746527
2338 0.017786168532745762 -0.002773325087808783 -0.040961768841599605
1547 -0.0022459970952668482 -0.009418591164476641 -0.00010796820564767321
1511 -0.009406882331742769 0.0009275450321235715 0.002882110462325543
1514 0.009150534034615547 0.03429630823770171 0.02579391168338982
1513 0.005347339176357845 -0.0012448391463550082 0.009654361599779912
735 -0.0036949811077434344 0.009205719409442013 0.01148664339585423
1113 -0.01036620894936842 -0.003967802367858417 -0.00355987298065657
1114 0.015853190578361265 -0.01106153453338342 -0.021245943249146006
1434 -0.040519144076997846 -0.030714241810350894 -0.006081188156983126
1433 0.0002482984196494139 -0.004851221981029009 -0.0021219304953500875
1431 -0.009703377823657714 0.0013055608285566294 0.0017632511903398688
1429 -0.0029587381919099686 -0.002241579754189647 0.004423618241626832
294 0.019350994617502622 -0.035934543570672786 -0.007469147577401844
292 -0.009108518434656317 0.0031312459304968718 0.001821028303317421
302 -0.0029225494220823443 0.0031950029257386625 -0.007808867126478401
301 0.0004989892524200818 -3.897516948553759e-05 0.012976509997087967
303 -0.010640745583948332 0.016249998245412994 -0.013371116074743613
1537 -0.0049781240118471565 -0.006168155407479562 0.002999706341134465
1538 -0.043491101818290204 -0.003881782963970076 0.01559248598199577
1539 -0.00739118604447585 -0.010646708266701697 0.017278785999992472
1549 -0.017346135141538602 0.014697526519389104 -0.014421871044767939
1512 0.0024834760229791976 0.011608757915073526 -0.003837046883755067
1432 -0.010360856468505363 0.0013932546096843863 0.03220337798531257
1430 -0.004942328254000066 -0.019844311798696283 -0.00915566127824005
733 0.013155629099824146 -0.034353222938399194 -0.008328092051899931
1550 -0.005195984268283761 0.002107240755514372 0.00043053567720269546
1551 0.012994679231844667 -0.0025941712508521226 -0.004217380349974073
1552 0.009741265891180855 -0.008996543303452934 0.024339448901820014
1540 -0.010988979494944949 0.007360293348898989 0.0033946057673598954
1509 0.0028047412904690545 0.0022515267475703943 0.005537086755882579
1505 0.005460331864673936 -0.007030176645623882 -0.008092790551366608
582 -0.005382533098542675 0.008595053016885382 -0.018571675507643312
2786 -0.01101378633599954 0.012996086492542757 0.01392954909045488
2800 -0.04690702176293422 0.02950175787239807 0.031534081953387555
2787 -0.004446422418761935 0.004818141222933338 -0.0053513662384793576
2790 0.033097271415124446 0.010214855674117273 0.005474549647650028
2789 0.0026342076089607078 -0.0009000746271512796 -0.0006029945868416699
2796 -0.018262848489565126 -0.03619422874401719 0.010440604112061535
2785 -0.012279784082543276 -0.003884070564729812 6.579560143598225e-05
2791 0.0007798490793467237 0.0031370709831826955 0.0035901997904916223
2794 -0.024777342449928897 0.023620010066441145 0.010463113283519763
2795 0.0014468255760370788 -0.0005711980660542646 -0.0010182336881312476
1508 0.005291906140253506 0.004574932300880139 -0.014284566446297563
2793 0.0011238043639498457 -0.00657774175453149 -0.002927212139179533
1507 -0.007050307091762766 0.008750096898506532 -0.0034686738624453294
2798 -0.00749196498617772 0.006368326983499703 -0.004188640750890841
2788 0.007638255517433465 -0.0024481055704752863 0.0059978799916470486
2797 -0.0014214407919099549 -0.037061890429364766 0.013556816992580399
591 -0.03207852787675235 0.011477413182253928 -0.022169799253543447
2748 -0.004590606674868757 -0.018440498586047793 0.024032791961171127
434 0.02118748363511442 -0.022883483032217173 -0.011726150550061641
433 -0.002754420793849486 0.0006018390390860466 0.003531221453183516
448 -0.01802192322219633 -0.06728417831973663 -0.003317455011418742
435 -0.009467587367563755 0.012925298537695425 0.0032866144147454977
1039 0.049725753321877786 -0.0025438419436056244 0.03195587053179658
1518 -0.006218459485366357 0.002619859175099013 -0.008507701650211282
1519 0.010372746303831304 0.00682316220053584 -0.027263509299153783
1517 -0.014006013656849003 -0.0059470336763986845 -0.02509255312829119
1510 -0.012472038345773569 0.01147371215224194 -0.008638558618225265
770 0.021005968914279746 -0.02074938665335062 0.037991461884134874
447 0.028580943514515077 -0.030582903586864784 0.008734247007618877
446 -5.6258445356176995e-05 -0.00359435972785474 0.0002505494810569127
436 -0.01410101349628157 0.001458162365287102 0.0030998268065267026
445 -0.006249329701897303 -0.01374708832654872 0.03419201394297135
590 -0.01285304726876758 -0.002984661166948232 -0.0007019716093530873
592 0.03355854635320846 0.005539658343233945 -0.02310007662242115
781 0.020344164263841297 0.00025460044909838105 -0.038675896457041704
772 -0.00422256051018897 -0.011309098614678516 0.0018075173147659408
589 0.04531004605506443 -0.029512381204405733 -0.03410774939852061
580 0.0033259252804354322 0.018883551555489295 0.00046257467930300484
3105 -0.0018230491160248462 -0.009990179968588824 0.0023351503636280654
3119 -0.012743970908030701 -0.013906983289506037 0.0046146957483600695
1152 0.02600521582967748 -0.0014676543412233888 0.011119844492188554
3108 0.004089410874775362 -0.0023395127846108864 -0.002049045567272169
3118 0.00852883668368578 8.844863536837088e-07 0.0055147424677568085
3120 -0.026160962195815235 0.02102598975012743 0.021910757320706558
1488 -0.015855748185686087 0.013072588365031314 0.0013808239821930432
1487 -0.0008572041859792024 0.006466407112575787 0.007241410541293534
1486 0.006045121936043184 0.002772096119516076 -0.0025281468388797324
3109 -0.010825503062315467 0.002899804608666627 0.0016305466401037325
3107 -0.002861023782727012 0.005251782267102794 -0.007200526197353352
1476 -0.0004462339540884531 0.0007572385157586661 -0.00208418099494257
3110 0.0015217932348410793 0.005590759801788752 -0.030893507594157373
1475 0.006307774101754434 0.00261070570490415 -0.006958264979944671
2739 -0.0020096396891247557 -0.0014411225631521234 -0.005071624914794298
2749 0.00242596975731795 -0.040572069688806 -0.03223545077970043
2747 0.00037097908856648776 0.011220460882224967 -0.0002228952422845489
1738 0.011312301858271645 -0.042067897197635894 -0.001736030444132325
769 0.005821397255480798 0.00037204032655671306 0.006377475116696117
771 -0.0037157008777239653 0.0009659635971235997 -0.0010736119549741364
3117 -0.02240978543451463 -0.033252193520097374 -0.005005653515745777
2740 -0.004166077244059528 0.0006581998739273948 -0.0042969206242749036
2750 -0.0018231549733586042 0.001746676228608423 0.009666879812301452
2751 0.008874515688547385 -0.016682889629124006 0.02616532334616392
2752 -0.0069395440625299966 -0.005189677489543675 0.031596535865165705
774 0.024825142555889836 0.037054696254161204 0.021560712426767468
2737 0.008221452493021336 0.013065741908062927 0.008707446563526362
2738 -0.0035792274514252153 -0.03879536840603369 -0.013138322841169064
773 -0.008271600082469716 -0.0009631227877086179 0.00666520385499606
782 0.0035785555498487665 -0.0007717584271808119 -0.00490521479191379
783 0.017203595107122688 -0.012177932303631579 -0.018618576301403525
784 0.0013316178364701624 0.0034422149060541144 0.011714699977038863
1485 -0.009733152627698648 0.009854469093019722 0.01627270965608486
1479 0.0017773125093384886 0.006617326504485068 -0.008282146286783285
1473 0.0006957647847891531 -0.0014701071261120269 0.00429001316838613
1477 -0.006691466795335351 -0.008025647781708828 -0.0013095666096120992
3248 -0.005816608742482563 0.0011867374068667248 -0.04878504089288502
1474 0.008985921744363367 -0.030682874546208334 -0.013224445729358342
342 -0.05512093970968027 -0.003805685761090606 0.01639018663513308
2543 0.019552718402807288 0.016669892231729898 0.008846536497885995
2544 -0.0050341709931085755 -0.010095506278672759 -0.013929294071264293
344 -0.0056832282340337735 -0.02263398726573503 0.02121309006700082
3115 0.003601024341895418 -0.0048967647661957246 -0.005233961953074755
3114 0.0001680719013101025 -0.017984554090397002 0.0030396289479271144
3113 -0.007419673847239921 -0.004898048068869287 -0.0007925530075167336
3242 -0.008864066440214292 -0.0007637852336727893 -0.007020739546803035
3241 0.0006219088924381441 0.005675203920889294 0.011998433474032793
341 0.01184289298209287 0.0014036174457814031 -0.010955754739451632
351 0.007211945320549532 0.01916092877103237 0.03682805546553288
352 -0.0065399358579007515 -0.0004152537651232459 0.005806562772590285
350 0.0020255366047200133 -0.00495185000655016 0.004309335109110522
340 0.0033937617321385463 -0.006660172931235943 -0.008919639915379696
3112 -0.022843839313111867 0.022270703757709037 -0.023216609035114896
3111 -0.001902879009952758 -0.0037014051730792294 -0.006680596860335775
349 -0.001402944166771556 -0.00924089455957141 0.0008955711001058802
339 0.008033529150546097 0.006391453843620878 0.000545817262168189
343 0.004031158367106093 0.0014610397837120075 -0.0075795219850831215
2524 0.01675903286257116 0.030775151144191836 0.031308871761984144
2522 -0.018556450728362168 0.01019493421182633 -0.005355611877906519
2521 0.01125939009503274 0.008721777732369476 0.007388086158098705
2523 0.003198158640570311 0.0010504801294514239 -0.010461653619325051
3238 -0.020392436844389832 -0.02379284911035551 -0.004078735771985703
3240 0.013824510402408514 0.013638653898121642 0.028151794835434195
3239 -0.0030763017641984463 -0.002486638515010594 -0.002025972884386845
3237 -0.00476382027058558 0.005148415003537984 0.012052768775750339
3247 -0.02703952297942649 -0.028966155329373477 0.00235334889557137
1482 0.0077354953168768505 0.024101549837356365 -0.04753188671863221
1481 -0.0006351610374944999 -0.004774303852148437 0.0011435972854858822
1483 -0.0033154726323156576 0.004297434277161271 -0.0022581762666111856
1484 -0.010188288036685804 0.020848057829273726 -0.02179319933837753
3246 0.004922651184308268 0.00023888185121202657 0.00699786351603812
632 -0.015696256286814723 -0.019072978307804037 -0.004701827410598768
635 -0.0035466708456639837 0.0013674729433142334 -0.002844486711567498
625 0.0005175153269688552 0.009611118915752283 0.0017989175660449838
633 -0.0007937629168489084 0.0023004820030394784 -0.007849922611467663
631 -0.012716983929897768 0.0014621478671324507 0.002842291829943771
629 0.0075382490914471904 -0.0012317315720846642 0.008865412159243484
627 -0.0052387489706526135 0.006262751867573488 -0.006462734542777897
630 0.011959330631021909 -0.003718164193503454 0.007306073695275235
2513 -0.002369180929383831 0.006479842316591927 0.005859174729160291
2514 -0.035310277763289204 -0.037872771626603643 0.005328404977930509
2525 0.002335575076937257 -0.005650790620637808 -0.01922514718362224
2515 -0.005962081761749819 0.0024895630053106575 0.008626913739418993
637 -0.02179582373387041 -0.013550138104421466 0.0029341571491362023
628 0.005070812180716533 -0.0015363603866541263 0.015098658681366494
1216 -0.02898577581567942 0.024124400759517422 0.03323592301532315
1215 -0.017031800693153968 -0.0013414464735475873 -0.006725188004506528
1214 0.008310563923251977 0.001358772397702829 -0.007426765901300546
2520 0.043138688164899436 0.012691480456234664 -0.01866836707522069
1709 -0.00542235764864839 -0.0331226875280884 -0.006425849721396148
1707 -0.000771866524870394 -0.003878095625726111 0.007426261154274123
1708 0.006482155107261362 -0.01432105579435433 -0.001981236303851901
1701 -0.00048297712591980073 -0.0015772357169108573 0.005410949816141256
973 0.01869132558138077 -0.03303103325954587 0.013026234137854026
338 0.01896058961980479 0.06748330991465393 0.020948556419457424
346 -0.0036541148504217716 -0.01026756099630596 -0.018618263790720367
1703 -0.010072745964635435 0.0028298055382719287 -0.006659301758470782
337 -0.004730831324777079 0.0014310659160072414 0.005596809896186647
348 0.006770312164934788 0.004845692705211576 0.03826795206386478
347 -0.00300683406997522 0.010918242010954527 -0.003083163702141673
345 -0.005487664093763761 -0.006583343892394859 -0.004589153412912781
966 -0.018829330524097184 -0.016628424195108397 0.018486521436470633
965 -0.0037803451851299887 0.0046523987561805135 -0.0036037443382748555
968 -0.015069067265792272 0.04385037467667961 -0.013781213205599024
1706 0.009434487784893395 -0.013873437735161136 0.007794809230530884
1705 0.007177346048550806 -0.003694756536053604 -0.005644315993425878
1408 -0.018106385924590924 -0.006600666365445094 -0.014659656356420744
1406 -0.004995017184248179 -0.011584588881351282 -0.003744088859322039
2519 0.005864154818532917 0.015295062240271037 -0.0023871190200962073
640 0.0190111232964226 -0.02583753636084913 0.009129425084951863
638 0.0026569414523735933 -0.009348038354138798 0.0011625952739079094
626 -0.00450867070898659 -0.02538489193505582 -0.022507819761586372
2527 0.015934270254000387 -0.011711253046790394 0.015028987752944705
1702 -0.006668392395071284 -0.014101378527323549 -0.006211977719776221
1403 0.0006283230078111985 0.0013027106587091089 0.0037767250155023983
1404 0.0282545563098709 0.04177820440533605 -0.0012219685395192085
1395 -0.005598004662527944 -0.0018870377445412796 0.0034233697762154815
964 -0.013297314331319615 -0.0023836520760345684 -0.006436153260530691
974 0.012053870019961407 0.007080691034843508 0.0008358439026576034
975 0.008554939202230905 0.0010390541514519324 0.0200013435783438
1202 -0.007259912633573122 0.014576337518757927 -0.04218488574257673
1212 0.023824248239811625 -0.011778559157666492 -0.018486613707281795
1405 -0.0022809436607073726 -0.0056105781230137335 -0.039810923889254
1393 0.0005499486164826195 0.0044008490624351596 -0.008717404267589894
2516 0.007042969645606423 0.003765094545253666 0.0019285614815356298
2526 -0.002036903401715647 0.010207735533052006 -0.010440086856394406
2528 0.020313401658647614 0.004552871163151355 0.014578226807796957
2517 0.009759364489743367 0.0009638567217990835 -0.00793387906710433
2518 0.027769852045159697 0.028395338444694402 0.008826883292520111
1394 -0.023620123253715753 -0.005463992924012888 -0.004792823239711357
1396 0.010386029308327402 -0.003363715837900832 0.005009090769521377
639 -0.01654986220747641 0.002044634397571858 -0.017068100046137905

Bonds

1 2 1991 1992
2 1 1991 1993
3 2 1989 1990
4 1 1989 1991
5 11 1987 1988
6 1 1987 1989
7 4 3101 3092
8 6 3103 3102
9 6 3104 3102
10 2 2837 2838
11 1 2837 2839
12 6 1599 1598
13 2 2839 2840
14 1 2839 2841
15 5 1988 1998
16 6 1600 1598
17 4 1997 1988
18 11 2835 2836
19 1 2835 2837
20 2 2833 2834
21 1 2833 2835
22 1 2833 2843
23 11 3251 3252
24 1 3251 3253
25 2 3249 3250
26 1 3249 3251
27 1 3249 3259
28 2 3259 3260
29 2 3257 3258
30 1 3257 3259
31 2 3253 3254
32 1 3253 3255
33 2 3255 3256
34 1 3255 3257
35 2 2843 2844
36 2 2841 2842
37 1 2841 2843
38 4 3261 3252
39 2 1207 1208
40 1 1207 1209
41 2 1993 1994
42 1 1993 1995
43 2 1995 1996
44 2 1985 1986
45 1 1985 1987
46 1 1985 1995
47 2 1589 1590
48 1 1589 1591
49 2 1593 1594
50 1 1593 1595
51 2 1591 1592
52 1 1591 1593
53 2 1595 1596
54 2 1585 1586
55 1 1585 1587
56 1 1585 1595
57 11 1587 1588
58 1 1587 1589
59 6 2000 1998
60 2 665 666
61 1 665 667
62 4 1101 1092
63 5 3252 3262
64 6 1999 1998
65 6 2591 2590
66 6 2592 2590
67 2 661 662
68 1 661 663
69 6 1104 1102
70 4 669 660
71 6 671 670
72 5 660 670
73 11 659 660
74 1 659 661
75 2 657 658
76 1 657 659
77 1 657 667
78 2 667 668
79 6 3184 3182
80 6 1103 1102
81 5 1092 1102
82 2 2583 2584
83 1 2583 2585
84 2 2581 2582
85 1 2581 2583
86 2 3175 3176
87 1 3175 3177
88 2 3177 3178
89 1 3177 3179
90 2 3179 3180
91 2 2585 2586
92 1 2585 2587
93 2 2587 2588
94 4 3309 3300
95 2 3297 3298
96 1 3297 3299
97 1 3297 3307
98 2 1371 1372
99 5 2580 2590
100 11 2579 2580
101 1 2579 2581
102 2 3173 3174
103 1 3173 3175
104 11 3171 3172
105 1 3171 3173
106 2 3169 3170
107 1 3169 3171
108 1 3169 3179
109 2 241 242
110 1 241 243
111 1 241 251
112 2 251 252
113 4 2589 2580
114 2 2577 2578
115 1 2577 2579
116 1 2577 2587
117 5 3172 3182
118 4 3181 3172
119 6 255 254
120 2 1361 1362
121 1 1361 1363
122 1 1361 1371
123 6 1375 1374
124 11 867 868
125 1 867 869
126 5 868 878
127 6 880 878
128 6 879 878
129 2 865 866
130 1 865 867
131 1 865 875
132 4 877 868
133 2 2769 2770
134 1 2769 2771
135 1 2769 2779
136 2 2779 2780
137 2 871 872
138 1 871 873
139 2 869 870
140 1 869 871
141 6 1696 1694
142 2 875 876
143 2 873 874
144 1 873 875
145 4 253 244
146 11 243 244
147 1 243 245
148 6 256 254
149 5 244 254
150 2 249 250
151 1 249 251
152 2 245 246
153 1 245 247
154 2 247 248
155 1 247 249
156 6 1120 1118
157 2 1111 1112
158 1 1111 1113
159 2 1109 1110
160 1 1109 1111
161 4 1453 1444
162 5 1444 1454
163 2 1441 1442
164 1 1441 1443
165 1 1441 1451
166 2 3035 3036
167 6 1456 1454
168 2 2777 2778
169 1 2777 2779
170 11 1443 1444
171 1 1443 1445
172 6 1455 1454
173 2 1545 1546
174 1 1545 1547
175 2 2775 2776
176 1 2775 2777
177 2 1105 1106
178 1 1105 1107
179 1 1105 1115
180 6 1119 1118
181 5 1108 1118
182 4 1117 1108
183 11 1107 1108
184 1 1107 1109
185 2 1115 1116
186 2 1451 1452
187 2 1449 1450
188 1 1449 1451
189 2 1543 1544
190 1 1543 1545
191 2 1541 1542
192 1 1541 1543
193 2 3033 3034
194 1 3033 3035
195 2 3025 3026
196 1 3025 3027
197 1 3025 3035
198 2 3029 3030
199 1 3029 3031
200 2 3031 3032
201 1 3031 3033
202 6 3040 3038
203 5 3028 3038
204 6 3039 3038
205 11 3027 3028
206 1 3027 3029
207 2 583 584
208 1 583 585
209 2 581 582
210 1 581 583
211 4 3037 3028
212 2 587 588
213 2 585 586
214 1 585 587
215 2 577 578
216 1 577 579
217 1 577 587
218 11 579 580
219 1 579 581
220 4 1037 1028
221 6 2447 2446
222 5 2436 2446
223 2 1035 1036
224 2 1025 1026
225 1 1025 1027
226 1 1025 1035
227 2 1029 1030
228 1 1029 1031
229 2 1031 1032
230 1 1031 1033
231 2 1033 1034
232 1 1033 1035
233 11 1027 1028
234 1 1027 1029
235 4 2445 2436
236 5 1028 1038
237 6 1520 1518
238 6 1040 1038
239 5 1764 1774
240 2 1137 1138
241 1 1137 1139
242 1 1137 1147
243 11 1139 1140
244 1 1139 1141
245 2 1141 1142
246 1 1141 1143
247 6 1775 1774
248 2 1147 1148
249 6 1920 1918
250 6 1919 1918
251 2 1145 1146
252 1 1145 1147
253 2 1143 1144
254 1 1143 1145
255 6 1776 1774
256 5 1140 1150
257 4 1149 1140
258 6 1151 1150
259 6 2448 2446
260 2 2741 2742
261 1 2741 2743
262 2 2801 2802
263 1 2801 2803
264 1 2801 2811
265 2 2807 2808
266 1 2807 2809
267 2 2809 2810
268 1 2809 2811
269 2 2811 2812
270 4 2013 2004
271 6 2015 2014
272 5 2004 2014
273 2 2743 2744
274 1 2743 2745
275 2 2745 2746
276 1 2745 2747
277 2 2001 2002
278 1 2001 2003
279 1 2001 2011
280 11 2003 2004
281 1 2003 2005
282 5 1908 1918
283 11 1907 1908
284 1 1907 1909
285 2 2529 2530
286 1 2529 2531
287 1 2529 2539
288 2 1909 1910
289 1 1909 1911
290 2 2539 2540
291 2 1905 1906
292 1 1905 1907
293 1 1905 1915
294 2 1913 1914
295 1 1913 1915
296 2 1915 1916
297 2 1911 1912
298 1 1911 1913
299 2 2537 2538
300 1 2537 2539
301 11 2531 2532
302 1 2531 2533
303 2 2533 2534
304 1 2533 2535
305 2 2535 2536
306 1 2535 2537
307 4 2541 2532
308 5 2532 2542
309 2 987 988
310 2 1257 1258
311 1 1257 1259
312 2 1255 1256
313 1 1255 1257
314 2 1259 1260
315 11 1251 1252
316 1 1251 1253
317 2 1253 1254
318 1 1253 1255
319 2 983 984
320 1 983 985
321 2 985 986
322 1 985 987
323 2 977 978
324 1 977 979
325 1 977 987
326 6 2016 2014
327 2 2005 2006
328 1 2005 2007
329 2 1249 1250
330 1 1249 1251
331 1 1249 1259
332 5 3092 3102
333 2 3097 3098
334 1 3097 3099
335 2 3089 3090
336 1 3089 3091
337 1 3089 3099
338 2 3099 3100
339 2 3095 3096
340 1 3095 3097
341 2 3093 3094
342 1 3093 3095
343 11 3091 3092
344 1 3091 3093
345 6 2848 2846
346 5 1204 1214
347 6 2847 2846
348 4 1213 1204
349 4 1501 1492
350 4 989 980
351 5 980 990
352 2 981 982
353 1 981 983
354 6 992 990
355 11 979 980
356 1 979 981
357 11 1491 1492
358 1 1491 1493
359 2 1489 1490
360 1 1489 1491
361 1 1489 1499
362 6 991 990
363 4 2845 2836
364 5 2836 2846
365 2 1499 1500
366 2 1497 1498
367 1 1497 1499
368 2 1201 1202
369 1 1201 1203
370 1 1201 1211
371 2 1211 1212
372 11 1203 1204
373 1 1203 1205
374 2 1209 1210
375 1 1209 1211
376 2 1205 1206
377 1 1205 1207
378 4 1597 1588
379 5 1588 1598
380 2 2629 2630
381 1 2629 2631
382 2 2625 2626
383 1 2625 2627
384 1 2625 2635
385 11 2627 2628
386 1 2627 2629
387 4 2637 2628
388 5 2628 2638
389 6 2640 2638
390 6 2639 2638
391 11 2323 2324
392 1 2323 2325
393 5 2324 2334
394 4 2333 2324
395 6 2336 2334
396 2 2321 2322
397 1 2321 2323
398 1 2321 2331
399 2 2331 2332
400 2 2325 2326
401 1 2325 2327
402 2 2327 2328
403 1 2327 2329
404 2 2329 2330
405 1 2329 2331
406 5 3060 3070
407 11 3059 3060
408 1 3059 3061
409 4 3069 3060
410 6 2831 2830
411 2 3057 3058
412 1 3057 3059
413 1 3057 3067
414 6 1136 1134
415 5 1124 1134
416 4 1133 1124
417 11 1123 1124
418 1 1123 1125
419 2 1125 1126
420 1 1125 1127
421 2 1121 1122
422 1 1121 1123
423 1 1121 1131
424 2 1127 1128
425 1 1127 1129
426 2 1131 1132
427 2 1129 1130
428 1 1129 1131
429 2 663 664
430 1 663 665
431 6 3183 3182
432 6 3072 3070
433 6 3071 3070
434 6 575 574
435 6 672 670
436 2 683 684
437 2 679 680
438 1 679 681
439 2 681 682
440 1 681 683
441 6 576 574
442 2 677 678
443 1 677 679
444 11 563 564
445 1 563 565
446 2 565 566
447 1 565 567
448 2 567 568
449 1 567 569
450 2 571 572
451 2 569 570
452 1 569 571
453 2 561 562
454 1 561 563
455 1 561 571
456 5 564 574
457 4 573 564
458 2 1049 1050
459 1 1049 1051
460 2 1047 1048
461 1 1047 1049
462 2 1051 1052
463 2 1045 1046
464 1 1045 1047
465 11 1043 1044
466 1 1043 1045
467 2 1041 1042
468 1 1041 1043
469 1 1041 1051
470 4 1053 1044
471 2 673 674
472 1 673 675
473 1 673 683
474 11 675 676
475 1 675 677
476 2 1691 1692
477 2 1689 1690
478 1 1689 1691
479 2 1685 1686
480 1 1685 1687
481 2 1681 1682
482 1 1681 1683
483 1 1681 1691
484 11 1683 1684
485 1 1683 1685
486 5 1684 1694
487 2 2097 2098
488 1 2097 2099
489 1 2097 2107
490 2 2107 2108
491 4 1693 1684
492 6 1695 1694
493 6 1232 1230
494 6 1231 1230
495 5 1220 1230
496 4 1229 1220
497 2 1687 1688
498 1 1687 1689
499 2 2105 2106
500 1 2105 2107
501 5 1044 1054
502 6 1056 1054
503 6 1055 1054
504 2 1223 1224
505 1 1223 1225
506 2 1225 1226
507 1 1225 1227
508 2 1227 1228
509 2 1221 1222
510 1 1221 1223
511 11 1219 1220
512 1 1219 1221
513 2 1217 1218
514 1 1217 1219
515 1 1217 1227
516 6 2415 2414
517 5 2404 2414
518 4 2413 2404
519 2 1445 1446
520 1 1445 1447
521 2 1717 1718
522 1 1717 1719
523 11 1715 1716
524 1 1715 1717
525 4 1725 1716
526 5 1716 1726
527 6 1728 1726
528 2 1721 1722
529 1 1721 1723
530 2 1719 1720
531 1 1719 1721
532 2 2289 2290
533 1 2289 2291
534 1 2289 2299
535 2 2299 2300
536 5 1348 1358
537 4 1357 1348
538 6 1359 1358
539 2 1447 1448
540 1 1447 1449
541 2 1353 1354
542 1 1353 1355
543 2 1355 1356
544 2 1349 1350
545 1 1349 1351
546 2 1351 1352
547 1 1351 1353
548 11 2291 2292
549 1 2291 2293
550 2 2293 2294
551 1 2293 2295
552 2 2297 2298
553 1 2297 2299
554 2 2295 2296
555 1 2295 2297
556 2 2183 2184
557 1 2183 2185
558 2 1345 1346
559 1 1345 1347
560 1 1345 1355
561 11 1347 1348
562 1 1347 1349
563 2 2181 2182
564 1 2181 2183
565 6 1360 1358
566 2 1713 1714
567 1 1713 1715
568 1 1713 1723
569 2 1723 1724
570 6 1727 1726
571 2 1765 1766
572 1 1765 1767
573 11 1763 1764
574 1 1763 1765
575 2 1769 1770
576 1 1769 1771
577 2 1767 1768
578 1 1767 1769
579 2 1771 1772
580 2 1793 1794
581 1 1793 1795
582 1 1793 1803
583 2 1803 1804
584 2 1801 1802
585 1 1801 1803
586 6 1583 1582
587 2 2185 2186
588 1 2185 2187
589 11 2435 2436
590 1 2435 2437
591 2 2187 2188
592 2 2439 2440
593 1 2439 2441
594 2 2437 2438
595 1 2437 2439
596 2 2177 2178
597 1 2177 2179
598 1 2177 2187
599 4 1805 1796
600 4 1773 1764
601 2 1761 1762
602 1 1761 1763
603 1 1761 1771
604 6 2816 2814
605 2 2379 2380
606 2 2377 2378
607 1 2377 2379
608 2 2375 2376
609 1 2375 2377
610 2 2373 2374
611 1 2373 2375
612 6 1584 1582
613 5 1572 1582
614 2 2805 2806
615 1 2805 2807
616 2 2433 2434
617 1 2433 2435
618 1 2433 2443
619 2 2443 2444
620 2 2441 2442
621 1 2441 2443
622 11 2803 2804
623 1 2803 2805
624 5 2804 2814
625 4 2813 2804
626 6 2815 2814
627 2 2667 2668
628 2 2665 2666
629 1 2665 2667
630 2 2657 2658
631 1 2657 2659
632 1 2657 2667
633 2 2011 2012
634 2 2009 2010
635 1 2009 2011
636 4 1917 1908
637 11 2371 2372
638 1 2371 2373
639 6 2384 2382
640 2 2369 2370
641 1 2369 2371
642 1 2369 2379
643 5 2372 2382
644 4 2381 2372
645 6 2383 2382
646 2 2023 2024
647 1 2023 2025
648 2 2025 2026
649 1 2025 2027
650 6 3024 3022
651 6 3023 3022
652 2 2027 2028
653 6 1264 1262
654 4 2029 2020
655 5 2020 2030
656 11 2019 2020
657 1 2019 2021
658 2 2021 2022
659 1 2021 2023
660 2 2007 2008
661 1 2007 2009
662 4 1165 1156
663 4 1261 1252
664 5 1252 1262
665 2 2017 2018
666 1 2017 2019
667 1 2017 2027
668 5 1156 1166
669 6 1263 1262
670 11 1155 1156
671 1 1155 1157
672 6 1167 1166
673 2 1163 1164
674 2 1153 1154
675 1 1153 1155
676 1 1153 1163
677 6 1168 1166
678 2 2633 2634
679 1 2633 2635
680 2 2631 2632
681 1 2631 2633
682 2 2635 2636
683 5 3012 3022
684 2 3013 3014
685 1 3013 3015
686 4 3021 3012
687 11 3011 3012
688 1 3011 3013
689 2 3009 3010
690 1 3009 3011
691 1 3009 3019
692 2 3017 3018
693 1 3017 3019
694 2 3015 3016
695 1 3015 3017
696 2 3019 3020
697 4 2045 2036
698 6 1503 1502
699 5 1492 1502
700 2 1493 1494
701 1 1493 1495
702 2 1495 1496
703 1 1495 1497
704 6 2335 2334
705 6 1199 1198
706 6 2047 2046
707 6 1504 1502
708 2 1191 1192
709 1 1191 1193
710 2 1193 1194
711 1 1193 1195
712 2 1189 1190
713 1 1189 1191
714 2 1185 1186
715 1 1185 1187
716 1 1185 1195
717 11 1187 1188
718 1 1187 1189
719 6 1200 1198
720 5 1188 1198
721 4 1197 1188
722 2 1195 1196
723 2 2823 2824
724 1 2823 2825
725 2 2821 2822
726 1 2821 2823
727 6 623 622
728 2 2825 2826
729 1 2825 2827
730 2 2827 2828
731 2 2905 2906
732 1 2905 2907
733 2 2817 2818
734 1 2817 2819
735 1 2817 2827
736 2 3067 3068
737 6 624 622
738 5 3044 3054
739 4 3053 3044
740 2 2901 2902
741 1 2901 2903
742 2 2903 2904
743 1 2903 2905
744 6 2832 2830
745 4 813 804
746 11 2819 2820
747 1 2819 2821
748 2 3065 3066
749 1 3065 3067
750 2 3061 3062
751 1 3061 3063
752 2 3063 3064
753 1 3063 3065
754 6 3088 3086
755 4 2829 2820
756 5 2820 2830
757 5 804 814
758 2 3041 3042
759 1 3041 3043
760 1 3041 3051
761 6 3087 3086
762 2 801 802
763 1 801 803
764 1 801 811
765 6 1135 1134
766 2 715 716
767 2 705 706
768 1 705 707
769 1 705 715
770 2 2907 2908
771 4 1933 1924
772 5 1924 1934
773 11 1923 1924
774 1 1923 1925
775 6 1935 1934
776 6 1936 1934
777 2 2897 2898
778 1 2897 2899
779 1 2897 2907
780 2 713 714
781 1 713 715
782 2 805 806
783 1 805 807
784 2 711 712
785 1 711 713
786 2 709 710
787 1 709 711
788 11 707 708
789 1 707 709
790 6 815 814
791 11 803 804
792 1 803 805
793 6 816 814
794 2 811 812
795 2 2891 2892
796 2 1929 1930
797 1 1929 1931
798 2 1931 1932
799 2 3223 3224
800 1 3223 3225
801 2 3225 3226
802 1 3225 3227
803 2 1921 1922
804 1 1921 1923
805 1 1921 1931
806 2 1925 1926
807 1 1925 1927
808 2 1927 1928
809 1 1927 1929
810 2 1241 1242
811 1 1241 1243
812 2 1243 1244
813 2 1239 1240
814 1 1239 1241
815 2 3221 3222
816 1 3221 3223
817 6 400 398
818 5 2884 2894
819 4 2893 2884
820 11 2883 2884
821 1 2883 2885
822 6 2895 2894
823 2 3227 3228
824 4 685 676
825 5 676 686
826 6 687 686
827 6 688 686
828 6 720 718
829 4 717 708
830 4 3229 3220
831 2 3217 3218
832 1 3217 3219
833 1 3217 3227
834 6 719 718
835 5 708 718
836 5 3220 3230
837 6 1248 1246
838 6 1247 1246
839 5 1236 1246
840 2 1237 1238
841 1 1237 1239
842 11 1235 1236
843 1 1235 1237
844 2 1233 1234
845 1 1233 1235
846 1 1233 1243
847 4 1245 1236
848 11 3219 3220
849 1 3219 3221
850 6 2896 2894
851 2 2881 2882
852 1 2881 2883
853 1 2881 2891
854 6 2111 2110
855 4 2109 2100
856 5 2100 2110
857 6 2112 2110
858 11 2099 2100
859 1 2099 2101
860 2 2101 2102
861 1 2101 2103
862 2 1553 1554
863 1 1553 1555
864 1 1553 1563
865 2 1563 1564
866 2 1561 1562
867 1 1561 1563
868 6 399 398
869 2 1559 1560
870 1 1559 1561
871 6 703 702
872 11 1555 1556
873 1 1555 1557
874 6 3232 3230
875 6 3231 3230
876 6 3391 3390
877 6 2416 2414
878 2 2405 2406
879 1 2405 2407
880 4 2301 2292
881 2 2407 2408
882 1 2407 2409
883 2 2409 2410
884 1 2409 2411
885 11 2403 2404
886 1 2403 2405
887 2 2401 2402
888 1 2401 2403
889 1 2401 2411
890 2 2411 2412
891 2 1081 1082
892 1 1081 1083
893 2 1079 1080
894 1 1079 1081
895 2 2103 2104
896 1 2103 2105
897 2 1557 1558
898 1 1557 1559
899 2 1945 1946
900 1 1945 1947
901 2 1943 1944
902 1 1943 1945
903 2 2679 2680
904 1 2679 2681
905 2 2681 2682
906 1 2681 2683
907 2 2677 2678
908 1 2677 2679
909 2 1941 1942
910 1 1941 1943
911 2 2683 2684
912 4 2685 2676
913 11 2675 2676
914 1 2675 2677
915 2 1947 1948
916 2 1937 1938
917 1 1937 1939
918 1 1937 1947
919 11 1939 1940
920 1 1939 1941
921 4 2141 2132
922 6 2303 2302
923 5 2292 2302
924 6 2304 2302
925 11 2179 2180
926 1 2179 2181
927 6 2192 2190
928 2 2673 2674
929 1 2673 2675
930 1 2673 2683
931 4 2189 2180
932 6 2687 2686
933 2 1083 1084
934 11 1075 1076
935 1 1075 1077
936 2 1077 1078
937 1 1077 1079
938 5 2676 2686
939 6 2688 2686
940 2 1073 1074
941 1 1073 1075
942 1 1073 1083
943 6 2191 2190
944 5 2180 2190
945 6 1088 1086
946 6 1087 1086
947 11 1795 1796
948 1 1795 1797
949 6 320 318
950 5 308 318
951 6 319 318
952 2 1799 1800
953 1 1799 1801
954 2 1797 1798
955 1 1797 1799
956 4 317 308
957 6 1952 1950
958 2 2133 2134
959 1 2133 2135
960 2 2135 2136
961 1 2135 2137
962 2 2137 2138
963 1 2137 2139
964 11 2131 2132
965 1 2131 2133
966 4 1581 1572
967 4 1949 1940
968 6 1951 1950
969 5 1940 1950
970 6 1807 1806
971 5 1796 1806
972 6 1808 1806
973 6 2143 2142
974 6 2144 2142
975 11 307 308
976 1 307 309
977 2 305 306
978 1 305 307
979 1 305 315
980 2 309 310
981 1 309 311
982 2 315 316
983 2 313 314
984 1 313 315
985 2 311 312
986 1 311 313
987 5 2132 2142
988 2 1575 1576
989 1 1575 1577
990 2 1577 1578
991 1 1577 1579
992 2 1579 1580
993 2 1569 1570
994 1 1569 1571
995 1 1569 1579
996 2 1573 1574
997 1 1573 1575
998 11 1571 1572
999 1 1571 1573
1000 2 2267 2268
1001 6 2271 2270
1002 6 1023 1022
1003 6 1024 1022
1004 2 2257 2258
1005 1 2257 2259
1006 1 2257 2267
1007 6 2272 2270
1008 11 2259 2260
1009 1 2259 2261
1010 5 2260 2270
1011 4 2269 2260
1012 5 3332 3342
1013 5 1012 1022
1014 2 2663 2664
1015 1 2663 2665
1016 6 2672 2670
1017 2 1017 1018
1018 1 1017 1019
1019 2 1019 1020
1020 2 1015 1016
1021 1 1015 1017
1022 11 2659 2660
1023 1 2659 2661
1024 4 2669 2660
1025 5 2660 2670
1026 2 2661 2662
1027 1 2661 2663
1028 6 2671 2670
1029 4 3341 3332
1030 2 1009 1010
1031 1 1009 1011
1032 1 1009 1019
1033 11 1011 1012
1034 1 1011 1013
1035 2 1013 1014
1036 1 1013 1015
1037 6 655 654
1038 6 656 654
1039 4 653 644
1040 5 644 654
1041 2 647 648
1042 1 647 649
1043 2 645 646
1044 1 645 647
1045 2 641 642
1046 1 641 643
1047 1 641 651
1048 11 643 644
1049 1 643 645
1050 2 649 650
1051 1 649 651
1052 2 651 652
1053 6 3344 3342
1054 6 3343 3342
1055 6 2031 2030
1056 2 1157 1158
1057 1 1157 1159
1058 11 3331 3332
1059 1 3331 3333
1060 2 3329 3330
1061 1 3329 3331
1062 1 3329 3339
1063 2 3339 3340
1064 2 1159 1160
1065 1 1159 1161
1066 6 2032 2030
1067 2 1161 1162
1068 1 1161 1163
1069 5 1300 1310
1070 11 1299 1300
1071 1 1299 1301
1072 2 1301 1302
1073 1 1301 1303
1074 2 3335 3336
1075 1 3335 3337
1076 2 3337 3338
1077 1 3337 3339
1078 2 3333 3334
1079 1 3333 3335
1080 6 1312 1310
1081 2 1303 1304
1082 1 1303 1305
1083 6 1311 1310
1084 4 621 612
1085 2 2037 2038
1086 1 2037 2039
1087 2 2039 2040
1088 1 2039 2041
1089 2 2041 2042
1090 1 2041 2043
1091 11 2035 2036
1092 1 2035 2037
1093 5 2036 2046
1094 2 2043 2044
1095 2 2033 2034
1096 1 2033 2035
1097 1 2033 2043
1098 5 612 622
1099 11 611 612
1100 1 611 613
1101 6 3055 3054
1102 6 3056 3054
1103 2 609 610
1104 1 609 611
1105 1 609 619
1106 2 613 614
1107 1 613 615
1108 2 615 616
1109 1 615 617
1110 6 2048 2046
1111 2 619 620
1112 4 1309 1300
1113 2 3049 3050
1114 1 3049 3051
1115 2 3051 3052
1116 11 3043 3044
1117 1 3043 3045
1118 2 3047 3048
1119 1 3047 3049
1120 2 3045 3046
1121 1 3045 3047
1122 2 617 618
1123 1 617 619
1124 6 415 414
1125 5 2244 2254
1126 2 409 410
1127 1 409 411
1128 2 407 408
1129 1 407 409
1130 6 2256 2254
1131 2 411 412
1132 2 401 402
1133 1 401 403
1134 1 401 411
1135 2 405 406
1136 1 405 407
1137 6 416 414
1138 11 403 404
1139 1 403 405
1140 5 404 414
1141 4 2253 2244
1142 6 2255 2254
1143 6 2911 2910
1144 6 2912 2910
1145 4 413 404
1146 11 2243 2244
1147 1 2243 2245
1148 2 3077 3078
1149 1 3077 3079
1150 2 3081 3082
1151 1 3081 3083
1152 2 3079 3080
1153 1 3079 3081
1154 2 2241 2242
1155 1 2241 2243
1156 1 2241 2251
1157 5 3076 3086
1158 11 3075 3076
1159 1 3075 3077
1160 2 3073 3074
1161 1 3073 3075
1162 1 3073 3083
1163 2 3083 3084
1164 6 2431 2430
1165 6 3279 3278
1166 6 2432 2430
1167 2 2251 2252
1168 6 864 862
1169 4 3085 3076
1170 6 863 862
1171 11 2899 2900
1172 1 2899 2901
1173 5 2900 2910
1174 4 2909 2900
1175 2 2693 2694
1176 1 2693 2695
1177 2 2695 2696
1178 1 2695 2697
1179 11 2691 2692
1180 1 2691 2693
1181 2 2689 2690
1182 1 2689 2691
1183 1 2689 2699
1184 2 2697 2698
1185 1 2697 2699
1186 2 2699 2700
1187 6 2704 2702
1188 2 2473 2474
1189 1 2473 2475
1190 2 2471 2472
1191 1 2471 2473
1192 2 2475 2476
1193 6 3280 3278
1194 4 3277 3268
1195 2 3271 3272
1196 1 3271 3273
1197 2 3269 3270
1198 1 3269 3271
1199 2 3273 3274
1200 1 3273 3275
1201 11 3267 3268
1202 1 3267 3269
1203 2 3275 3276
1204 2 3265 3266
1205 1 3265 3267
1206 1 3265 3275
1207 2 809 810
1208 1 809 811
1209 5 3268 3278
1210 2 807 808
1211 1 807 809
1212 2 2465 2466
1213 1 2465 2467
1214 1 2465 2475
1215 11 2467 2468
1216 1 2467 2469
1217 4 2477 2468
1218 6 2479 2478
1219 2 2469 2470
1220 1 2469 2471
1221 5 2468 2478
1222 5 388 398
1223 4 2701 2692
1224 5 2692 2702
1225 11 387 388
1226 1 387 389
1227 2 389 390
1228 1 389 391
1229 2 393 394
1230 1 393 395
1231 2 391 392
1232 1 391 393
1233 6 1904 1902
1234 2 2885 2886
1235 1 2885 2887
1236 2 1851 1852
1237 2 385 386
1238 1 385 387
1239 1 385 395
1240 2 395 396
1241 4 1901 1892
1242 5 1892 1902
1243 6 1903 1902
1244 5 3380 3390
1245 4 3389 3380
1246 4 2957 2948
1247 2 2889 2890
1248 1 2889 2891
1249 2 3377 3378
1250 1 3377 3379
1251 1 3377 3387
1252 2 3387 3388
1253 2 3385 3386
1254 1 3385 3387
1255 2 3383 3384
1256 1 3383 3385
1257 2 2887 2888
1258 1 2887 2889
1259 11 3379 3380
1260 1 3379 3381
1261 2 3381 3382
1262 1 3381 3383
1263 2 1841 1842
1264 1 1841 1843
1265 1 1841 1851
1266 6 1856 1854
1267 4 397 388
1268 6 704 702
1269 5 692 702
1270 4 701 692
1271 2 695 696
1272 1 695 697
1273 2 693 694
1274 1 693 695
1275 2 697 698
1276 1 697 699
1277 11 691 692
1278 1 691 693
1279 2 699 700
1280 2 689 690
1281 1 689 691
1282 1 689 699
1283 6 3392 3390
1284 2 937 938
1285 1 937 939
1286 2 935 936
1287 1 935 937
1288 6 2959 2958
1289 6 2960 2958
1290 2 939 940
1291 2 933 934
1292 1 933 935
1293 5 932 942
1294 11 931 932
1295 1 931 933
1296 4 941 932
1297 2 2949 2950
1298 1 2949 2951
1299 5 2948 2958
1300 2 929 930
1301 1 929 931
1302 1 929 939
1303 6 943 942
1304 6 944 942
1305 4 1565 1556
1306 5 1556 1566
1307 6 1568 1566
1308 6 1567 1566
1309 1 122 125
1310 1 125 128
1311 1 124 125
1312 1 124 127
1313 1 123 126
1314 1 126 127
1315 1 118 120
1316 1 118 123
1317 1 120 124
1318 1 121 122
1319 1 121 192
1320 1 119 121
1321 1 119 120
1322 1 119 191
1323 1 117 118
1324 1 117 190
1325 1 190 191
1326 1 189 192
1327 1 188 189
1328 1 188 191
1329 1 187 190
1330 1 113 116
1331 1 113 123
1332 1 108 111
1333 1 108 117
1334 1 108 180
1335 1 177 180
1336 1 177 187
1337 5 1076 1086
1338 1 64 185
1339 1 186 189
1340 1 57 58
1341 1 57 128
1342 1 55 57
1343 1 55 56
1344 1 55 127
1345 1 53 54
1346 1 53 126
1347 1 58 61
1348 1 54 56
1349 1 54 59
1350 1 56 60
1351 1 61 64
1352 1 60 61
1353 1 60 63
1354 1 59 62
1355 1 183 185
1356 1 183 184
1357 1 185 186
1358 1 62 63
1359 1 62 181
1360 1 181 182
1361 1 182 184
1362 1 182 187
1363 1 63 183
1364 1 184 188
1365 4 1085 1076
1366 1 44 47
1367 1 44 53
1368 1 44 116
1369 1 172 175
1370 1 172 181
1371 1 49 52
1372 1 49 59
1373 1 111 113
1374 6 2736 2734
1375 2 2139 2140
1376 6 2735 2734
1377 1 114 115
1378 1 115 116
1379 1 110 111
1380 1 110 114
1381 1 109 110
1382 1 109 179
1383 1 179 180
1384 1 178 179
1385 2 2129 2130
1386 1 2129 2131
1387 1 2129 2139
1388 6 3215 3214
1389 6 3216 3214
1390 5 2724 2734
1391 2 2721 2722
1392 1 2721 2723
1393 1 2721 2731
1394 11 2723 2724
1395 1 2723 2725
1396 1 47 49
1397 2 2729 2730
1398 1 2729 2731
1399 1 52 172
1400 1 175 177
1401 2 2731 2732
1402 2 2727 2728
1403 1 2727 2729
1404 2 2725 2726
1405 1 2725 2727
1406 1 45 46
1407 1 45 115
1408 1 46 47
1409 1 46 50
1410 1 50 51
1411 1 174 175
1412 1 174 178
1413 1 51 52
1414 1 51 173
1415 1 173 174
1416 6 800 798
1417 2 785 786
1418 1 785 787
1419 1 785 795
1420 2 2265 2266
1421 1 2265 2267
1422 4 3213 3204
1423 2 2263 2264
1424 1 2263 2265
1425 11 3203 3204
1426 1 3203 3205
1427 5 3204 3214
1428 2 2261 2262
1429 1 2261 2263
1430 4 1021 1012
1431 6 799 798
1432 6 2879 2878
1433 4 797 788
1434 5 788 798
1435 4 2733 2724
1436 2 2875 2876
1437 2 2873 2874
1438 1 2873 2875
1439 2 2865 2866
1440 1 2865 2867
1441 1 2865 2875
1442 2 2869 2870
1443 1 2869 2871
1444 11 2867 2868
1445 1 2867 2869
1446 2 2871 2872
1447 1 2871 2873
1448 5 2868 2878
1449 4 2877 2868
1450 2 789 790
1451 1 789 791
1452 11 787 788
1453 1 787 789
1454 6 2399 2398
1455 2 2389 2390
1456 1 2389 2391
1457 2 2391 2392
1458 1 2391 2393
1459 2 2395 2396
1460 4 2397 2388
1461 5 2388 2398
1462 6 2400 2398
1463 2 2385 2386
1464 1 2385 2387
1465 1 2385 2395
1466 11 2387 2388
1467 1 2387 2389
1468 2 955 956
1469 2 953 954
1470 1 953 955
1471 2 951 952
1472 1 951 953
1473 2 945 946
1474 1 945 947
1475 1 945 955
1476 2 2393 2394
1477 1 2393 2395
1478 2 3353 3354
1479 1 3353 3355
1480 2 3351 3352
1481 1 3351 3353
1482 2 1297 1298
1483 1 1297 1299
1484 1 1297 1307
1485 2 1305 1306
1486 1 1305 1307
1487 2 1307 1308
1488 4 2941 2932
1489 6 2880 2878
1490 6 2943 2942
1491 6 2944 2942
1492 5 2932 2942
1493 2 3355 3356
1494 2 3121 3122
1495 1 3121 3123
1496 1 3121 3131
1497 2 3131 3132
1498 2 859 860
1499 2 849 850
1500 1 849 851
1501 1 849 859
1502 11 2275 2276
1503 1 2275 2277
1504 2 2279 2280
1505 1 2279 2281
1506 2 2277 2278
1507 1 2277 2279
1508 2 2281 2282
1509 1 2281 2283
1510 4 2285 2276
1511 6 2288 2286
1512 5 2276 2286
1513 2 2273 2274
1514 1 2273 2275
1515 1 2273 2283
1516 2 2283 2284
1517 5 852 862
1518 4 861 852
1519 6 2623 2622
1520 2 857 858
1521 1 857 859
1522 2 855 856
1523 1 855 857
1524 2 853 854
1525 1 853 855
1526 11 851 852
1527 1 851 853
1528 11 2931 2932
1529 1 2931 2933
1530 2 2933 2934
1531 1 2933 2935
1532 2 2929 2930
1533 1 2929 2931
1534 1 2929 2939
1535 2 2935 2936
1536 1 2935 2937
1537 2 2939 2940
1538 2 2937 2938
1539 1 2937 2939
1540 2 901 902
1541 1 901 903
1542 2 903 904
1543 1 903 905
1544 5 900 910
1545 11 899 900
1546 1 899 901
1547 2 905 906
1548 1 905 907
1549 2 897 898
1550 1 897 899
1551 1 897 907
1552 2 907 908
1553 6 1007 1006
1554 4 909 900
1555 6 912 910
1556 4 525 516
1557 6 911 910
1558 5 516 526
1559 5 2420 2430
1560 11 2419 2420
1561 1 2419 2421
1562 2 2421 2422
1563 1 2421 2423
1564 6 1008 1006
1565 2 2245 2246
1566 1 2245 2247
1567 4 2429 2420
1568 2 2417 2418
1569 1 2417 2419
1570 1 2417 2427
1571 2 2427 2428
1572 2 2425 2426
1573 1 2425 2427
1574 2 2423 2424
1575 1 2423 2425
1576 11 515 516
1577 1 515 517
1578 2 2247 2248
1579 1 2247 2249
1580 2 517 518
1581 1 517 519
1582 2 2249 2250
1583 1 2249 2251
1584 2 489 490
1585 1 489 491
1586 2 491 492
1587 11 3155 3156
1588 1 3155 3157
1589 2 3153 3154
1590 1 3153 3155
1591 1 3153 3163
1592 2 3157 3158
1593 1 3157 3159
1594 2 481 482
1595 1 481 483
1596 1 481 491
1597 2 3163 3164
1598 2 3161 3162
1599 1 3161 3163
1600 2 487 488
1601 1 487 489
1602 2 485 486
1603 1 485 487
1604 6 3167 3166
1605 5 3156 3166
1606 6 3168 3166
1607 4 3165 3156
1608 11 483 484
1609 1 483 485
1610 6 2480 2478
1611 2 2091 2092
1612 2 2089 2090
1613 1 2089 2091
1614 2 2081 2082
1615 1 2081 2083
1616 1 2081 2091
1617 2 2087 2088
1618 1 2087 2089
1619 6 2703 2702
1620 2 1889 1890
1621 1 1889 1891
1622 1 1889 1899
1623 2 1893 1894
1624 1 1893 1895
1625 11 1891 1892
1626 1 1891 1893
1627 2 1899 1900
1628 6 432 430
1629 2 1849 1850
1630 1 1849 1851
1631 2 1847 1848
1632 1 1847 1849
1633 2 1895 1896
1634 1 1895 1897
1635 2 1897 1898
1636 1 1897 1899
1637 6 431 430
1638 6 1631 1630
1639 11 3187 3188
1640 1 3187 3189
1641 6 495 494
1642 6 1855 1854
1643 4 493 484
1644 6 496 494
1645 5 484 494
1646 2 417 418
1647 1 417 419
1648 1 417 427
1649 2 427 428
1650 5 1844 1854
1651 11 1843 1844
1652 1 1843 1845
1653 4 3197 3188
1654 4 1853 1844
1655 2 1845 1846
1656 1 1845 1847
1657 2 2945 2946
1658 1 2945 2947
1659 1 2945 2955
1660 2 2955 2956
1661 11 419 420
1662 1 419 421
1663 5 3188 3198
1664 1 101 102
1665 1 101 105
1666 1 105 128
1667 1 98 122
1668 1 98 101
1669 1 95 96
1670 1 95 98
1671 1 95 169
1672 1 169 192
1673 1 165 166
1674 1 165 169
1675 1 102 104
1676 1 104 106
1677 1 97 102
1678 1 97 100
1679 1 96 97
1680 1 96 168
1681 1 103 106
1682 1 100 103
1683 1 99 170
1684 1 99 100
1685 1 168 170
1686 1 166 168
1687 1 167 170
1688 2 3189 3190
1689 1 3189 3191
1690 11 2947 2948
1691 1 2947 2949
1692 2 2951 2952
1693 1 2951 2953
1694 2 425 426
1695 1 425 427
1696 6 3199 3198
1697 1 31 32
1698 1 31 34
1699 1 31 105
1700 1 34 58
1701 1 34 37
1702 1 37 38
1703 1 37 41
1704 1 41 64
1705 1 41 159
1706 1 159 160
1707 1 159 162
1708 1 162 186
1709 1 162 165
1710 2 2953 2954
1711 1 2953 2955
1712 1 32 33
1713 1 32 104
1714 1 35 106
1715 1 35 36
1716 1 33 38
1717 1 33 36
1718 1 36 39
1719 1 38 40
1720 1 160 161
1721 1 40 42
1722 1 40 160
1723 1 161 166
1724 1 161 164
1725 1 39 42
1726 1 42 163
1727 1 163 164
1728 1 164 167
1729 1 112 114
1730 1 107 109
1731 1 107 158
1732 1 92 94
1733 1 94 112
1734 1 90 92
1735 1 87 112
1736 1 87 107
1737 1 85 87
1738 1 85 90
1739 1 84 85
1740 1 84 156
1741 1 156 158
1742 1 158 176
1743 1 176 178
1744 1 154 156
1745 1 86 88
1746 1 88 93
1747 1 88 90
1748 1 81 86
1749 1 81 84
1750 1 81 157
1751 2 2053 2054
1752 1 2053 2055
1753 1 152 157
1754 1 152 154
1755 2 2055 2056
1756 1 2055 2057
1757 2 2057 2058
1758 1 2057 2059
1759 2 2059 2060
1760 2 2049 2050
1761 1 2049 2051
1762 1 2049 2059
1763 11 2051 2052
1764 1 2051 2053
1765 4 2061 2052
1766 5 2052 2062
1767 1 43 45
1768 1 43 94
1769 1 20 21
1770 1 20 92
1771 1 23 48
1772 1 23 43
1773 1 21 23
1774 1 21 26
1775 1 48 50
1776 1 171 173
1777 1 26 28
1778 1 28 30
1779 1 28 148
1780 1 30 48
1781 1 30 171
1782 1 151 176
1783 1 151 171
1784 1 148 149
1785 1 149 151
1786 1 149 154
1787 1 17 22
1788 1 17 20
1789 1 17 93
1790 1 22 24
1791 1 24 29
1792 1 24 26
1793 1 29 145
1794 1 150 152
1795 1 145 150
1796 1 145 148
1797 2 3201 3202
1798 1 3201 3203
1799 1 3201 3211
1800 2 3211 3212
1801 5 2756 2766
1802 2 553 554
1803 1 553 555
1804 6 2767 2766
1805 2 3205 3206
1806 1 3205 3207
1807 2 3207 3208
1808 1 3207 3209
1809 2 3209 3210
1810 1 3209 3211
1811 6 287 286
1812 6 288 286
1813 6 3135 3134
1814 2 2455 2456
1815 1 2455 2457
1816 2 2457 2458
1817 1 2457 2459
1818 6 2064 2062
1819 2 2453 2454
1820 1 2453 2455
1821 2 793 794
1822 1 793 795
1823 2 791 792
1824 1 791 793
1825 2 795 796
1826 4 3133 3124
1827 5 276 286
1828 4 285 276
1829 5 3124 3134
1830 11 3123 3124
1831 1 3123 3125
1832 2 555 556
1833 11 2851 2852
1834 1 2851 2853
1835 2 2849 2850
1836 1 2849 2851
1837 1 2849 2859
1838 4 2765 2756
1839 2 2855 2856
1840 1 2855 2857
1841 2 2857 2858
1842 1 2857 2859
1843 2 2859 2860
1844 2 545 546
1845 1 545 547
1846 1 545 555
1847 2 949 950
1848 1 949 951
1849 11 947 948
1850 1 947 949
1851 6 3136 3134
1852 6 960 958
1853 6 959 958
1854 5 948 958
1855 4 957 948
1856 2 279 280
1857 1 279 281
1858 2 281 282
1859 1 281 283
1860 2 277 278
1861 1 277 279
1862 11 275 276
1863 1 275 277
1864 2 3349 3350
1865 1 3349 3351
1866 6 3360 3358
1867 4 2621 2612
1868 5 2612 2622
1869 2 3125 3126
1870 1 3125 3127
1871 2 273 274
1872 1 273 275
1873 1 273 283
1874 2 3129 3130
1875 1 3129 3131
1876 2 3127 3128
1877 1 3127 3129
1878 2 283 284
1879 2 2073 2074
1880 1 2073 2075
1881 2 2071 2072
1882 1 2071 2073
1883 2 2069 2070
1884 1 2069 2071
1885 2 3345 3346
1886 1 3345 3347
1887 1 3345 3355
1888 11 3347 3348
1889 1 3347 3349
1890 2 2075 2076
1891 6 2287 2286
1892 6 1535 1534
1893 4 1005 996
1894 6 3359 3358
1895 11 995 996
1896 1 995 997
1897 6 2624 2622
1898 2 2615 2616
1899 1 2615 2617
1900 2 2617 2618
1901 1 2617 2619
1902 2 997 998
1903 1 997 999
1904 2 999 1000
1905 1 999 1001
1906 2 2613 2614
1907 1 2613 2615
1908 2 2619 2620
1909 11 2611 2612
1910 1 2611 2613
1911 2 2609 2610
1912 1 2609 2611
1913 1 2609 2619
1914 6 1536 1534
1915 4 1533 1524
1916 5 1524 1534
1917 5 996 1006
1918 2 1521 1522
1919 1 1521 1523
1920 1 1521 1531
1921 2 1531 1532
1922 5 3348 3358
1923 4 3357 3348
1924 6 1679 1678
1925 2 993 994
1926 1 993 995
1927 1 993 1003
1928 11 1523 1524
1929 1 1523 1525
1930 2 1527 1528
1931 1 1527 1529
1932 2 1525 1526
1933 1 1525 1527
1934 2 1529 1530
1935 1 1529 1531
1936 6 1680 1678
1937 6 527 526
1938 2 2487 2488
1939 1 2487 2489
1940 11 1875 1876
1941 1 1875 1877
1942 2 1881 1882
1943 1 1881 1883
1944 2 1873 1874
1945 1 1873 1875
1946 1 1873 1883
1947 2 1883 1884
1948 6 528 526
1949 2 2489 2490
1950 1 2489 2491
1951 2 2491 2492
1952 6 1296 1294
1953 6 1295 1294
1954 2 519 520
1955 1 519 521
1956 2 521 522
1957 1 521 523
1958 6 1888 1886
1959 2 1877 1878
1960 1 1877 1879
1961 2 1879 1880
1962 1 1879 1881
1963 11 1315 1316
1964 1 1315 1317
1965 2 1317 1318
1966 1 1317 1319
1967 2 1313 1314
1968 1 1313 1315
1969 1 1313 1323
1970 2 1321 1322
1971 1 1321 1323
1972 2 1323 1324
1973 2 1319 1320
1974 1 1319 1321
1975 4 1885 1876
1976 5 1876 1886
1977 2 3159 3160
1978 1 3159 3161
1979 11 883 884
1980 1 883 885
1981 6 895 894
1982 6 896 894
1983 2 885 886
1984 1 885 887
1985 5 884 894
1986 2 1621 1622
1987 1 1621 1623
1988 2 887 888
1989 1 887 889
1990 4 893 884
1991 2 881 882
1992 1 881 883
1993 1 881 891
1994 2 889 890
1995 1 889 891
1996 6 2719 2718
1997 6 2720 2718
1998 2 523 524
1999 6 1887 1886
2000 2 513 514
2001 1 513 515
2002 1 513 523
2003 2 1623 1624
2004 1 1623 1625
2005 4 2093 2084
2006 6 2095 2094
2007 5 2084 2094
2008 6 2096 2094
2009 11 2083 2084
2010 1 2083 2085
2011 2 2085 2086
2012 1 2085 2087
2013 2 891 892
2014 2 1625 1626
2015 1 1625 1627
2016 4 1629 1620
2017 5 1620 1630
2018 4 1421 1412
2019 11 1411 1412
2020 1 1411 1413
2021 4 2605 2596
2022 2 3185 3186
2023 1 3185 3187
2024 1 3185 3195
2025 2 1413 1414
2026 1 1413 1415
2027 5 1412 1422
2028 6 1424 1422
2029 6 1423 1422
2030 2 421 422
2031 1 421 423
2032 4 429 420
2033 5 420 430
2034 11 1619 1620
2035 1 1619 1621
2036 2 1617 1618
2037 1 1617 1619
2038 1 1617 1627
2039 6 1632 1630
2040 11 2595 2596
2041 1 2595 2597
2042 2 2597 2598
2043 1 2597 2599
2044 2 2593 2594
2045 1 2593 2595
2046 1 2593 2603
2047 2 2599 2600
2048 1 2599 2601
2049 2 2603 2604
2050 2 2601 2602
2051 1 2601 2603
2052 2 1627 1628
2053 2 1409 1410
2054 1 1409 1411
2055 1 1409 1419
2056 2 3195 3196
2057 2 3193 3194
2058 1 3193 3195
2059 1 78 103
2060 1 78 79
2061 1 79 80
2062 1 75 78
2063 1 75 76
2064 1 74 99
2065 1 74 75
2066 1 74 143
2067 1 143 144
2068 1 142 167
2069 1 142 143
2070 2 3191 3192
2071 1 3191 3193
2072 2 1419 1420
2073 2 1415 1416
2074 1 1415 1417
2075 2 1417 1418
2076 1 1417 1419
2077 1 76 77
2078 6 2976 2974
2079 2 2967 2968
2080 1 2967 2969
2081 2 423 424
2082 1 423 425
2083 6 3200 3198
2084 1 10 35
2085 1 10 11
2086 1 10 79
2087 1 11 14
2088 1 11 12
2089 1 14 39
2090 1 14 15
2091 1 15 138
2092 1 15 16
2093 1 138 163
2094 1 138 139
2095 1 139 142
2096 1 139 140
2097 2 1177 1178
2098 1 1177 1179
2099 2 1175 1176
2100 1 1175 1177
2101 2 1179 1180
2102 1 12 13
2103 11 1171 1172
2104 1 1171 1173
2105 1 16 137
2106 1 140 141
2107 2 1169 1170
2108 1 1169 1171
2109 1 1169 1179
2110 6 1184 1182
2111 6 1183 1182
2112 1 77 80
2113 1 73 76
2114 1 73 144
2115 1 141 144
2116 1 69 71
2117 1 69 77
2118 1 65 66
2119 1 65 73
2120 1 65 135
2121 1 91 93
2122 1 83 86
2123 1 83 89
2124 1 71 72
2125 1 66 69
2126 1 66 68
2127 1 68 70
2128 1 70 89
2129 1 70 72
2130 1 89 91
2131 1 67 82
2132 1 67 68
2133 1 67 136
2134 1 82 83
2135 1 82 155
2136 1 155 157
2137 1 135 136
2138 1 133 135
2139 1 133 141
2140 1 134 153
2141 1 134 136
2142 1 153 155
2143 6 832 830
2144 6 2975 2974
2145 5 3140 3150
2146 6 3151 3150
2147 6 831 830
2148 4 829 820
2149 5 820 830
2150 1 9 12
2151 1 9 80
2152 1 13 16
2153 1 137 140
2154 1 1 2
2155 1 1 9
2156 1 1 71
2157 1 3 18
2158 1 3 4
2159 1 3 72
2160 1 18 19
2161 1 18 91
2162 1 19 25
2163 1 19 22
2164 1 2 5
2165 1 2 4
2166 1 4 6
2167 1 5 7
2168 1 5 13
2169 1 129 130
2170 1 129 137
2171 1 6 25
2172 1 6 8
2173 1 25 27
2174 1 27 29
2175 1 27 146
2176 1 147 150
2177 1 147 153
2178 1 8 131
2179 1 7 129
2180 1 7 8
2181 1 130 133
2182 1 130 132
2183 1 132 134
2184 1 131 146
2185 1 131 132
2186 1 146 147
2187 6 1280 1278
2188 2 1273 1274
2189 1 1273 1275
2190 4 3149 3140
2191 2 3147 3148
2192 2 3137 3138
2193 1 3137 3139
2194 1 3137 3147
2195 6 2063 2062
2196 11 819 820
2197 1 819 821
2198 2 2567 2568
2199 1 2567 2569
2200 2 2565 2566
2201 1 2565 2567
2202 2 2569 2570
2203 1 2569 2571
2204 2 2571 2572
2205 11 2563 2564
2206 1 2563 2565
2207 2 2561 2562
2208 1 2561 2563
2209 1 2561 2571
2210 2 3141 3142
2211 1 3141 3143
2212 11 3139 3140
2213 1 3139 3141
2214 2 821 822
2215 1 821 823
2216 2 823 824
2217 1 823 825
2218 2 825 826
2219 1 825 827
2220 6 2768 2766
2221 11 2755 2756
2222 1 2755 2757
2223 2 2753 2754
2224 1 2753 2755
2225 1 2753 2763
2226 2 3145 3146
2227 1 3145 3147
2228 2 3143 3144
2229 1 3143 3145
2230 2 2759 2760
2231 1 2759 2761
2232 2 2761 2762
2233 1 2761 2763
2234 2 2763 2764
2235 2 551 552
2236 1 551 553
2237 6 2863 2862
2238 6 2464 2462
2239 4 2461 2452
2240 5 2452 2462
2241 6 2463 2462
2242 11 2451 2452
2243 1 2451 2453
2244 6 1343 1342
2245 2 2449 2450
2246 1 2449 2451
2247 1 2449 2459
2248 6 2576 2574
2249 4 333 324
2250 6 335 334
2251 2 2459 2460
2252 4 1341 1332
2253 6 2575 2574
2254 4 557 548
2255 6 2864 2862
2256 2 2757 2758
2257 1 2757 2759
2258 2 2853 2854
2259 1 2853 2855
2260 4 2861 2852
2261 5 2852 2862
2262 6 560 558
2263 6 559 558
2264 2 549 550
2265 1 549 551
2266 11 547 548
2267 1 547 549
2268 5 548 558
2269 2 321 322
2270 1 321 323
2271 1 321 331
2272 11 323 324
2273 1 323 325
2274 5 324 334
2275 2 331 332
2276 2 919 920
2277 1 919 921
2278 6 336 334
2279 6 1344 1342
2280 2 1385 1386
2281 1 1385 1387
2282 2 1383 1384
2283 1 1383 1385
2284 4 237 228
2285 5 228 238
2286 2 229 230
2287 1 229 231
2288 11 1379 1380
2289 1 1379 1381
2290 2 1377 1378
2291 1 1377 1379
2292 1 1377 1387
2293 2 1387 1388
2294 6 240 238
2295 4 2077 2068
2296 6 239 238
2297 6 2079 2078
2298 5 2068 2078
2299 11 2067 2068
2300 1 2067 2069
2301 6 2080 2078
2302 11 227 228
2303 1 227 229
2304 2 225 226
2305 1 225 227
2306 1 225 235
2307 2 2065 2066
2308 1 2065 2067
2309 1 2065 2075
2310 2 235 236
2311 2 231 232
2312 1 231 233
2313 2 233 234
2314 1 233 235
2315 2 1979 1980
2316 2 1975 1976
2317 1 1975 1977
2318 2 1977 1978
2319 1 1977 1979
2320 2 1001 1002
2321 1 1001 1003
2322 2 1003 1004
2323 4 1325 1316
2324 4 1389 1380
2325 6 1392 1390
2326 6 1391 1390
2327 2 1381 1382
2328 1 1381 1383
2329 5 1380 1390
2330 2 2481 2482
2331 1 2481 2483
2332 1 2481 2491
2333 11 2483 2484
2334 1 2483 2485
2335 2 2485 2486
2336 1 2485 2487
2337 4 2493 2484
2338 5 2484 2494
2339 6 2496 2494
2340 2 1675 1676
2341 2 1665 1666
2342 1 1665 1667
2343 1 1665 1675
2344 5 1316 1326
2345 4 1677 1668
2346 5 1668 1678
2347 11 1667 1668
2348 1 1667 1669
2349 2 1673 1674
2350 1 1673 1675
2351 2 1671 1672
2352 1 1671 1673
2353 2 1669 1670
2354 1 1669 1671
2355 6 2495 2494
2356 6 1072 1070
2357 2 1285 1286
2358 1 1285 1287
2359 2 1287 1288
2360 1 1287 1289
2361 6 2175 2174
2362 11 1283 1284
2363 1 1283 1285
2364 5 1284 1294
2365 2 1289 1290
2366 1 1289 1291
2367 6 2176 2174
2368 6 383 382
2369 4 1069 1060
2370 5 1060 1070
2371 11 1059 1060
2372 1 1059 1061
2373 4 1293 1284
2374 2 1281 1282
2375 1 1281 1283
2376 1 1281 1291
2377 2 1291 1292
2378 11 2163 2164
2379 1 2163 2165
2380 2 2161 2162
2381 1 2161 2163
2382 1 2161 2171
2383 2 2171 2172
2384 4 1821 1812
2385 2 1809 1810
2386 1 1809 1811
2387 1 1809 1819
2388 11 1811 1812
2389 1 1811 1813
2390 5 1812 1822
2391 6 1823 1822
2392 6 1824 1822
2393 6 1071 1070
2394 2 1057 1058
2395 1 1057 1059
2396 1 1057 1067
2397 2 1819 1820
2398 2 2167 2168
2399 1 2167 2169
2400 2 2169 2170
2401 1 2169 2171
2402 2 2709 2710
2403 1 2709 2711
2404 2 2711 2712
2405 1 2711 2713
2406 2 2713 2714
2407 1 2713 2715
2408 11 2707 2708
2409 1 2707 2709
2410 2 2715 2716
2411 2 2555 2556
2412 2 2553 2554
2413 1 2553 2555
2414 2 1063 1064
2415 1 1063 1065
2416 2 1061 1062
2417 1 1061 1063
2418 5 2708 2718
2419 2 2705 2706
2420 1 2705 2707
2421 1 2705 2715
2422 6 2559 2558
2423 6 2560 2558
2424 2 1065 1066
2425 1 1065 1067
2426 2 1067 1068
2427 2 2545 2546
2428 1 2545 2547
2429 1 2545 2555
2430 4 2557 2548
2431 5 2548 2558
2432 11 2547 2548
2433 1 2547 2549
2434 4 845 836
2435 5 836 846
2436 6 847 846
2437 11 835 836
2438 1 835 837
2439 2 833 834
2440 1 833 835
2441 1 833 843
2442 2 837 838
2443 1 837 839
2444 2 2549 2550
2445 1 2549 2551
2446 2 2551 2552
2447 1 2551 2553
2448 4 2717 2708
2449 6 3295 3294
2450 5 3284 3294
2451 4 3293 3284
2452 11 3283 3284
2453 1 3283 3285
2454 11 2115 2116
2455 1 2115 2117
2456 5 2116 2126
2457 4 2125 2116
2458 2 2117 2118
2459 1 2117 2119
2460 6 2128 2126
2461 6 2127 2126
2462 6 3007 3006
2463 6 3296 3294
2464 6 2608 2606
2465 5 2596 2606
2466 6 2607 2606
2467 2 843 844
2468 2 2113 2114
2469 1 2113 2115
2470 1 2113 2123
2471 2 2123 2124
2472 2 841 842
2473 1 841 843
2474 2 839 840
2475 1 839 841
2476 4 509 500
2477 6 511 510
2478 5 500 510
2479 11 499 500
2480 1 499 501
2481 2 497 498
2482 1 497 499
2483 1 497 507
2484 6 512 510
2485 6 1279 1278
2486 2 507 508
2487 2 2119 2120
2488 1 2119 2121
2489 2 505 506
2490 1 505 507
2491 2 2961 2962
2492 1 2961 2963
2493 1 2961 2971
2494 2 2971 2972
2495 2 2969 2970
2496 1 2969 2971
2497 6 3008 3006
2498 2 503 504
2499 1 503 505
2500 11 2963 2964
2501 1 2963 2965
2502 2 1961 1962
2503 1 1961 1963
2504 2 1173 1174
2505 1 1173 1175
2506 2 2121 2122
2507 1 2121 2123
2508 2 501 502
2509 1 501 503
2510 2 2647 2648
2511 1 2647 2649
2512 4 1181 1172
2513 5 1172 1182
2514 2 2645 2646
2515 1 2645 2647
2516 6 2656 2654
2517 5 2644 2654
2518 2 2649 2650
2519 1 2649 2651
2520 2 2651 2652
2521 11 2643 2644
2522 1 2643 2645
2523 2 2641 2642
2524 1 2641 2643
2525 1 2641 2651
2526 6 2655 2654
2527 2 2965 2966
2528 1 2965 2967
2529 4 2973 2964
2530 5 2964 2974
2531 2 2215 2216
2532 1 2215 2217
2533 2 1963 1964
2534 2 2209 2210
2535 1 2209 2211
2536 1 2209 2219
2537 2 1953 1954
2538 1 1953 1955
2539 1 1953 1963
2540 11 2211 2212
2541 1 2211 2213
2542 11 1955 1956
2543 1 1955 1957
2544 5 1956 1966
2545 2 2213 2214
2546 1 2213 2215
2547 6 1968 1966
2548 6 1967 1966
2549 6 2224 2222
2550 5 2212 2222
2551 2 1269 1270
2552 1 1269 1271
2553 2 1271 1272
2554 1 1271 1273
2555 2 2217 2218
2556 1 2217 2219
2557 2 2219 2220
2558 11 1267 1268
2559 1 1267 1269
2560 2 1275 1276
2561 2 1265 1266
2562 1 1265 1267
2563 1 1265 1275
2564 5 1268 1278
2565 4 1277 1268
2566 2 757 758
2567 1 757 759
2568 11 755 756
2569 1 755 757
2570 6 767 766
2571 6 768 766
2572 6 3152 3150
2573 2 817 818
2574 1 817 819
2575 1 817 827
2576 11 1827 1828
2577 1 1827 1829
2578 5 1828 1838
2579 2 2203 2204
2580 2 1825 1826
2581 1 1825 1827
2582 1 1825 1835
2583 4 1837 1828
2584 2 2193 2194
2585 1 2193 2195
2586 1 2193 2203
2587 2 2201 2202
2588 1 2201 2203
2589 6 1840 1838
2590 6 2223 2222
2591 4 2221 2212
2592 2 827 828
2593 2 1829 1830
2594 1 1829 1831
2595 2 759 760
2596 1 759 761
2597 2 761 762
2598 1 761 763
2599 2 2197 2198
2600 1 2197 2199
2601 2 2199 2200
2602 1 2199 2201
2603 11 2195 2196
2604 1 2195 2197
2605 5 2196 2206
2606 2 763 764
2607 5 1332 1342
2608 2 1835 1836
2609 2 743 744
2610 1 743 745
2611 2 745 746
2612 1 745 747
2613 5 2564 2574
2614 2 747 748
2615 4 2573 2564
2616 2 737 738
2617 1 737 739
2618 1 737 747
2619 2 741 742
2620 1 741 743
2621 6 752 750
2622 11 739 740
2623 1 739 741
2624 5 740 750
2625 6 751 750
2626 2 1329 1330
2627 1 1329 1331
2628 1 1329 1339
2629 2 329 330
2630 1 329 331
2631 2 1831 1832
2632 1 1831 1833
2633 2 921 922
2634 1 921 923
2635 2 1833 1834
2636 1 1833 1835
2637 2 923 924
2638 2 325 326
2639 1 325 327
2640 2 913 914
2641 1 913 915
2642 1 913 923
2643 4 925 916
2644 11 915 916
2645 1 915 917
2646 6 927 926
2647 6 928 926
2648 5 916 926
2649 2 917 918
2650 1 917 919
2651 6 2160 2158
2652 2 327 328
2653 1 327 329
2654 2 1333 1334
2655 1 1333 1335
2656 11 1331 1332
2657 1 1331 1333
2658 2 1335 1336
2659 1 1335 1337
2660 2 1337 1338
2661 1 1337 1339
2662 2 1339 1340
2663 2 203 204
2664 2 201 202
2665 1 201 203
2666 2 1973 1974
2667 1 1973 1975
2668 2 1865 1866
2669 1 1865 1867
2670 2 199 200
2671 1 199 201
2672 2 193 194
2673 1 193 195
2674 1 193 203
2675 11 1971 1972
2676 1 1971 1973
2677 2 1969 1970
2678 1 1969 1971
2679 1 1969 1979
2680 4 1981 1972
2681 5 1972 1982
2682 6 2159 2158
2683 2 1861 1862
2684 1 1861 1863
2685 2 1863 1864
2686 1 1863 1865
2687 2 3321 3322
2688 1 3321 3323
2689 2 3323 3324
2690 4 1869 1860
2691 2 3313 3314
2692 1 3313 3315
2693 1 3313 3323
2694 11 1859 1860
2695 1 1859 1861
2696 2 3319 3320
2697 1 3319 3321
2698 2 3317 3318
2699 1 3317 3319
2700 11 3315 3316
2701 1 3315 3317
2702 6 1983 1982
2703 4 381 372
2704 11 371 372
2705 1 371 373
2706 5 372 382
2707 2 369 370
2708 1 369 371
2709 1 369 379
2710 2 373 374
2711 1 373 375
2712 2 377 378
2713 1 377 379
2714 6 384 382
2715 2 375 376
2716 1 375 377
2717 2 379 380
2718 6 1327 1326
2719 6 1328 1326
2720 6 1984 1982
2721 2 1813 1814
2722 1 1813 1815
2723 2 1857 1858
2724 1 1857 1859
2725 1 1857 1867
2726 2 1867 1868
2727 2 1817 1818
2728 1 1817 1819
2729 2 1815 1816
2730 1 1815 1817
2731 5 1860 1870
2732 6 367 366
2733 6 1872 1870
2734 6 1871 1870
2735 6 368 366
2736 4 2173 2164
2737 5 2164 2174
2738 5 2500 2510
2739 4 2509 2500
2740 2 2165 2166
2741 1 2165 2167
2742 2 529 530
2743 1 529 531
2744 1 529 539
2745 2 537 538
2746 1 537 539
2747 2 539 540
2748 11 531 532
2749 1 531 533
2750 6 544 542
2751 6 2511 2510
2752 2 2981 2982
2753 1 2981 2983
2754 2 2983 2984
2755 1 2983 2985
2756 6 2512 2510
2757 5 1748 1758
2758 2 1745 1746
2759 1 1745 1747
2760 1 1745 1755
2761 2 1753 1754
2762 1 1753 1755
2763 11 1747 1748
2764 1 1747 1749
2765 2 1755 1756
2766 2 1751 1752
2767 1 1751 1753
2768 2 1749 1750
2769 1 1749 1751
2770 4 1757 1748
2771 6 2992 2990
2772 6 2991 2990
2773 6 1759 1758
2774 2 2985 2986
2775 1 2985 2987
2776 2 2987 2988
2777 2 1641 1642
2778 1 1641 1643
2779 6 223 222
2780 2 1643 1644
2781 2 1633 1634
2782 1 1633 1635
2783 1 1633 1643
2784 6 224 222
2785 2 2977 2978
2786 1 2977 2979
2787 1 2977 2987
2788 2 2919 2920
2789 1 2919 2921
2790 2 2921 2922
2791 1 2921 2923
2792 2 219 220
2793 2 209 210
2794 1 209 211
2795 1 209 219
2796 6 848 846
2797 6 1648 1646
2798 4 2989 2980
2799 5 2980 2990
2800 2 1639 1640
2801 1 1639 1641
2802 11 1635 1636
2803 1 1635 1637
2804 4 1645 1636
2805 5 1636 1646
2806 11 2979 2980
2807 1 2979 2981
2808 2 1637 1638
2809 1 1637 1639
2810 6 2367 2366
2811 6 2368 2366
2812 11 2355 2356
2813 1 2355 2357
2814 4 2365 2356
2815 5 2356 2366
2816 2 3285 3286
2817 1 3285 3287
2818 4 2237 2228
2819 11 2915 2916
2820 1 2915 2917
2821 2 2913 2914
2822 1 2913 2915
2823 1 2913 2923
2824 2 2923 2924
2825 5 2228 2238
2826 6 2239 2238
2827 2 1659 1660
2828 4 2925 2916
2829 4 3005 2996
2830 2 2225 2226
2831 1 2225 2227
2832 1 2225 2235
2833 6 2320 2318
2834 2 3287 3288
2835 1 3287 3289
2836 6 463 462
2837 2 2357 2358
2838 1 2357 2359
2839 2 3289 3290
2840 1 3289 3291
2841 2 2359 2360
2842 1 2359 2361
2843 2 2361 2362
2844 1 2361 2363
2845 2 2917 2918
2846 1 2917 2919
2847 5 2916 2926
2848 6 2928 2926
2849 2 3281 3282
2850 1 3281 3283
2851 1 3281 3291
2852 2 3291 3292
2853 6 2927 2926
2854 2 1649 1650
2855 1 1649 1651
2856 1 1649 1659
2857 6 1664 1662
2858 6 1663 1662
2859 5 2996 3006
2860 2 1959 1960
2861 1 1959 1961
2862 11 2995 2996
2863 1 2995 2997
2864 2 2993 2994
2865 1 2993 2995
2866 1 2993 3003
2867 2 3003 3004
2868 2 2997 2998
2869 1 2997 2999
2870 2 2999 3000
2871 1 2999 3001
2872 2 3001 3002
2873 1 3001 3003
2874 11 2307 2308
2875 1 2307 2309
2876 2 2309 2310
2877 1 2309 2311
2878 2 2311 2312
2879 1 2311 2313
2880 4 2349 2340
2881 5 2308 2318
2882 5 2340 2350
2883 2 455 456
2884 1 455 457
2885 2 457 458
2886 1 457 459
2887 2 459 460
2888 2 449 450
2889 1 449 451
2890 1 449 459
2891 6 464 462
2892 2 2305 2306
2893 1 2305 2307
2894 1 2305 2315
2895 2 2313 2314
2896 1 2313 2315
2897 2 453 454
2898 1 453 455
2899 11 451 452
2900 1 451 453
2901 5 452 462
2902 4 461 452
2903 2 2315 2316
2904 4 2653 2644
2905 6 2351 2350
2906 2 1957 1958
2907 1 1957 1959
2908 4 1965 1956
2909 2 2343 2344
2910 1 2343 2345
2911 2 2341 2342
2912 1 2341 2343
2913 2 2345 2346
2914 1 2345 2347
2915 11 2339 2340
2916 1 2339 2341
2917 11 259 260
2918 1 259 261
2919 5 260 270
2920 4 269 260
2921 2 471 472
2922 1 471 473
2923 2 473 474
2924 1 473 475
2925 2 267 268
2926 2 257 258
2927 1 257 259
2928 1 257 267
2929 4 765 756
2930 5 756 766
2931 2 1425 1426
2932 1 1425 1427
2933 1 1425 1435
2934 2 1435 1436
2935 11 1427 1428
2936 1 1427 1429
2937 5 1428 1438
2938 4 1437 1428
2939 6 1440 1438
2940 6 272 270
2941 6 1439 1438
2942 6 271 270
2943 6 2352 2350
2944 6 1839 1838
2945 6 607 606
2946 2 469 470
2947 1 469 471
2948 11 467 468
2949 1 467 469
2950 2 465 466
2951 1 465 467
2952 1 465 475
2953 2 475 476
2954 6 2207 2206
2955 4 477 468
2956 5 468 478
2957 6 2208 2206
2958 6 480 478
2959 6 479 478
2960 5 596 606
2961 4 605 596
2962 2 753 754
2963 1 753 755
2964 1 753 763
2965 4 2205 2196
2966 2 443 444
2967 2 439 440
2968 1 439 441
2969 2 441 442
2970 1 441 443
2971 2 437 438
2972 1 437 439
2973 6 1744 1742
2974 2 1735 1736
2975 1 1735 1737
2976 2 1733 1734
2977 1 1733 1735
2978 4 749 740
2979 6 608 606
2980 11 595 596
2981 1 595 597
2982 2 599 600
2983 1 599 601
2984 2 597 598
2985 1 597 599
2986 2 601 602
2987 1 601 603
2988 2 593 594
2989 1 593 595
2990 1 593 603
2991 6 1616 1614
2992 2 2155 2156
2993 2 2145 2146
2994 1 2145 2147
2995 1 2145 2155
2996 2 1601 1602
2997 1 1601 1603
2998 1 1601 1611
2999 2 1611 1612
3000 11 1603 1604
3001 1 1603 1605
3002 2 603 604
3003 2 777 778
3004 1 777 779
3005 2 775 776
3006 1 775 777
3007 6 1615 1614
3008 2 1729 1730
3009 1 1729 1731
3010 1 1729 1739
3011 11 1731 1732
3012 1 1731 1733
3013 4 1741 1732
3014 5 1732 1742
3015 2 1737 1738
3016 1 1737 1739
3017 2 1739 1740
3018 6 1743 1742
3019 5 1604 1614
3020 4 1613 1604
3021 6 3327 3326
3022 6 3328 3326
3023 2 779 780
3024 2 2149 2150
3025 1 2149 2151
3026 11 2147 2148
3027 1 2147 2149
3028 2 2153 2154
3029 1 2153 2155
3030 2 2151 2152
3031 1 2151 2153
3032 2 1777 1778
3033 1 1777 1779
3034 1 1777 1787
3035 2 1787 1788
3036 2 1605 1606
3037 1 1605 1607
3038 11 195 196
3039 1 195 197
3040 2 1607 1608
3041 1 1607 1609
3042 2 197 198
3043 1 197 199
3044 6 208 206
3045 2 1609 1610
3046 1 1609 1611
3047 2 3243 3244
3048 5 2148 2158
3049 4 2157 2148
3050 4 3245 3236
3051 4 205 196
3052 5 196 206
3053 4 3325 3316
3054 5 3316 3326
3055 11 3235 3236
3056 1 3235 3237
3057 5 3236 3246
3058 11 1779 1780
3059 1 1779 1781
3060 6 1792 1790
3061 6 1791 1790
3062 4 1789 1780
3063 5 1780 1790
3064 6 207 206
3065 2 3233 3234
3066 1 3233 3235
3067 1 3233 3243
3068 2 1783 1784
3069 1 1783 1785
3070 2 1785 1786
3071 1 1785 1787
3072 11 2499 2500
3073 1 2499 2501
3074 2 2497 2498
3075 1 2497 2499
3076 1 2497 2507
3077 2 2507 2508
3078 2 2501 2502
3079 1 2501 2503
3080 2 2503 2504
3081 1 2503 2505
3082 2 2505 2506
3083 1 2505 2507
3084 2 1697 1698
3085 1 1697 1699
3086 1 1697 1707
3087 5 1700 1710
3088 11 1699 1700
3089 1 1699 1701
3090 5 356 366
3091 4 365 356
3092 2 353 354
3093 1 353 355
3094 1 353 363
3095 11 355 356
3096 1 355 357
3097 2 363 364
3098 2 357 358
3099 1 357 359
3100 2 361 362
3101 1 361 363
3102 2 359 360
3103 1 359 361
3104 6 1711 1710
3105 2 1781 1782
3106 1 1781 1783
3107 6 1712 1710
3108 2 1401 1402
3109 1 1401 1403
3110 2 1399 1400
3111 1 1399 1401
3112 2 1397 1398
3113 1 1397 1399
3114 2 533 534
3115 1 533 535
3116 2 535 536
3117 1 535 537
3118 5 532 542
3119 4 541 532
3120 2 1463 1464
3121 1 1463 1465
3122 2 1465 1466
3123 1 1465 1467
3124 2 971 972
3125 2 961 962
3126 1 961 963
3127 1 961 971
3128 11 963 964
3129 1 963 965
3130 6 543 542
3131 6 1407 1406
3132 2 969 970
3133 1 969 971
3134 2 967 968
3135 1 967 969
3136 6 3263 3262
3137 2 1457 1458
3138 1 1457 1459
3139 1 1457 1467
3140 2 1461 1462
3141 1 1461 1463
3142 5 1460 1470
3143 4 1469 1460
3144 6 1760 1758
3145 6 1471 1470
3146 6 1472 1470
3147 11 1459 1460
3148 1 1459 1461
3149 6 976 974
3150 2 1467 1468
3151 4 221 212
3152 5 212 222
3153 2 1093 1094
3154 1 1093 1095
3155 2 217 218
3156 1 217 219
3157 11 1091 1092
3158 1 1091 1093
3159 11 211 212
3160 1 211 213
3161 2 213 214
3162 1 213 215
3163 2 215 216
3164 1 215 217
3165 2 1095 1096
3166 1 1095 1097
3167 2 1097 1098
3168 1 1097 1099
3169 6 3264 3262
3170 6 1647 1646
3171 2 1089 1090
3172 1 1089 1091
3173 1 1089 1099
3174 2 1099 1100
3175 2 3367 3368
3176 1 3367 3369
3177 2 3371 3372
3178 2 3369 3370
3179 1 3369 3371
3180 4 3373 3364
3181 6 3375 3374
3182 2 3365 3366
3183 1 3365 3367
3184 2 3361 3362
3185 1 3361 3363
3186 1 3361 3371
3187 6 3376 3374
3188 5 3364 3374
3189 11 3363 3364
3190 1 3363 3365
3191 2 1657 1658
3192 1 1657 1659
3193 2 3305 3306
3194 1 3305 3307
3195 2 3307 3308
3196 2 3301 3302
3197 1 3301 3303
3198 2 3303 3304
3199 1 3303 3305
3200 11 2227 2228
3201 1 2227 2229
3202 2 2229 2230
3203 1 2229 2231
3204 6 2240 2238
3205 11 3299 3300
3206 1 3299 3301
3207 2 1367 1368
3208 1 1367 1369
3209 5 3300 3310
3210 2 2233 2234
3211 1 2233 2235
3212 2 2231 2232
3213 1 2231 2233
3214 2 1369 1370
3215 1 1369 1371
3216 6 2319 2318
3217 2 2353 2354
3218 1 2353 2355
3219 1 2353 2363
3220 2 1655 1656
3221 1 1655 1657
3222 2 2363 2364
3223 2 1653 1654
3224 1 1653 1655
3225 2 1365 1366
3226 1 1365 1367
3227 11 1363 1364
3228 1 1363 1365
3229 5 1364 1374
3230 6 1376 1374
3231 4 1373 1364
3232 11 1651 1652
3233 1 1651 1653
3234 6 3312 3310
3235 4 1661 1652
3236 5 1652 1662
3237 6 2784 2782
3238 2 297 298
3239 1 297 299
3240 4 2317 2308
3241 6 2783 2782
3242 5 2772 2782
3243 4 2781 2772
3244 11 2771 2772
3245 1 2771 2773
3246 2 2235 2236
3247 6 736 734
3248 2 295 296
3249 1 295 297
3250 6 3311 3310
3251 2 293 294
3252 1 293 295
3253 6 304 302
3254 11 291 292
3255 1 291 293
3256 2 289 290
3257 1 289 291
3258 1 289 299
3259 2 299 300
3260 11 723 724
3261 1 723 725
3262 2 721 722
3263 1 721 723
3264 1 721 731
3265 2 729 730
3266 1 729 731
3267 2 731 732
3268 2 725 726
3269 1 725 727
3270 2 727 728
3271 1 727 729
3272 5 724 734
3273 2 1515 1516
3274 2 2347 2348
3275 2 261 262
3276 1 261 263
3277 2 263 264
3278 1 263 265
3279 2 2337 2338
3280 1 2337 2339
3281 1 2337 2347
3282 6 2799 2798
3283 2 2773 2774
3284 1 2773 2775
3285 2 265 266
3286 1 265 267
3287 2 1547 1548
3288 2 1511 1512
3289 1 1511 1513
3290 2 1513 1514
3291 1 1513 1515
3292 6 735 734
3293 2 1113 1114
3294 1 1113 1115
3295 2 1433 1434
3296 1 1433 1435
3297 2 1431 1432
3298 1 1431 1433
3299 2 1429 1430
3300 1 1429 1431
3301 5 292 302
3302 4 301 292
3303 6 303 302
3304 2 1537 1538
3305 1 1537 1539
3306 1 1537 1547
3307 11 1539 1540
3308 1 1539 1541
3309 4 1549 1540
3310 4 733 724
3311 6 1551 1550
3312 6 1552 1550
3313 5 1540 1550
3314 2 1509 1510
3315 1 1509 1511
3316 2 1505 1506
3317 1 1505 1507
3318 1 1505 1515
3319 6 2800 2798
3320 11 2787 2788
3321 1 2787 2789
3322 2 2789 2790
3323 1 2789 2791
3324 2 2785 2786
3325 1 2785 2787
3326 1 2785 2795
3327 2 2791 2792
3328 1 2791 2793
3329 2 2795 2796
3330 5 1508 1518
3331 2 2793 2794
3332 1 2793 2795
3333 11 1507 1508
3334 1 1507 1509
3335 5 2788 2798
3336 4 2797 2788
3337 6 591 590
3338 2 433 434
3339 1 433 435
3340 1 433 443
3341 6 448 446
3342 11 435 436
3343 1 435 437
3344 6 1039 1038
3345 6 1519 1518
3346 4 1517 1508
3347 6 447 446
3348 5 436 446
3349 4 445 436
3350 6 592 590
3351 4 781 772
3352 5 772 782
3353 4 589 580
3354 5 580 590
3355 2 3105 3106
3356 1 3105 3107
3357 1 3105 3115
3358 6 3119 3118
3359 6 1152 1150
3360 5 3108 3118
3361 6 3120 3118
3362 6 1488 1486
3363 6 1487 1486
3364 2 3109 3110
3365 1 3109 3111
3366 11 3107 3108
3367 1 3107 3109
3368 5 1476 1486
3369 11 1475 1476
3370 1 1475 1477
3371 11 2739 2740
3372 1 2739 2741
3373 4 2749 2740
3374 2 2747 2748
3375 2 769 770
3376 1 769 771
3377 1 769 779
3378 11 771 772
3379 1 771 773
3380 4 3117 3108
3381 5 2740 2750
3382 6 2751 2750
3383 6 2752 2750
3384 2 2737 2738
3385 1 2737 2739
3386 1 2737 2747
3387 2 773 774
3388 1 773 775
3389 6 783 782
3390 6 784 782
3391 4 1485 1476
3392 2 1479 1480
3393 1 1479 1481
3394 2 1473 1474
3395 1 1473 1475
3396 1 1473 1483
3397 2 1477 1478
3398 1 1477 1479
3399 6 3248 3246
3400 6 2543 2542
3401 6 2544 2542
3402 2 3115 3116
3403 2 3113 3114
3404 1 3113 3115
3405 2 3241 3242
3406 1 3241 3243
3407 2 341 342
3408 1 341 343
3409 6 351 350
3410 6 352 350
3411 5 340 350
3412 2 3111 3112
3413 1 3111 3113
3414 4 349 340
3415 11 339 340
3416 1 339 341
3417 2 343 344
3418 1 343 345
3419 2 2521 2522
3420 1 2521 2523
3421 2 2523 2524
3422 2 3239 3240
3423 1 3239 3241
3424 2 3237 3238
3425 1 3237 3239
3426 6 3247 3246
3427 2 1481 1482
3428 1 1481 1483
3429 2 1483 1484
3430 2 635 636
3431 2 625 626
3432 1 625 627
3433 1 625 635
3434 2 633 634
3435 1 633 635
3436 2 631 632
3437 1 631 633
3438 2 629 630
3439 1 629 631
3440 11 627 628
3441 1 627 629
3442 2 2513 2514
3443 1 2513 2515
3444 1 2513 2523
3445 4 2525 2516
3446 11 2515 2516
3447 1 2515 2517
3448 4 637 628
3449 5 628 638
3450 6 1216 1214
3451 6 1215 1214
3452 4 1709 1700
3453 2 1707 1708
3454 2 1701 1702
3455 1 1701 1703
3456 4 973 964
3457 2 1703 1704
3458 1 1703 1705
3459 2 337 338
3460 1 337 339
3461 1 337 347
3462 2 347 348
3463 2 345 346
3464 1 345 347
3465 2 965 966
3466 1 965 967
3467 2 1705 1706
3468 1 1705 1707
3469 6 1408 1406
3470 2 2519 2520
3471 1 2519 2521
3472 6 640 638
3473 6 2527 2526
3474 2 1403 1404
3475 11 1395 1396
3476 1 1395 1397
3477 5 964 974
3478 6 975 974
3479 4 1405 1396
3480 2 1393 1394
3481 1 1393 1395
3482 1 1393 1403
3483 5 2516 2526
3484 6 2528 2526
3485 2 2517 2518
3486 1 2517 2519
3487 5 1396 1406
3488 6 639 638

Angles

1 2 1989 1991 1992
2 1 1989 1991 1993
3 2 1993 1991 1992
4 2 1987 1989 1990
5 1 1987 1989 1991
6 2 1991 1989 1990
7 17 1985 1987 1988
8 1 1985 1987 1989
9 17 1989 1987 1988
10 7 3103 3102 3092
11 7 3104 3102 3092
12 8 3103 3102 3104
13 2 2835 2837 2838
14 1 2835 2837 2839
15 2 2839 2837 2838
16 7 1599 1598 1588
17 7 1600 1598 1588
18 8 1599 1598 1600
19 2 2837 2839 2840
20 1 2837 2839 2841
21 2 2841 2839 2840
22 18 1987 1988 1997
23 19 1987 1988 1998
24 6 1997 1988 1998
25 17 2833 2835 2836
26 1 2833 2835 2837
27 17 2837 2835 2836
28 2 2835 2833 2834
29 2 2843 2833 2834
30 1 2835 2833 2843
31 17 3249 3251 3252
32 1 3249 3251 3253
33 17 3253 3251 3252
34 2 3251 3249 3250
35 2 3259 3249 3250
36 1 3251 3249 3259
37 1 3249 3259 3257
38 2 3249 3259 3260
39 2 3257 3259 3260
40 2 3255 3257 3258
41 1 3255 3257 3259
42 2 3259 3257 3258
43 2 3251 3253 3254
44 1 3251 3253 3255
45 2 3255 3253 3254
46 2 3253 3255 3256
47 1 3253 3255 3257
48 2 3257 3255 3256
49 1 2833 2843 2841
50 2 2833 2843 2844
51 2 2841 2843 2844
52 2 2839 2841 2842
53 1 2839 2841 2843
54 2 2843 2841 2842
55 2 1205 1207 1208
56 1 1205 1207 1209
57 2 1209 1207 1208
58 2 1991 1993 1994
59 1 1991 1993 1995
60 2 1995 1993 1994
61 1 1985 1995 1993
62 2 1985 1995 1996
63 2 1993 1995 1996
64 2 1987 1985 1986
65 2 1995 1985 1986
66 1 1987 1985 1995
67 2 1587 1589 1590
68 1 1587 1589 1591
69 2 1591 1589 1590
70 2 1591 1593 1594
71 1 1591 1593 1595
72 2 1595 1593 1594
73 2 1589 1591 1592
74 1 1589 1591 1593
75 2 1593 1591 1592
76 1 1585 1595 1593
77 2 1585 1595 1596
78 2 1593 1595 1596
79 2 1587 1585 1586
80 2 1595 1585 1586
81 1 1587 1585 1595
82 17 1585 1587 1588
83 1 1585 1587 1589
84 17 1589 1587 1588
85 2 663 665 666
86 1 663 665 667
87 2 667 665 666
88 18 3251 3252 3261
89 19 3251 3252 3262
90 6 3261 3252 3262
91 7 1999 1998 1988
92 7 2000 1998 1988
93 8 1999 1998 2000
94 7 2591 2590 2580
95 7 2592 2590 2580
96 8 2591 2590 2592
97 2 659 661 662
98 1 659 661 663
99 2 663 661 662
100 7 3183 3182 3172
101 7 3184 3182 3172
102 8 3183 3182 3184
103 18 659 660 669
104 19 659 660 670
105 6 669 660 670
106 17 657 659 660
107 1 657 659 661
108 17 661 659 660
109 7 671 670 660
110 7 672 670 660
111 8 671 670 672
112 2 659 657 658
113 2 667 657 658
114 1 659 657 667
115 1 657 667 665
116 2 657 667 668
117 2 665 667 668
118 18 1091 1092 1101
119 19 1091 1092 1102
120 6 1101 1092 1102
121 7 1103 1102 1092
122 7 1104 1102 1092
123 8 1103 1102 1104
124 2 2581 2583 2584
125 1 2581 2583 2585
126 2 2585 2583 2584
127 2 2579 2581 2582
128 1 2579 2581 2583
129 2 2583 2581 2582
130 2 3173 3175 3176
131 1 3173 3175 3177
132 2 3177 3175 3176
133 2 3175 3177 3178
134 1 3175 3177 3179
135 2 3179 3177 3178
136 1 3169 3179 3177
137 2 3169 3179 3180
138 2 3177 3179 3180
139 2 2583 2585 2586
140 1 2583 2585 2587
141 2 2587 2585 2586
142 1 2577 2587 2585
143 2 2577 2587 2588
144 2 2585 2587 2588
145 2 3299 3297 3298
146 2 3307 3297 3298
147 1 3299 3297 3307
148 1 1361 1371 1369
149 2 1361 1371 1372
150 2 1369 1371 1372
151 18 2579 2580 2589
152 19 2579 2580 2590
153 6 2589 2580 2590
154 17 2577 2579 2580
155 1 2577 2579 2581
156 17 2581 2579 2580
157 2 3171 3173 3174
158 1 3171 3173 3175
159 2 3175 3173 3174
160 17 3169 3171 3172
161 1 3169 3171 3173
162 17 3173 3171 3172
163 2 3171 3169 3170
164 2 3179 3169 3170
165 1 3171 3169 3179
166 2 243 241 242
167 2 251 241 242
168 1 243 241 251
169 1 241 251 249
170 2 241 251 252
171 2 249 251 252
172 2 2579 2577 2578
173 2 2587 2577 2578
174 1 2579 2577 2587
175 18 3171 3172 3181
176 19 3171 3172 3182
177 6 3181 3172 3182
178 2 1363 1361 1362
179 2 1371 1361 1362
180 1 1363 1361 1371
181 17 865 867 868
182 1 865 867 869
183 17 869 867 868
184 18 867 868 877
185 19 867 868 878
186 6 877 868 878
187 7 879 878 868
188 7 880 878 868
189 8 879 878 880
190 2 867 865 866
191 2 875 865 866
192 1 867 865 875
193 2 2771 2769 2770
194 2 2779 2769 2770
195 1 2771 2769 2779
196 1 2769 2779 2777
197 2 2769 2779 2780
198 2 2777 2779 2780
199 2 869 871 872
200 1 869 871 873
201 2 873 871 872
202 2 867 869 870
203 1 867 869 871
204 2 871 869 870
205 1 865 875 873
206 2 865 875 876
207 2 873 875 876
208 2 871 873 874
209 1 871 873 875
210 2 875 873 874
211 17 241 243 244
212 1 241 243 245
213 17 245 243 244
214 18 243 244 253
215 19 243 244 254
216 6 253 244 254
217 7 255 254 244
218 7 256 254 244
219 8 255 254 256
220 2 247 249 250
221 1 247 249 251
222 2 251 249 250
223 2 243 245 246
224 1 243 245 247
225 2 247 245 246
226 2 245 247 248
227 1 245 247 249
228 2 249 247 248
229 2 1109 1111 1112
230 1 1109 1111 1113
231 2 1113 1111 1112
232 2 1107 1109 1110
233 1 1107 1109 1111
234 2 1111 1109 1110
235 18 1443 1444 1453
236 19 1443 1444 1454
237 6 1453 1444 1454
238 2 1443 1441 1442
239 2 1451 1441 1442
240 1 1443 1441 1451
241 1 3025 3035 3033
242 2 3025 3035 3036
243 2 3033 3035 3036
244 7 1455 1454 1444
245 7 1456 1454 1444
246 8 1455 1454 1456
247 2 2775 2777 2778
248 1 2775 2777 2779
249 2 2779 2777 2778
250 17 1441 1443 1444
251 1 1441 1443 1445
252 17 1445 1443 1444
253 2 1543 1545 1546
254 1 1543 1545 1547
255 2 1547 1545 1546
256 2 2773 2775 2776
257 1 2773 2775 2777
258 2 2777 2775 2776
259 2 1107 1105 1106
260 2 1115 1105 1106
261 1 1107 1105 1115
262 7 1119 1118 1108
263 7 1120 1118 1108
264 8 1119 1118 1120
265 18 1107 1108 1117
266 19 1107 1108 1118
267 6 1117 1108 1118
268 17 1105 1107 1108
269 1 1105 1107 1109
270 17 1109 1107 1108
271 1 1105 1115 1113
272 2 1105 1115 1116
273 2 1113 1115 1116
274 1 1441 1451 1449
275 2 1441 1451 1452
276 2 1449 1451 1452
277 2 1447 1449 1450
278 1 1447 1449 1451
279 2 1451 1449 1450
280 2 1541 1543 1544
281 1 1541 1543 1545
282 2 1545 1543 1544
283 2 1539 1541 1542
284 1 1539 1541 1543
285 2 1543 1541 1542
286 2 3031 3033 3034
287 1 3031 3033 3035
288 2 3035 3033 3034
289 2 3027 3025 3026
290 2 3035 3025 3026
291 1 3027 3025 3035
292 2 3027 3029 3030
293 1 3027 3029 3031
294 2 3031 3029 3030
295 2 3029 3031 3032
296 1 3029 3031 3033
297 2 3033 3031 3032
298 18 3027 3028 3037
299 19 3027 3028 3038
300 6 3037 3028 3038
301 7 3039 3038 3028
302 7 3040 3038 3028
303 8 3039 3038 3040
304 17 3025 3027 3028
305 1 3025 3027 3029
306 17 3029 3027 3028
307 2 581 583 584
308 1 581 583 585
309 2 585 583 584
310 2 579 581 582
311 1 579 581 583
312 2 583 581 582
313 1 577 587 585
314 2 577 587 588
315 2 585 587 588
316 2 583 585 586
317 1 583 585 587
318 2 587 585 586
319 2 579 577 578
320 2 587 577 578
321 1 579 577 587
322 17 577 579 580
323 1 577 579 581
324 17 581 579 580
325 7 2447 2446 2436
326 7 2448 2446 2436
327 8 2447 2446 2448
328 18 2435 2436 2445
329 19 2435 2436 2446
330 6 2445 2436 2446
331 1 1025 1035 1033
332 2 1025 1035 1036
333 2 1033 1035 1036
334 2 1027 1025 1026
335 2 1035 1025 1026
336 1 1027 1025 1035
337 2 1027 1029 1030
338 1 1027 1029 1031
339 2 1031 1029 1030
340 2 1029 1031 1032
341 1 1029 1031 1033
342 2 1033 1031 1032
343 2 1031 1033 1034
344 1 1031 1033 1035
345 2 1035 1033 1034
346 17 1025 1027 1028
347 1 1025 1027 1029
348 17 1029 1027 1028
349 18 1027 1028 1037
350 19 1027 1028 1038
351 6 1037 1028 1038
352 7 1039 1038 1028
353 7 1040 1038 1028
354 8 1039 1038 1040
355 18 1763 1764 1773
356 19 1763 1764 1774
357 6 1773 1764 1774
358 2 1139 1137 1138
359 2 1147 1137 1138
360 1 1139 1137 1147
361 17 1137 1139 1140
362 1 1137 1139 1141
363 17 1141 1139 1140
364 2 1139 1141 1142
365 1 1139 1141 1143
366 2 1143 1141 1142
367 7 1775 1774 1764
368 7 1776 1774 1764
369 8 1775 1774 1776
370 1 1137 1147 1145
371 2 1137 1147 1148
372 2 1145 1147 1148
373 7 1919 1918 1908
374 7 1920 1918 1908
375 8 1919 1918 1920
376 2 1143 1145 1146
377 1 1143 1145 1147
378 2 1147 1145 1146
379 2 1141 1143 1144
380 1 1141 1143 1145
381 2 1145 1143 1144
382 7 1151 1150 1140
383 7 1152 1150 1140
384 8 1151 1150 1152
385 18 1139 1140 1149
386 19 1139 1140 1150
387 6 1149 1140 1150
388 2 2739 2741 2742
389 1 2739 2741 2743
390 2 2743 2741 2742
391 2 2803 2801 2802
392 2 2811 2801 2802
393 1 2803 2801 2811
394 2 2805 2807 2808
395 1 2805 2807 2809
396 2 2809 2807 2808
397 2 2807 2809 2810
398 1 2807 2809 2811
399 2 2811 2809 2810
400 1 2801 2811 2809
401 2 2801 2811 2812
402 2 2809 2811 2812
403 18 2003 2004 2013
404 19 2003 2004 2014
405 6 2013 2004 2014
406 2 2741 2743 2744
407 1 2741 2743 2745
408 2 2745 2743 2744
409 2 2743 2745 2746
410 1 2743 2745 2747
411 2 2747 2745 2746
412 2 2003 2001 2002
413 2 2011 2001 2002
414 1 2003 2001 2011
415 17 2001 2003 2004
416 1 2001 2003 2005
417 17 2005 2003 2004
418 18 1907 1908 1917
419 19 1907 1908 1918
420 6 1917 1908 1918
421 17 1905 1907 1908
422 1 1905 1907 1909
423 17 1909 1907 1908
424 2 2531 2529 2530
425 2 2539 2529 2530
426 1 2531 2529 2539
427 2 1907 1909 1910
428 1 1907 1909 1911
429 2 1911 1909 1910
430 1 2529 2539 2537
431 2 2529 2539 2540
432 2 2537 2539 2540
433 2 1907 1905 1906
434 2 1915 1905 1906
435 1 1907 1905 1915
436 2 1911 1913 1914
437 1 1911 1913 1915
438 2 1915 1913 1914
439 1 1905 1915 1913
440 2 1905 1915 1916
441 2 1913 1915 1916
442 2 1909 1911 1912
443 1 1909 1911 1913
444 2 1913 1911 1912
445 2 2535 2537 2538
446 1 2535 2537 2539
447 2 2539 2537 2538
448 7 2543 2542 2532
449 7 2544 2542 2532
450 8 2543 2542 2544
451 17 2529 2531 2532
452 1 2529 2531 2533
453 17 2533 2531 2532
454 2 2531 2533 2534
455 1 2531 2533 2535
456 2 2535 2533 2534
457 2 2533 2535 2536
458 1 2533 2535 2537
459 2 2537 2535 2536
460 18 2531 2532 2541
461 19 2531 2532 2542
462 6 2541 2532 2542
463 1 977 987 985
464 2 977 987 988
465 2 985 987 988
466 2 1255 1257 1258
467 1 1255 1257 1259
468 2 1259 1257 1258
469 2 1253 1255 1256
470 1 1253 1255 1257
471 2 1257 1255 1256
472 1 1249 1259 1257
473 2 1249 1259 1260
474 2 1257 1259 1260
475 17 1249 1251 1252
476 1 1249 1251 1253
477 17 1253 1251 1252
478 2 1251 1253 1254
479 1 1251 1253 1255
480 2 1255 1253 1254
481 2 981 983 984
482 1 981 983 985
483 2 985 983 984
484 2 983 985 986
485 1 983 985 987
486 2 987 985 986
487 2 979 977 978
488 2 987 977 978
489 1 979 977 987
490 7 2015 2014 2004
491 7 2016 2014 2004
492 8 2015 2014 2016
493 2 2003 2005 2006
494 1 2003 2005 2007
495 2 2007 2005 2006
496 2 1251 1249 1250
497 2 1259 1249 1250
498 1 1251 1249 1259
499 18 3091 3092 3101
500 19 3091 3092 3102
501 6 3101 3092 3102
502 2 3095 3097 3098
503 1 3095 3097 3099
504 2 3099 3097 3098
505 2 3091 3089 3090
506 2 3099 3089 3090
507 1 3091 3089 3099
508 1 3089 3099 3097
509 2 3089 3099 3100
510 2 3097 3099 3100
511 2 3093 3095 3096
512 1 3093 3095 3097
513 2 3097 3095 3096
514 2 3091 3093 3094
515 1 3091 3093 3095
516 2 3095 3093 3094
517 17 3089 3091 3092
518 1 3089 3091 3093
519 17 3093 3091 3092
520 7 2847 2846 2836
521 7 2848 2846 2836
522 8 2847 2846 2848
523 18 1203 1204 1213
524 19 1203 1204 1214
525 6 1213 1204 1214
526 18 979 980 989
527 19 979 980 990
528 6 989 980 990
529 2 979 981 982
530 1 979 981 983
531 2 983 981 982
532 7 991 990 980
533 7 992 990 980
534 8 991 990 992
535 17 977 979 980
536 1 977 979 981
537 17 981 979 980
538 17 1489 1491 1492
539 1 1489 1491 1493
540 17 1493 1491 1492
541 2 1491 1489 1490
542 2 1499 1489 1490
543 1 1491 1489 1499
544 18 2835 2836 2845
545 19 2835 2836 2846
546 6 2845 2836 2846
547 1 1489 1499 1497
548 2 1489 1499 1500
549 2 1497 1499 1500
550 2 1495 1497 1498
551 1 1495 1497 1499
552 2 1499 1497 1498
553 2 1203 1201 1202
554 2 1211 1201 1202
555 1 1203 1201 1211
556 1 1201 1211 1209
557 2 1201 1211 1212
558 2 1209 1211 1212
559 17 1201 1203 1204
560 1 1201 1203 1205
561 17 1205 1203 1204
562 2 1207 1209 1210
563 1 1207 1209 1211
564 2 1211 1209 1210
565 2 1203 1205 1206
566 1 1203 1205 1207
567 2 1207 1205 1206
568 18 1587 1588 1597
569 19 1587 1588 1598
570 6 1597 1588 1598
571 2 2627 2629 2630
572 1 2627 2629 2631
573 2 2631 2629 2630
574 2 2627 2625 2626
575 2 2635 2625 2626
576 1 2627 2625 2635
577 17 2625 2627 2628
578 1 2625 2627 2629
579 17 2629 2627 2628
580 7 2639 2638 2628
581 7 2640 2638 2628
582 8 2639 2638 2640
583 18 2627 2628 2637
584 19 2627 2628 2638
585 6 2637 2628 2638
586 17 2321 2323 2324
587 1 2321 2323 2325
588 17 2325 2323 2324
589 18 2323 2324 2333
590 19 2323 2324 2334
591 6 2333 2324 2334
592 7 2335 2334 2324
593 7 2336 2334 2324
594 8 2335 2334 2336
595 2 2323 2321 2322
596 2 2331 2321 2322
597 1 2323 2321 2331
598 1 2321 2331 2329
599 2 2321 2331 2332
600 2 2329 2331 2332
601 2 2323 2325 2326
602 1 2323 2325 2327
603 2 2327 2325 2326
604 2 2325 2327 2328
605 1 2325 2327 2329
606 2 2329 2327 2328
607 2 2327 2329 2330
608 1 2327 2329 2331
609 2 2331 2329 2330
610 18 3059 3060 3069
611 19 3059 3060 3070
612 6 3069 3060 3070
613 17 3057 3059 3060
614 1 3057 3059 3061
615 17 3061 3059 3060
616 2 3059 3057 3058
617 2 3067 3057 3058
618 1 3059 3057 3067
619 7 1135 1134 1124
620 7 1136 1134 1124
621 8 1135 1134 1136
622 18 1123 1124 1133
623 19 1123 1124 1134
624 6 1133 1124 1134
625 17 1121 1123 1124
626 1 1121 1123 1125
627 17 1125 1123 1124
628 2 1123 1125 1126
629 1 1123 1125 1127
630 2 1127 1125 1126
631 2 1123 1121 1122
632 2 1131 1121 1122
633 1 1123 1121 1131
634 2 1125 1127 1128
635 1 1125 1127 1129
636 2 1129 1127 1128
637 1 1121 1131 1129
638 2 1121 1131 1132
639 2 1129 1131 1132
640 2 1127 1129 1130
641 1 1127 1129 1131
642 2 1131 1129 1130
643 2 661 663 664
644 1 661 663 665
645 2 665 663 664
646 7 3071 3070 3060
647 7 3072 3070 3060
648 8 3071 3070 3072
649 1 673 683 681
650 2 673 683 684
651 2 681 683 684
652 2 677 679 680
653 1 677 679 681
654 2 681 679 680
655 2 679 681 682
656 1 679 681 683
657 2 683 681 682
658 7 575 574 564
659 7 576 574 564
660 8 575 574 576
661 2 675 677 678
662 1 675 677 679
663 2 679 677 678
664 17 561 563 564
665 1 561 563 565
666 17 565 563 564
667 2 563 565 566
668 1 563 565 567
669 2 567 565 566
670 2 565 567 568
671 1 565 567 569
672 2 569 567 568
673 1 561 571 569
674 2 561 571 572
675 2 569 571 572
676 2 567 569 570
677 1 567 569 571
678 2 571 569 570
679 2 563 561 562
680 2 571 561 562
681 1 563 561 571
682 18 563 564 573
683 19 563 564 574
684 6 573 564 574
685 2 1047 1049 1050
686 1 1047 1049 1051
687 2 1051 1049 1050
688 2 1045 1047 1048
689 1 1045 1047 1049
690 2 1049 1047 1048
691 1 1041 1051 1049
692 2 1041 1051 1052
693 2 1049 1051 1052
694 2 1043 1045 1046
695 1 1043 1045 1047
696 2 1047 1045 1046
697 17 1041 1043 1044
698 1 1041 1043 1045
699 17 1045 1043 1044
700 2 1043 1041 1042
701 2 1051 1041 1042
702 1 1043 1041 1051
703 2 675 673 674
704 2 683 673 674
705 1 675 673 683
706 17 673 675 676
707 1 673 675 677
708 17 677 675 676
709 1 1681 1691 1689
710 2 1681 1691 1692
711 2 1689 1691 1692
712 2 1687 1689 1690
713 1 1687 1689 1691
714 2 1691 1689 1690
715 2 1683 1685 1686
716 1 1683 1685 1687
717 2 1687 1685 1686
718 2 1683 1681 1682
719 2 1691 1681 1682
720 1 1683 1681 1691
721 17 1681 1683 1684
722 1 1681 1683 1685
723 17 1685 1683 1684
724 7 1695 1694 1684
725 7 1696 1694 1684
726 8 1695 1694 1696
727 18 1683 1684 1693
728 19 1683 1684 1694
729 6 1693 1684 1694
730 2 2099 2097 2098
731 2 2107 2097 2098
732 1 2099 2097 2107
733 1 2097 2107 2105
734 2 2097 2107 2108
735 2 2105 2107 2108
736 18 1219 1220 1229
737 19 1219 1220 1230
738 6 1229 1220 1230
739 7 1231 1230 1220
740 7 1232 1230 1220
741 8 1231 1230 1232
742 2 1685 1687 1688
743 1 1685 1687 1689
744 2 1689 1687 1688
745 2 2103 2105 2106
746 1 2103 2105 2107
747 2 2107 2105 2106
748 18 1043 1044 1053
749 19 1043 1044 1054
750 6 1053 1044 1054
751 7 1055 1054 1044
752 7 1056 1054 1044
753 8 1055 1054 1056
754 2 1221 1223 1224
755 1 1221 1223 1225
756 2 1225 1223 1224
757 2 1223 1225 1226
758 1 1223 1225 1227
759 2 1227 1225 1226
760 1 1217 1227 1225
761 2 1217 1227 1228
762 2 1225 1227 1228
763 2 1219 1221 1222
764 1 1219 1221 1223
765 2 1223 1221 1222
766 17 1217 1219 1220
767 1 1217 1219 1221
768 17 1221 1219 1220
769 2 1219 1217 1218
770 2 1227 1217 1218
771 1 1219 1217 1227
772 7 2415 2414 2404
773 7 2416 2414 2404
774 8 2415 2414 2416
775 18 2403 2404 2413
776 19 2403 2404 2414
777 6 2413 2404 2414
778 2 1443 1445 1446
779 1 1443 1445 1447
780 2 1447 1445 1446
781 2 1715 1717 1718
782 1 1715 1717 1719
783 2 1719 1717 1718
784 17 1713 1715 1716
785 1 1713 1715 1717
786 17 1717 1715 1716
787 18 1715 1716 1725
788 19 1715 1716 1726
789 6 1725 1716 1726
790 7 1727 1726 1716
791 7 1728 1726 1716
792 8 1727 1726 1728
793 2 1719 1721 1722
794 1 1719 1721 1723
795 2 1723 1721 1722
796 2 1717 1719 1720
797 1 1717 1719 1721
798 2 1721 1719 1720
799 2 2291 2289 2290
800 2 2299 2289 2290
801 1 2291 2289 2299
802 1 2289 2299 2297
803 2 2289 2299 2300
804 2 2297 2299 2300
805 18 1347 1348 1357
806 19 1347 1348 1358
807 6 1357 1348 1358
808 7 1359 1358 1348
809 7 1360 1358 1348
810 8 1359 1358 1360
811 2 1445 1447 1448
812 1 1445 1447 1449
813 2 1449 1447 1448
814 2 1351 1353 1354
815 1 1351 1353 1355
816 2 1355 1353 1354
817 1 1345 1355 1353
818 2 1345 1355 1356
819 2 1353 1355 1356
820 2 1347 1349 1350
821 1 1347 1349 1351
822 2 1351 1349 1350
823 2 1349 1351 1352
824 1 1349 1351 1353
825 2 1353 1351 1352
826 17 2289 2291 2292
827 1 2289 2291 2293
828 17 2293 2291 2292
829 2 2291 2293 2294
830 1 2291 2293 2295
831 2 2295 2293 2294
832 2 2295 2297 2298
833 1 2295 2297 2299
834 2 2299 2297 2298
835 2 2293 2295 2296
836 1 2293 2295 2297
837 2 2297 2295 2296
838 2 2181 2183 2184
839 1 2181 2183 2185
840 2 2185 2183 2184
841 2 1347 1345 1346
842 2 1355 1345 1346
843 1 1347 1345 1355
844 17 1345 1347 1348
845 1 1345 1347 1349
846 17 1349 1347 1348
847 2 2179 2181 2182
848 1 2179 2181 2183
849 2 2183 2181 2182
850 2 1715 1713 1714
851 2 1723 1713 1714
852 1 1715 1713 1723
853 1 1713 1723 1721
854 2 1713 1723 1724
855 2 1721 1723 1724
856 2 1763 1765 1766
857 1 1763 1765 1767
858 2 1767 1765 1766
859 17 1761 1763 1764
860 1 1761 1763 1765
861 17 1765 1763 1764
862 2 1767 1769 1770
863 1 1767 1769 1771
864 2 1771 1769 1770
865 2 1765 1767 1768
866 1 1765 1767 1769
867 2 1769 1767 1768
868 1 1761 1771 1769
869 2 1761 1771 1772
870 2 1769 1771 1772
871 2 1795 1793 1794
872 2 1803 1793 1794
873 1 1795 1793 1803
874 1 1793 1803 1801
875 2 1793 1803 1804
876 2 1801 1803 1804
877 2 1799 1801 1802
878 1 1799 1801 1803
879 2 1803 1801 1802
880 2 2183 2185 2186
881 1 2183 2185 2187
882 2 2187 2185 2186
883 17 2433 2435 2436
884 1 2433 2435 2437
885 17 2437 2435 2436
886 1 2177 2187 2185
887 2 2177 2187 2188
888 2 2185 2187 2188
889 2 2437 2439 2440
890 1 2437 2439 2441
891 2 2441 2439 2440
892 2 2435 2437 2438
893 1 2435 2437 2439
894 2 2439 2437 2438
895 2 2179 2177 2178
896 2 2187 2177 2178
897 1 2179 2177 2187
898 2 1763 1761 1762
899 2 1771 1761 1762
900 1 1763 1761 1771
901 1 2369 2379 2377
902 2 2369 2379 2380
903 2 2377 2379 2380
904 2 2375 2377 2378
905 1 2375 2377 2379
906 2 2379 2377 2378
907 2 2373 2375 2376
908 1 2373 2375 2377
909 2 2377 2375 2376
910 2 2371 2373 2374
911 1 2371 2373 2375
912 2 2375 2373 2374
913 7 1583 1582 1572
914 7 1584 1582 1572
915 8 1583 1582 1584
916 18 1571 1572 1581
917 19 1571 1572 1582
918 6 1581 1572 1582
919 2 2803 2805 2806
920 1 2803 2805 2807
921 2 2807 2805 2806
922 2 2435 2433 2434
923 2 2443 2433 2434
924 1 2435 2433 2443
925 1 2433 2443 2441
926 2 2433 2443 2444
927 2 2441 2443 2444
928 2 2439 2441 2442
929 1 2439 2441 2443
930 2 2443 2441 2442
931 17 2801 2803 2804
932 1 2801 2803 2805
933 17 2805 2803 2804
934 18 2803 2804 2813
935 19 2803 2804 2814
936 6 2813 2804 2814
937 7 2815 2814 2804
938 7 2816 2814 2804
939 8 2815 2814 2816
940 1 2657 2667 2665
941 2 2657 2667 2668
942 2 2665 2667 2668
943 2 2663 2665 2666
944 1 2663 2665 2667
945 2 2667 2665 2666
946 2 2659 2657 2658
947 2 2667 2657 2658
948 1 2659 2657 2667
949 1 2001 2011 2009
950 2 2001 2011 2012
951 2 2009 2011 2012
952 2 2007 2009 2010
953 1 2007 2009 2011
954 2 2011 2009 2010
955 17 2369 2371 2372
956 1 2369 2371 2373
957 17 2373 2371 2372
958 2 2371 2369 2370
959 2 2379 2369 2370
960 1 2371 2369 2379
961 7 2383 2382 2372
962 7 2384 2382 2372
963 8 2383 2382 2384
964 18 2371 2372 2381
965 19 2371 2372 2382
966 6 2381 2372 2382
967 2 2021 2023 2024
968 1 2021 2023 2025
969 2 2025 2023 2024
970 2 2023 2025 2026
971 1 2023 2025 2027
972 2 2027 2025 2026
973 7 3023 3022 3012
974 7 3024 3022 3012
975 8 3023 3022 3024
976 1 2017 2027 2025
977 2 2017 2027 2028
978 2 2025 2027 2028
979 18 2019 2020 2029
980 19 2019 2020 2030
981 6 2029 2020 2030
982 17 2017 2019 2020
983 1 2017 2019 2021
984 17 2021 2019 2020
985 2 2019 2021 2022
986 1 2019 2021 2023
987 2 2023 2021 2022
988 2 2005 2007 2008
989 1 2005 2007 2009
990 2 2009 2007 2008
991 18 1251 1252 1261
992 19 1251 1252 1262
993 6 1261 1252 1262
994 2 2019 2017 2018
995 2 2027 2017 2018
996 1 2019 2017 2027
997 7 1167 1166 1156
998 7 1168 1166 1156
999 8 1167 1166 1168
1000 18 1155 1156 1165
1001 19 1155 1156 1166
1002 6 1165 1156 1166
1003 7 1263 1262 1252
1004 7 1264 1262 1252
1005 8 1263 1262 1264
1006 17 1153 1155 1156
1007 1 1153 1155 1157
1008 17 1157 1155 1156
1009 1 1153 1163 1161
1010 2 1153 1163 1164
1011 2 1161 1163 1164
1012 2 1155 1153 1154
1013 2 1163 1153 1154
1014 1 1155 1153 1163
1015 2 2631 2633 2634
1016 1 2631 2633 2635
1017 2 2635 2633 2634
1018 2 2629 2631 2632
1019 1 2629 2631 2633
1020 2 2633 2631 2632
1021 1 2625 2635 2633
1022 2 2625 2635 2636
1023 2 2633 2635 2636
1024 18 3011 3012 3021
1025 19 3011 3012 3022
1026 6 3021 3012 3022
1027 2 3011 3013 3014
1028 1 3011 3013 3015
1029 2 3015 3013 3014
1030 17 3009 3011 3012
1031 1 3009 3011 3013
1032 17 3013 3011 3012
1033 2 3011 3009 3010
1034 2 3019 3009 3010
1035 1 3011 3009 3019
1036 2 3015 3017 3018
1037 1 3015 3017 3019
1038 2 3019 3017 3018
1039 2 3013 3015 3016
1040 1 3013 3015 3017
1041 2 3017 3015 3016
1042 1 3009 3019 3017
1043 2 3009 3019 3020
1044 2 3017 3019 3020
1045 7 1503 1502 1492
1046 7 1504 1502 1492
1047 8 1503 1502 1504
1048 18 1491 1492 1501
1049 19 1491 1492 1502
1050 6 1501 1492 1502
1051 2 1491 1493 1494
1052 1 1491 1493 1495
1053 2 1495 1493 1494
1054 2 1493 1495 1496
1055 1 1493 1495 1497
1056 2 1497 1495 1496
1057 2 1189 1191 1192
1058 1 1189 1191 1193
1059 2 1193 1191 1192
1060 2 1191 1193 1194
1061 1 1191 1193 1195
1062 2 1195 1193 1194
1063 2 1187 1189 1190
1064 1 1187 1189 1191
1065 2 1191 1189 1190
1066 2 1187 1185 1186
1067 2 1195 1185 1186
1068 1 1187 1185 1195
1069 17 1185 1187 1188
1070 1 1185 1187 1189
1071 17 1189 1187 1188
1072 7 1199 1198 1188
1073 7 1200 1198 1188
1074 8 1199 1198 1200
1075 18 1187 1188 1197
1076 19 1187 1188 1198
1077 6 1197 1188 1198
1078 1 1185 1195 1193
1079 2 1185 1195 1196
1080 2 1193 1195 1196
1081 2 2821 2823 2824
1082 1 2821 2823 2825
1083 2 2825 2823 2824
1084 2 2819 2821 2822
1085 1 2819 2821 2823
1086 2 2823 2821 2822
1087 2 2823 2825 2826
1088 1 2823 2825 2827
1089 2 2827 2825 2826
1090 1 2817 2827 2825
1091 2 2817 2827 2828
1092 2 2825 2827 2828
1093 2 2903 2905 2906
1094 1 2903 2905 2907
1095 2 2907 2905 2906
1096 2 2819 2817 2818
1097 2 2827 2817 2818
1098 1 2819 2817 2827
1099 1 3057 3067 3065
1100 2 3057 3067 3068
1101 2 3065 3067 3068
1102 18 3043 3044 3053
1103 19 3043 3044 3054
1104 6 3053 3044 3054
1105 2 2899 2901 2902
1106 1 2899 2901 2903
1107 2 2903 2901 2902
1108 2 2901 2903 2904
1109 1 2901 2903 2905
1110 2 2905 2903 2904
1111 7 2831 2830 2820
1112 7 2832 2830 2820
1113 8 2831 2830 2832
1114 17 2817 2819 2820
1115 1 2817 2819 2821
1116 17 2821 2819 2820
1117 2 3063 3065 3066
1118 1 3063 3065 3067
1119 2 3067 3065 3066
1120 2 3059 3061 3062
1121 1 3059 3061 3063
1122 2 3063 3061 3062
1123 2 3061 3063 3064
1124 1 3061 3063 3065
1125 2 3065 3063 3064
1126 18 2819 2820 2829
1127 19 2819 2820 2830
1128 6 2829 2820 2830
1129 18 803 804 813
1130 19 803 804 814
1131 6 813 804 814
1132 2 3043 3041 3042
1133 2 3051 3041 3042
1134 1 3043 3041 3051
1135 7 3087 3086 3076
1136 7 3088 3086 3076
1137 8 3087 3086 3088
1138 2 803 801 802
1139 2 811 801 802
1140 1 803 801 811
1141 1 705 715 713
1142 2 705 715 716
1143 2 713 715 716
1144 2 707 705 706
1145 2 715 705 706
1146 1 707 705 715
1147 1 2897 2907 2905
1148 2 2897 2907 2908
1149 2 2905 2907 2908
1150 7 1935 1934 1924
1151 7 1936 1934 1924
1152 8 1935 1934 1936
1153 18 1923 1924 1933
1154 19 1923 1924 1934
1155 6 1933 1924 1934
1156 17 1921 1923 1924
1157 1 1921 1923 1925
1158 17 1925 1923 1924
1159 2 2899 2897 2898
1160 2 2907 2897 2898
1161 1 2899 2897 2907
1162 2 711 713 714
1163 1 711 713 715
1164 2 715 713 714
1165 2 803 805 806
1166 1 803 805 807
1167 2 807 805 806
1168 2 709 711 712
1169 1 709 711 713
1170 2 713 711 712
1171 2 707 709 710
1172 1 707 709 711
1173 2 711 709 710
1174 17 705 707 708
1175 1 705 707 709
1176 17 709 707 708
1177 17 801 803 804
1178 1 801 803 805
1179 17 805 803 804
1180 7 815 814 804
1181 7 816 814 804
1182 8 815 814 816
1183 1 801 811 809
1184 2 801 811 812
1185 2 809 811 812
1186 1 2881 2891 2889
1187 2 2881 2891 2892
1188 2 2889 2891 2892
1189 2 1927 1929 1930
1190 1 1927 1929 1931
1191 2 1931 1929 1930
1192 1 1921 1931 1929
1193 2 1921 1931 1932
1194 2 1929 1931 1932
1195 2 3221 3223 3224
1196 1 3221 3223 3225
1197 2 3225 3223 3224
1198 2 3223 3225 3226
1199 1 3223 3225 3227
1200 2 3227 3225 3226
1201 2 1923 1921 1922
1202 2 1931 1921 1922
1203 1 1923 1921 1931
1204 2 1923 1925 1926
1205 1 1923 1925 1927
1206 2 1927 1925 1926
1207 2 1925 1927 1928
1208 1 1925 1927 1929
1209 2 1929 1927 1928
1210 2 1239 1241 1242
1211 1 1239 1241 1243
1212 2 1243 1241 1242
1213 1 1233 1243 1241
1214 2 1233 1243 1244
1215 2 1241 1243 1244
1216 2 1237 1239 1240
1217 1 1237 1239 1241
1218 2 1241 1239 1240
1219 2 3219 3221 3222
1220 1 3219 3221 3223
1221 2 3223 3221 3222
1222 7 399 398 388
1223 7 400 398 388
1224 8 399 398 400
1225 18 2883 2884 2893
1226 19 2883 2884 2894
1227 6 2893 2884 2894
1228 7 2895 2894 2884
1229 7 2896 2894 2884
1230 8 2895 2894 2896
1231 17 2881 2883 2884
1232 1 2881 2883 2885
1233 17 2885 2883 2884
1234 1 3217 3227 3225
1235 2 3217 3227 3228
1236 2 3225 3227 3228
1237 18 675 676 685
1238 19 675 676 686
1239 6 685 676 686
1240 7 687 686 676
1241 7 688 686 676
1242 8 687 686 688
1243 2 3219 3217 3218
1244 2 3227 3217 3218
1245 1 3219 3217 3227
1246 7 719 718 708
1247 7 720 718 708
1248 8 719 718 720
1249 18 707 708 717
1250 19 707 708 718
1251 6 717 708 718
1252 18 3219 3220 3229
1253 19 3219 3220 3230
1254 6 3229 3220 3230
1255 7 1247 1246 1236
1256 7 1248 1246 1236
1257 8 1247 1246 1248
1258 18 1235 1236 1245
1259 19 1235 1236 1246
1260 6 1245 1236 1246
1261 2 1235 1237 1238
1262 1 1235 1237 1239
1263 2 1239 1237 1238
1264 17 1233 1235 1236
1265 1 1233 1235 1237
1266 17 1237 1235 1236
1267 2 1235 1233 1234
1268 2 1243 1233 1234
1269 1 1235 1233 1243
1270 17 3217 3219 3220
1271 1 3217 3219 3221
1272 17 3221 3219 3220
1273 2 2883 2881 2882
1274 2 2891 2881 2882
1275 1 2883 2881 2891
1276 7 2111 2110 2100
1277 7 2112 2110 2100
1278 8 2111 2110 2112
1279 18 2099 2100 2109
1280 19 2099 2100 2110
1281 6 2109 2100 2110
1282 17 2097 2099 2100
1283 1 2097 2099 2101
1284 17 2101 2099 2100
1285 2 2099 2101 2102
1286 1 2099 2101 2103
1287 2 2103 2101 2102
1288 2 1555 1553 1554
1289 2 1563 1553 1554
1290 1 1555 1553 1563
1291 1 1553 1563 1561
1292 2 1553 1563 1564
1293 2 1561 1563 1564
1294 2 1559 1561 1562
1295 1 1559 1561 1563
1296 2 1563 1561 1562
1297 2 1557 1559 1560
1298 1 1557 1559 1561
1299 2 1561 1559 1560
1300 17 1553 1555 1556
1301 1 1553 1555 1557
1302 17 1557 1555 1556
1303 7 3231 3230 3220
1304 7 3232 3230 3220
1305 8 3231 3230 3232
1306 2 2403 2405 2406
1307 1 2403 2405 2407
1308 2 2407 2405 2406
1309 2 2405 2407 2408
1310 1 2405 2407 2409
1311 2 2409 2407 2408
1312 2 2407 2409 2410
1313 1 2407 2409 2411
1314 2 2411 2409 2410
1315 17 2401 2403 2404
1316 1 2401 2403 2405
1317 17 2405 2403 2404
1318 2 2403 2401 2402
1319 2 2411 2401 2402
1320 1 2403 2401 2411
1321 1 2401 2411 2409
1322 2 2401 2411 2412
1323 2 2409 2411 2412
1324 2 1079 1081 1082
1325 1 1079 1081 1083
1326 2 1083 1081 1082
1327 2 1077 1079 1080
1328 1 1077 1079 1081
1329 2 1081 1079 1080
1330 2 2101 2103 2104
1331 1 2101 2103 2105
1332 2 2105 2103 2104
1333 2 1555 1557 1558
1334 1 1555 1557 1559
1335 2 1559 1557 1558
1336 2 1943 1945 1946
1337 1 1943 1945 1947
1338 2 1947 1945 1946
1339 2 1941 1943 1944
1340 1 1941 1943 1945
1341 2 1945 1943 1944
1342 2 2677 2679 2680
1343 1 2677 2679 2681
1344 2 2681 2679 2680
1345 2 2679 2681 2682
1346 1 2679 2681 2683
1347 2 2683 2681 2682
1348 2 2675 2677 2678
1349 1 2675 2677 2679
1350 2 2679 2677 2678
1351 2 1939 1941 1942
1352 1 1939 1941 1943
1353 2 1943 1941 1942
1354 1 2673 2683 2681
1355 2 2673 2683 2684
1356 2 2681 2683 2684
1357 17 2673 2675 2676
1358 1 2673 2675 2677
1359 17 2677 2675 2676
1360 1 1937 1947 1945
1361 2 1937 1947 1948
1362 2 1945 1947 1948
1363 2 1939 1937 1938
1364 2 1947 1937 1938
1365 1 1939 1937 1947
1366 17 1937 1939 1940
1367 1 1937 1939 1941
1368 17 1941 1939 1940
1369 18 2291 2292 2301
1370 19 2291 2292 2302
1371 6 2301 2292 2302
1372 7 2303 2302 2292
1373 7 2304 2302 2292
1374 8 2303 2302 2304
1375 17 2177 2179 2180
1376 1 2177 2179 2181
1377 17 2181 2179 2180
1378 2 2675 2673 2674
1379 2 2683 2673 2674
1380 1 2675 2673 2683
1381 1 1073 1083 1081
1382 2 1073 1083 1084
1383 2 1081 1083 1084
1384 17 1073 1075 1076
1385 1 1073 1075 1077
1386 17 1077 1075 1076
1387 2 1075 1077 1078
1388 1 1075 1077 1079
1389 2 1079 1077 1078
1390 18 2675 2676 2685
1391 19 2675 2676 2686
1392 6 2685 2676 2686
1393 7 2687 2686 2676
1394 7 2688 2686 2676
1395 8 2687 2686 2688
1396 2 1075 1073 1074
1397 2 1083 1073 1074
1398 1 1075 1073 1083
1399 7 2191 2190 2180
1400 7 2192 2190 2180
1401 8 2191 2190 2192
1402 18 2179 2180 2189
1403 19 2179 2180 2190
1404 6 2189 2180 2190
1405 7 1087 1086 1076
1406 7 1088 1086 1076
1407 8 1087 1086 1088
1408 17 1793 1795 1796
1409 1 1793 1795 1797
1410 17 1797 1795 1796
1411 7 319 318 308
1412 7 320 318 308
1413 8 319 318 320
1414 18 307 308 317
1415 19 307 308 318
1416 6 317 308 318
1417 2 1797 1799 1800
1418 1 1797 1799 1801
1419 2 1801 1799 1800
1420 2 1795 1797 1798
1421 1 1795 1797 1799
1422 2 1799 1797 1798
1423 2 2131 2133 2134
1424 1 2131 2133 2135
1425 2 2135 2133 2134
1426 2 2133 2135 2136
1427 1 2133 2135 2137
1428 2 2137 2135 2136
1429 2 2135 2137 2138
1430 1 2135 2137 2139
1431 2 2139 2137 2138
1432 17 2129 2131 2132
1433 1 2129 2131 2133
1434 17 2133 2131 2132
1435 7 1951 1950 1940
1436 7 1952 1950 1940
1437 8 1951 1950 1952
1438 18 1939 1940 1949
1439 19 1939 1940 1950
1440 6 1949 1940 1950
1441 18 1795 1796 1805
1442 19 1795 1796 1806
1443 6 1805 1796 1806
1444 7 1807 1806 1796
1445 7 1808 1806 1796
1446 8 1807 1806 1808
1447 17 305 307 308
1448 1 305 307 309
1449 17 309 307 308
1450 2 307 305 306
1451 2 315 305 306
1452 1 307 305 315
1453 2 307 309 310
1454 1 307 309 311
1455 2 311 309 310
1456 1 305 315 313
1457 2 305 315 316
1458 2 313 315 316
1459 2 311 313 314
1460 1 311 313 315
1461 2 315 313 314
1462 2 309 311 312
1463 1 309 311 313
1464 2 313 311 312
1465 7 2143 2142 2132
1466 7 2144 2142 2132
1467 8 2143 2142 2144
1468 18 2131 2132 2141
1469 19 2131 2132 2142
1470 6 2141 2132 2142
1471 2 1573 1575 1576
1472 1 1573 1575 1577
1473 2 1577 1575 1576
1474 2 1575 1577 1578
1475 1 1575 1577 1579
1476 2 1579 1577 1578
1477 1 1569 1579 1577
1478 2 1569 1579 1580
1479 2 1577 1579 1580
1480 2 1571 1569 1570
1481 2 1579 1569 1570
1482 1 1571 1569 1579
1483 2 1571 1573 1574
1484 1 1571 1573 1575
1485 2 1575 1573 1574
1486 17 1569 1571 1572
1487 1 1569 1571 1573
1488 17 1573 1571 1572
1489 1 2257 2267 2265
1490 2 2257 2267 2268
1491 2 2265 2267 2268
1492 7 1023 1022 1012
1493 7 1024 1022 1012
1494 8 1023 1022 1024
1495 2 2259 2257 2258
1496 2 2267 2257 2258
1497 1 2259 2257 2267
1498 7 2271 2270 2260
1499 7 2272 2270 2260
1500 8 2271 2270 2272
1501 17 2257 2259 2260
1502 1 2257 2259 2261
1503 17 2261 2259 2260
1504 18 2259 2260 2269
1505 19 2259 2260 2270
1506 6 2269 2260 2270
1507 18 3331 3332 3341
1508 19 3331 3332 3342
1509 6 3341 3332 3342
1510 18 1011 1012 1021
1511 19 1011 1012 1022
1512 6 1021 1012 1022
1513 2 2661 2663 2664
1514 1 2661 2663 2665
1515 2 2665 2663 2664
1516 2 1015 1017 1018
1517 1 1015 1017 1019
1518 2 1019 1017 1018
1519 1 1009 1019 1017
1520 2 1009 1019 1020
1521 2 1017 1019 1020
1522 2 1013 1015 1016
1523 1 1013 1015 1017
1524 2 1017 1015 1016
1525 17 2657 2659 2660
1526 1 2657 2659 2661
1527 17 2661 2659 2660
1528 18 2659 2660 2669
1529 19 2659 2660 2670
1530 6 2669 2660 2670
1531 2 2659 2661 2662
1532 1 2659 2661 2663
1533 2 2663 2661 2662
1534 7 2671 2670 2660
1535 7 2672 2670 2660
1536 8 2671 2670 2672
1537 2 1011 1009 1010
1538 2 1019 1009 1010
1539 1 1011 1009 1019
1540 17 1009 1011 1012
1541 1 1009 1011 1013
1542 17 1013 1011 1012
1543 2 1011 1013 1014
1544 1 1011 1013 1015
1545 2 1015 1013 1014
1546 18 643 644 653
1547 19 643 644 654
1548 6 653 644 654
1549 7 655 654 644
1550 7 656 654 644
1551 8 655 654 656
1552 2 645 647 648
1553 1 645 647 649
1554 2 649 647 648
1555 2 643 645 646
1556 1 643 645 647
1557 2 647 645 646
1558 2 643 641 642
1559 2 651 641 642
1560 1 643 641 651
1561 17 641 643 644
1562 1 641 643 645
1563 17 645 643 644
1564 2 647 649 650
1565 1 647 649 651
1566 2 651 649 650
1567 1 641 651 649
1568 2 641 651 652
1569 2 649 651 652
1570 7 3343 3342 3332
1571 7 3344 3342 3332
1572 8 3343 3342 3344
1573 7 2031 2030 2020
1574 7 2032 2030 2020
1575 8 2031 2030 2032
1576 2 1155 1157 1158
1577 1 1155 1157 1159
1578 2 1159 1157 1158
1579 17 3329 3331 3332
1580 1 3329 3331 3333
1581 17 3333 3331 3332
1582 2 3331 3329 3330
1583 2 3339 3329 3330
1584 1 3331 3329 3339
1585 1 3329 3339 3337
1586 2 3329 3339 3340
1587 2 3337 3339 3340
1588 2 1157 1159 1160
1589 1 1157 1159 1161
1590 2 1161 1159 1160
1591 2 1159 1161 1162
1592 1 1159 1161 1163
1593 2 1163 1161 1162
1594 18 1299 1300 1309
1595 19 1299 1300 1310
1596 6 1309 1300 1310
1597 17 1297 1299 1300
1598 1 1297 1299 1301
1599 17 1301 1299 1300
1600 2 1299 1301 1302
1601 1 1299 1301 1303
1602 2 1303 1301 1302
1603 7 1311 1310 1300
1604 7 1312 1310 1300
1605 8 1311 1310 1312
1606 2 3333 3335 3336
1607 1 3333 3335 3337
1608 2 3337 3335 3336
1609 2 3335 3337 3338
1610 1 3335 3337 3339
1611 2 3339 3337 3338
1612 2 3331 3333 3334
1613 1 3331 3333 3335
1614 2 3335 3333 3334
1615 2 1301 1303 1304
1616 1 1301 1303 1305
1617 2 1305 1303 1304
1618 2 2035 2037 2038
1619 1 2035 2037 2039
1620 2 2039 2037 2038
1621 2 2037 2039 2040
1622 1 2037 2039 2041
1623 2 2041 2039 2040
1624 7 623 622 612
1625 7 624 622 612
1626 8 623 622 624
1627 2 2039 2041 2042
1628 1 2039 2041 2043
1629 2 2043 2041 2042
1630 17 2033 2035 2036
1631 1 2033 2035 2037
1632 17 2037 2035 2036
1633 18 2035 2036 2045
1634 19 2035 2036 2046
1635 6 2045 2036 2046
1636 1 2033 2043 2041
1637 2 2033 2043 2044
1638 2 2041 2043 2044
1639 2 2035 2033 2034
1640 2 2043 2033 2034
1641 1 2035 2033 2043
1642 18 611 612 621
1643 19 611 612 622
1644 6 621 612 622
1645 17 609 611 612
1646 1 609 611 613
1647 17 613 611 612
1648 7 3055 3054 3044
1649 7 3056 3054 3044
1650 8 3055 3054 3056
1651 2 611 609 610
1652 2 619 609 610
1653 1 611 609 619
1654 2 611 613 614
1655 1 611 613 615
1656 2 615 613 614
1657 2 613 615 616
1658 1 613 615 617
1659 2 617 615 616
1660 7 2047 2046 2036
1661 7 2048 2046 2036
1662 8 2047 2046 2048
1663 1 609 619 617
1664 2 609 619 620
1665 2 617 619 620
1666 2 3047 3049 3050
1667 1 3047 3049 3051
1668 2 3051 3049 3050
1669 1 3041 3051 3049
1670 2 3041 3051 3052
1671 2 3049 3051 3052
1672 17 3041 3043 3044
1673 1 3041 3043 3045
1674 17 3045 3043 3044
1675 2 3045 3047 3048
1676 1 3045 3047 3049
1677 2 3049 3047 3048
1678 2 3043 3045 3046
1679 1 3043 3045 3047
1680 2 3047 3045 3046
1681 2 615 617 618
1682 1 615 617 619
1683 2 619 617 618
1684 18 2243 2244 2253
1685 19 2243 2244 2254
1686 6 2253 2244 2254
1687 7 2255 2254 2244
1688 7 2256 2254 2244
1689 8 2255 2254 2256
1690 2 407 409 410
1691 1 407 409 411
1692 2 411 409 410
1693 2 405 407 408
1694 1 405 407 409
1695 2 409 407 408
1696 1 401 411 409
1697 2 401 411 412
1698 2 409 411 412
1699 2 403 401 402
1700 2 411 401 402
1701 1 403 401 411
1702 2 403 405 406
1703 1 403 405 407
1704 2 407 405 406
1705 7 415 414 404
1706 7 416 414 404
1707 8 415 414 416
1708 17 401 403 404
1709 1 401 403 405
1710 17 405 403 404
1711 18 403 404 413
1712 19 403 404 414
1713 6 413 404 414
1714 7 2911 2910 2900
1715 7 2912 2910 2900
1716 8 2911 2910 2912
1717 17 2241 2243 2244
1718 1 2241 2243 2245
1719 17 2245 2243 2244
1720 2 3075 3077 3078
1721 1 3075 3077 3079
1722 2 3079 3077 3078
1723 2 3079 3081 3082
1724 1 3079 3081 3083
1725 2 3083 3081 3082
1726 2 3077 3079 3080
1727 1 3077 3079 3081
1728 2 3081 3079 3080
1729 2 2243 2241 2242
1730 2 2251 2241 2242
1731 1 2243 2241 2251
1732 18 3075 3076 3085
1733 19 3075 3076 3086
1734 6 3085 3076 3086
1735 17 3073 3075 3076
1736 1 3073 3075 3077
1737 17 3077 3075 3076
1738 2 3075 3073 3074
1739 2 3083 3073 3074
1740 1 3075 3073 3083
1741 1 3073 3083 3081
1742 2 3073 3083 3084
1743 2 3081 3083 3084
1744 7 2431 2430 2420
1745 7 2432 2430 2420
1746 8 2431 2430 2432
1747 1 2241 2251 2249
1748 2 2241 2251 2252
1749 2 2249 2251 2252
1750 7 863 862 852
1751 7 864 862 852
1752 8 863 862 864
1753 17 2897 2899 2900
1754 1 2897 2899 2901
1755 17 2901 2899 2900
1756 18 2899 2900 2909
1757 19 2899 2900 2910
1758 6 2909 2900 2910
1759 2 2691 2693 2694
1760 1 2691 2693 2695
1761 2 2695 2693 2694
1762 2 2693 2695 2696
1763 1 2693 2695 2697
1764 2 2697 2695 2696
1765 7 2703 2702 2692
1766 7 2704 2702 2692
1767 8 2703 2702 2704
1768 17 2689 2691 2692
1769 1 2689 2691 2693
1770 17 2693 2691 2692
1771 2 2691 2689 2690
1772 2 2699 2689 2690
1773 1 2691 2689 2699
1774 2 2695 2697 2698
1775 1 2695 2697 2699
1776 2 2699 2697 2698
1777 1 2689 2699 2697
1778 2 2689 2699 2700
1779 2 2697 2699 2700
1780 2 2471 2473 2474
1781 1 2471 2473 2475
1782 2 2475 2473 2474
1783 2 2469 2471 2472
1784 1 2469 2471 2473
1785 2 2473 2471 2472
1786 1 2465 2475 2473
1787 2 2465 2475 2476
1788 2 2473 2475 2476
1789 7 3279 3278 3268
1790 7 3280 3278 3268
1791 8 3279 3278 3280
1792 2 3269 3271 3272
1793 1 3269 3271 3273
1794 2 3273 3271 3272
1795 2 3267 3269 3270
1796 1 3267 3269 3271
1797 2 3271 3269 3270
1798 2 3271 3273 3274
1799 1 3271 3273 3275
1800 2 3275 3273 3274
1801 17 3265 3267 3268
1802 1 3265 3267 3269
1803 17 3269 3267 3268
1804 1 3265 3275 3273
1805 2 3265 3275 3276
1806 2 3273 3275 3276
1807 2 3267 3265 3266
1808 2 3275 3265 3266
1809 1 3267 3265 3275
1810 2 807 809 810
1811 1 807 809 811
1812 2 811 809 810
1813 18 3267 3268 3277
1814 19 3267 3268 3278
1815 6 3277 3268 3278
1816 2 805 807 808
1817 1 805 807 809
1818 2 809 807 808
1819 2 2467 2465 2466
1820 2 2475 2465 2466
1821 1 2467 2465 2475
1822 17 2465 2467 2468
1823 1 2465 2467 2469
1824 17 2469 2467 2468
1825 7 2479 2478 2468
1826 7 2480 2478 2468
1827 8 2479 2478 2480
1828 2 2467 2469 2470
1829 1 2467 2469 2471
1830 2 2471 2469 2470
1831 18 2467 2468 2477
1832 19 2467 2468 2478
1833 6 2477 2468 2478
1834 18 387 388 397
1835 19 387 388 398
1836 6 397 388 398
1837 18 2691 2692 2701
1838 19 2691 2692 2702
1839 6 2701 2692 2702
1840 17 385 387 388
1841 1 385 387 389
1842 17 389 387 388
1843 2 387 389 390
1844 1 387 389 391
1845 2 391 389 390
1846 2 391 393 394
1847 1 391 393 395
1848 2 395 393 394
1849 2 389 391 392
1850 1 389 391 393
1851 2 393 391 392
1852 2 2883 2885 2886
1853 1 2883 2885 2887
1854 2 2887 2885 2886
1855 1 1841 1851 1849
1856 2 1841 1851 1852
1857 2 1849 1851 1852
1858 2 387 385 386
1859 2 395 385 386
1860 1 387 385 395
1861 1 385 395 393
1862 2 385 395 396
1863 2 393 395 396
1864 18 1891 1892 1901
1865 19 1891 1892 1902
1866 6 1901 1892 1902
1867 7 1903 1902 1892
1868 7 1904 1902 1892
1869 8 1903 1902 1904
1870 7 3391 3390 3380
1871 7 3392 3390 3380
1872 8 3391 3390 3392
1873 18 3379 3380 3389
1874 19 3379 3380 3390
1875 6 3389 3380 3390
1876 2 2887 2889 2890
1877 1 2887 2889 2891
1878 2 2891 2889 2890
1879 2 3379 3377 3378
1880 2 3387 3377 3378
1881 1 3379 3377 3387
1882 1 3377 3387 3385
1883 2 3377 3387 3388
1884 2 3385 3387 3388
1885 2 3383 3385 3386
1886 1 3383 3385 3387
1887 2 3387 3385 3386
1888 2 3381 3383 3384
1889 1 3381 3383 3385
1890 2 3385 3383 3384
1891 2 2885 2887 2888
1892 1 2885 2887 2889
1893 2 2889 2887 2888
1894 17 3377 3379 3380
1895 1 3377 3379 3381
1896 17 3381 3379 3380
1897 2 3379 3381 3382
1898 1 3379 3381 3383
1899 2 3383 3381 3382
1900 2 1843 1841 1842
1901 2 1851 1841 1842
1902 1 1843 1841 1851
1903 7 703 702 692
1904 7 704 702 692
1905 8 703 702 704
1906 18 691 692 701
1907 19 691 692 702
1908 6 701 692 702
1909 2 693 695 696
1910 1 693 695 697
1911 2 697 695 696
1912 2 691 693 694
1913 1 691 693 695
1914 2 695 693 694
1915 2 695 697 698
1916 1 695 697 699
1917 2 699 697 698
1918 17 689 691 692
1919 1 689 691 693
1920 17 693 691 692
1921 1 689 699 697
1922 2 689 699 700
1923 2 697 699 700
1924 2 691 689 690
1925 2 699 689 690
1926 1 691 689 699
1927 2 935 937 938
1928 1 935 937 939
1929 2 939 937 938
1930 2 933 935 936
1931 1 933 935 937
1932 2 937 935 936
1933 7 2959 2958 2948
1934 7 2960 2958 2948
1935 8 2959 2958 2960
1936 1 929 939 937
1937 2 929 939 940
1938 2 937 939 940
1939 2 931 933 934
1940 1 931 933 935
1941 2 935 933 934
1942 18 931 932 941
1943 19 931 932 942
1944 6 941 932 942
1945 17 929 931 932
1946 1 929 931 933
1947 17 933 931 932
1948 2 2947 2949 2950
1949 1 2947 2949 2951
1950 2 2951 2949 2950
1951 18 2947 2948 2957
1952 19 2947 2948 2958
1953 6 2957 2948 2958
1954 2 931 929 930
1955 2 939 929 930
1956 1 931 929 939
1957 7 943 942 932
1958 7 944 942 932
1959 8 943 942 944
1960 18 1555 1556 1565
1961 19 1555 1556 1566
1962 6 1565 1556 1566
1963 1 57 128 105
1964 1 57 128 125
1965 1 105 128 125
1966 1 98 122 121
1967 1 98 122 125
1968 1 121 122 125
1969 7 1567 1566 1556
1970 7 1568 1566 1556
1971 8 1567 1566 1568
1972 1 122 125 124
1973 1 122 125 128
1974 1 124 125 128
1975 1 120 124 125
1976 1 120 124 127
1977 1 125 124 127
1978 1 113 123 118
1979 1 113 123 126
1980 1 118 123 126
1981 1 53 126 123
1982 1 53 126 127
1983 1 123 126 127
1984 1 117 118 120
1985 1 117 118 123
1986 1 120 118 123
1987 1 55 127 124
1988 1 55 127 126
1989 1 124 127 126
1990 1 118 120 119
1991 1 118 120 124
1992 1 119 120 124
1993 1 119 121 122
1994 1 119 121 192
1995 1 122 121 192
1996 1 121 119 120
1997 1 121 119 191
1998 1 120 119 191
1999 1 108 117 118
2000 1 108 117 190
2001 1 118 117 190
2002 1 121 192 169
2003 1 121 192 189
2004 1 169 192 189
2005 1 117 190 187
2006 1 117 190 191
2007 1 187 190 191
2008 1 119 191 188
2009 1 119 191 190
2010 1 188 191 190
2011 1 186 189 188
2012 1 186 189 192
2013 1 188 189 192
2014 1 184 188 189
2015 1 184 188 191
2016 1 189 188 191
2017 1 177 187 182
2018 1 177 187 190
2019 1 182 187 190
2020 1 111 113 116
2021 1 111 113 123
2022 1 116 113 123
2023 1 111 108 117
2024 1 111 108 180
2025 1 117 108 180
2026 1 175 177 180
2027 1 175 177 187
2028 1 180 177 187
2029 18 1075 1076 1085
2030 19 1075 1076 1086
2031 6 1085 1076 1086
2032 1 41 64 61
2033 1 41 64 185
2034 1 61 64 185
2035 1 162 186 185
2036 1 162 186 189
2037 1 185 186 189
2038 1 55 57 58
2039 1 55 57 128
2040 1 58 57 128
2041 1 57 55 56
2042 1 57 55 127
2043 1 56 55 127
2044 1 44 53 54
2045 1 44 53 126
2046 1 54 53 126
2047 1 34 58 57
2048 1 34 58 61
2049 1 57 58 61
2050 1 53 54 56
2051 1 53 54 59
2052 1 56 54 59
2053 1 54 56 55
2054 1 54 56 60
2055 1 55 56 60
2056 1 58 61 60
2057 1 58 61 64
2058 1 60 61 64
2059 1 56 60 61
2060 1 56 60 63
2061 1 61 60 63
2062 1 49 59 54
2063 1 49 59 62
2064 1 54 59 62
2065 1 63 183 185
2066 1 63 183 184
2067 1 185 183 184
2068 1 64 185 183
2069 1 64 185 186
2070 1 183 185 186
2071 1 59 62 63
2072 1 59 62 181
2073 1 63 62 181
2074 1 62 181 172
2075 1 62 181 182
2076 1 172 181 182
2077 1 181 182 184
2078 1 181 182 187
2079 1 184 182 187
2080 1 60 63 62
2081 1 60 63 183
2082 1 62 63 183
2083 1 182 184 183
2084 1 182 184 188
2085 1 183 184 188
2086 1 47 44 53
2087 1 47 44 116
2088 1 53 44 116
2089 1 52 172 175
2090 1 52 172 181
2091 1 175 172 181
2092 1 47 49 52
2093 1 47 49 59
2094 1 52 49 59
2095 1 44 116 113
2096 1 44 116 115
2097 1 113 116 115
2098 1 108 111 110
2099 1 108 111 113
2100 1 110 111 113
2101 1 108 180 177
2102 1 108 180 179
2103 1 177 180 179
2104 7 2735 2734 2724
2105 7 2736 2734 2724
2106 8 2735 2734 2736
2107 1 2129 2139 2137
2108 2 2129 2139 2140
2109 2 2137 2139 2140
2110 1 110 114 112
2111 1 110 114 115
2112 1 112 114 115
2113 1 45 115 114
2114 1 45 115 116
2115 1 114 115 116
2116 1 109 110 111
2117 1 109 110 114
2118 1 111 110 114
2119 1 107 109 110
2120 1 107 109 179
2121 1 110 109 179
2122 1 109 179 178
2123 1 109 179 180
2124 1 178 179 180
2125 1 174 178 176
2126 1 174 178 179
2127 1 176 178 179
2128 2 2131 2129 2130
2129 2 2139 2129 2130
2130 1 2131 2129 2139
2131 7 3215 3214 3204
2132 7 3216 3214 3204
2133 8 3215 3214 3216
2134 18 2723 2724 2733
2135 19 2723 2724 2734
2136 6 2733 2724 2734
2137 2 2723 2721 2722
2138 2 2731 2721 2722
2139 1 2723 2721 2731
2140 17 2721 2723 2724
2141 1 2721 2723 2725
2142 17 2725 2723 2724
2143 1 44 47 46
2144 1 44 47 49
2145 1 46 47 49
2146 2 2727 2729 2730
2147 1 2727 2729 2731
2148 2 2731 2729 2730
2149 1 49 52 51
2150 1 49 52 172
2151 1 51 52 172
2152 1 172 175 174
2153 1 172 175 177
2154 1 174 175 177
2155 1 2721 2731 2729
2156 2 2721 2731 2732
2157 2 2729 2731 2732
2158 2 2725 2727 2728
2159 1 2725 2727 2729
2160 2 2729 2727 2728
2161 2 2723 2725 2726
2162 1 2723 2725 2727
2163 2 2727 2725 2726
2164 1 43 45 46
2165 1 43 45 115
2166 1 46 45 115
2167 1 45 46 47
2168 1 45 46 50
2169 1 47 46 50
2170 1 46 50 48
2171 1 46 50 51
2172 1 48 50 51
2173 1 173 174 175
2174 1 173 174 178
2175 1 175 174 178
2176 1 50 51 52
2177 1 50 51 173
2178 1 52 51 173
2179 1 51 173 171
2180 1 51 173 174
2181 1 171 173 174
2182 2 787 785 786
2183 2 795 785 786
2184 1 787 785 795
2185 2 2263 2265 2266
2186 1 2263 2265 2267
2187 2 2267 2265 2266
2188 2 2261 2263 2264
2189 1 2261 2263 2265
2190 2 2265 2263 2264
2191 17 3201 3203 3204
2192 1 3201 3203 3205
2193 17 3205 3203 3204
2194 18 3203 3204 3213
2195 19 3203 3204 3214
2196 6 3213 3204 3214
2197 2 2259 2261 2262
2198 1 2259 2261 2263
2199 2 2263 2261 2262
2200 7 2879 2878 2868
2201 7 2880 2878 2868
2202 8 2879 2878 2880
2203 18 787 788 797
2204 19 787 788 798
2205 6 797 788 798
2206 7 799 798 788
2207 7 800 798 788
2208 8 799 798 800
2209 1 2865 2875 2873
2210 2 2865 2875 2876
2211 2 2873 2875 2876
2212 2 2871 2873 2874
2213 1 2871 2873 2875
2214 2 2875 2873 2874
2215 2 2867 2865 2866
2216 2 2875 2865 2866
2217 1 2867 2865 2875
2218 2 2867 2869 2870
2219 1 2867 2869 2871
2220 2 2871 2869 2870
2221 17 2865 2867 2868
2222 1 2865 2867 2869
2223 17 2869 2867 2868
2224 2 2869 2871 2872
2225 1 2869 2871 2873
2226 2 2873 2871 2872
2227 18 2867 2868 2877
2228 19 2867 2868 2878
2229 6 2877 2868 2878
2230 2 787 789 790
2231 1 787 789 791
2232 2 791 789 790
2233 17 785 787 788
2234 1 785 787 789
2235 17 789 787 788
2236 2 2387 2389 2390
2237 1 2387 2389 2391
2238 2 2391 2389 2390
2239 2 2389 2391 2392
2240 1 2389 2391 2393
2241 2 2393 2391 2392
2242 1 2385 2395 2393
2243 2 2385 2395 2396
2244 2 2393 2395 2396
2245 7 2399 2398 2388
2246 7 2400 2398 2388
2247 8 2399 2398 2400
2248 18 2387 2388 2397
2249 19 2387 2388 2398
2250 6 2397 2388 2398
2251 2 2387 2385 2386
2252 2 2395 2385 2386
2253 1 2387 2385 2395
2254 17 2385 2387 2388
2255 1 2385 2387 2389
2256 17 2389 2387 2388
2257 1 945 955 953
2258 2 945 955 956
2259 2 953 955 956
2260 2 951 953 954
2261 1 951 953 955
2262 2 955 953 954
2263 2 949 951 952
2264 1 949 951 953
2265 2 953 951 952
2266 2 947 945 946
2267 2 955 945 946
2268 1 947 945 955
2269 2 2391 2393 2394
2270 1 2391 2393 2395
2271 2 2395 2393 2394
2272 2 3351 3353 3354
2273 1 3351 3353 3355
2274 2 3355 3353 3354
2275 2 3349 3351 3352
2276 1 3349 3351 3353
2277 2 3353 3351 3352
2278 2 1299 1297 1298
2279 2 1307 1297 1298
2280 1 1299 1297 1307
2281 2 1303 1305 1306
2282 1 1303 1305 1307
2283 2 1307 1305 1306
2284 1 1297 1307 1305
2285 2 1297 1307 1308
2286 2 1305 1307 1308
2287 7 2943 2942 2932
2288 7 2944 2942 2932
2289 8 2943 2942 2944
2290 18 2931 2932 2941
2291 19 2931 2932 2942
2292 6 2941 2932 2942
2293 1 3345 3355 3353
2294 2 3345 3355 3356
2295 2 3353 3355 3356
2296 2 3123 3121 3122
2297 2 3131 3121 3122
2298 1 3123 3121 3131
2299 1 3121 3131 3129
2300 2 3121 3131 3132
2301 2 3129 3131 3132
2302 1 849 859 857
2303 2 849 859 860
2304 2 857 859 860
2305 2 851 849 850
2306 2 859 849 850
2307 1 851 849 859
2308 17 2273 2275 2276
2309 1 2273 2275 2277
2310 17 2277 2275 2276
2311 2 2277 2279 2280
2312 1 2277 2279 2281
2313 2 2281 2279 2280
2314 2 2275 2277 2278
2315 1 2275 2277 2279
2316 2 2279 2277 2278
2317 2 2279 2281 2282
2318 1 2279 2281 2283
2319 2 2283 2281 2282
2320 18 2275 2276 2285
2321 19 2275 2276 2286
2322 6 2285 2276 2286
2323 2 2275 2273 2274
2324 2 2283 2273 2274
2325 1 2275 2273 2283
2326 1 2273 2283 2281
2327 2 2273 2283 2284
2328 2 2281 2283 2284
2329 18 851 852 861
2330 19 851 852 862
2331 6 861 852 862
2332 2 855 857 858
2333 1 855 857 859
2334 2 859 857 858
2335 2 853 855 856
2336 1 853 855 857
2337 2 857 855 856
2338 2 851 853 854
2339 1 851 853 855
2340 2 855 853 854
2341 17 849 851 852
2342 1 849 851 853
2343 17 853 851 852
2344 17 2929 2931 2932
2345 1 2929 2931 2933
2346 17 2933 2931 2932
2347 2 2931 2933 2934
2348 1 2931 2933 2935
2349 2 2935 2933 2934
2350 2 2931 2929 2930
2351 2 2939 2929 2930
2352 1 2931 2929 2939
2353 2 2933 2935 2936
2354 1 2933 2935 2937
2355 2 2937 2935 2936
2356 1 2929 2939 2937
2357 2 2929 2939 2940
2358 2 2937 2939 2940
2359 2 2935 2937 2938
2360 1 2935 2937 2939
2361 2 2939 2937 2938
2362 2 899 901 902
2363 1 899 901 903
2364 2 903 901 902
2365 2 901 903 904
2366 1 901 903 905
2367 2 905 903 904
2368 18 899 900 909
2369 19 899 900 910
2370 6 909 900 910
2371 17 897 899 900
2372 1 897 899 901
2373 17 901 899 900
2374 2 903 905 906
2375 1 903 905 907
2376 2 907 905 906
2377 2 899 897 898
2378 2 907 897 898
2379 1 899 897 907
2380 1 897 907 905
2381 2 897 907 908
2382 2 905 907 908
2383 7 911 910 900
2384 7 912 910 900
2385 8 911 910 912
2386 18 515 516 525
2387 19 515 516 526
2388 6 525 516 526
2389 18 2419 2420 2429
2390 19 2419 2420 2430
2391 6 2429 2420 2430
2392 17 2417 2419 2420
2393 1 2417 2419 2421
2394 17 2421 2419 2420
2395 2 2419 2421 2422
2396 1 2419 2421 2423
2397 2 2423 2421 2422
2398 2 2243 2245 2246
2399 1 2243 2245 2247
2400 2 2247 2245 2246
2401 2 2419 2417 2418
2402 2 2427 2417 2418
2403 1 2419 2417 2427
2404 1 2417 2427 2425
2405 2 2417 2427 2428
2406 2 2425 2427 2428
2407 2 2423 2425 2426
2408 1 2423 2425 2427
2409 2 2427 2425 2426
2410 2 2421 2423 2424
2411 1 2421 2423 2425
2412 2 2425 2423 2424
2413 17 513 515 516
2414 1 513 515 517
2415 17 517 515 516
2416 2 2245 2247 2248
2417 1 2245 2247 2249
2418 2 2249 2247 2248
2419 2 515 517 518
2420 1 515 517 519
2421 2 519 517 518
2422 2 2247 2249 2250
2423 1 2247 2249 2251
2424 2 2251 2249 2250
2425 2 487 489 490
2426 1 487 489 491
2427 2 491 489 490
2428 1 481 491 489
2429 2 481 491 492
2430 2 489 491 492
2431 17 3153 3155 3156
2432 1 3153 3155 3157
2433 17 3157 3155 3156
2434 2 3155 3153 3154
2435 2 3163 3153 3154
2436 1 3155 3153 3163
2437 2 3155 3157 3158
2438 1 3155 3157 3159
2439 2 3159 3157 3158
2440 2 483 481 482
2441 2 491 481 482
2442 1 483 481 491
2443 1 3153 3163 3161
2444 2 3153 3163 3164
2445 2 3161 3163 3164
2446 2 3159 3161 3162
2447 1 3159 3161 3163
2448 2 3163 3161 3162
2449 2 485 487 488
2450 1 485 487 489
2451 2 489 487 488
2452 2 483 485 486
2453 1 483 485 487
2454 2 487 485 486
2455 7 3167 3166 3156
2456 7 3168 3166 3156
2457 8 3167 3166 3168
2458 18 3155 3156 3165
2459 19 3155 3156 3166
2460 6 3165 3156 3166
2461 17 481 483 484
2462 1 481 483 485
2463 17 485 483 484
2464 1 2081 2091 2089
2465 2 2081 2091 2092
2466 2 2089 2091 2092
2467 2 2087 2089 2090
2468 1 2087 2089 2091
2469 2 2091 2089 2090
2470 2 2083 2081 2082
2471 2 2091 2081 2082
2472 1 2083 2081 2091
2473 2 2085 2087 2088
2474 1 2085 2087 2089
2475 2 2089 2087 2088
2476 2 1891 1889 1890
2477 2 1899 1889 1890
2478 1 1891 1889 1899
2479 2 1891 1893 1894
2480 1 1891 1893 1895
2481 2 1895 1893 1894
2482 17 1889 1891 1892
2483 1 1889 1891 1893
2484 17 1893 1891 1892
2485 1 1889 1899 1897
2486 2 1889 1899 1900
2487 2 1897 1899 1900
2488 2 1847 1849 1850
2489 1 1847 1849 1851
2490 2 1851 1849 1850
2491 2 1845 1847 1848
2492 1 1845 1847 1849
2493 2 1849 1847 1848
2494 2 1893 1895 1896
2495 1 1893 1895 1897
2496 2 1897 1895 1896
2497 2 1895 1897 1898
2498 1 1895 1897 1899
2499 2 1899 1897 1898
2500 7 431 430 420
2501 7 432 430 420
2502 8 431 430 432
2503 17 3185 3187 3188
2504 1 3185 3187 3189
2505 17 3189 3187 3188
2506 18 483 484 493
2507 19 483 484 494
2508 6 493 484 494
2509 7 495 494 484
2510 7 496 494 484
2511 8 495 494 496
2512 2 419 417 418
2513 2 427 417 418
2514 1 419 417 427
2515 1 417 427 425
2516 2 417 427 428
2517 2 425 427 428
2518 18 1843 1844 1853
2519 19 1843 1844 1854
2520 6 1853 1844 1854
2521 17 1841 1843 1844
2522 1 1841 1843 1845
2523 17 1845 1843 1844
2524 7 1855 1854 1844
2525 7 1856 1854 1844
2526 8 1855 1854 1856
2527 2 1843 1845 1846
2528 1 1843 1845 1847
2529 2 1847 1845 1846
2530 2 2947 2945 2946
2531 2 2955 2945 2946
2532 1 2947 2945 2955
2533 1 2945 2955 2953
2534 2 2945 2955 2956
2535 2 2953 2955 2956
2536 17 417 419 420
2537 1 417 419 421
2538 17 421 419 420
2539 18 3187 3188 3197
2540 19 3187 3188 3198
2541 6 3197 3188 3198
2542 1 98 101 102
2543 1 98 101 105
2544 1 102 101 105
2545 1 31 105 101
2546 1 31 105 128
2547 1 101 105 128
2548 1 95 98 122
2549 1 95 98 101
2550 1 122 98 101
2551 1 96 95 98
2552 1 96 95 169
2553 1 98 95 169
2554 1 95 169 165
2555 1 95 169 192
2556 1 165 169 192
2557 1 162 165 166
2558 1 162 165 169
2559 1 166 165 169
2560 1 97 102 101
2561 1 97 102 104
2562 1 101 102 104
2563 1 32 104 102
2564 1 32 104 106
2565 1 102 104 106
2566 1 96 97 102
2567 1 96 97 100
2568 1 102 97 100
2569 1 95 96 97
2570 1 95 96 168
2571 1 97 96 168
2572 1 78 103 100
2573 1 78 103 106
2574 1 100 103 106
2575 1 35 106 103
2576 1 35 106 104
2577 1 103 106 104
2578 1 97 100 99
2579 1 97 100 103
2580 1 99 100 103
2581 1 74 99 170
2582 1 74 99 100
2583 1 170 99 100
2584 1 96 168 166
2585 1 96 168 170
2586 1 166 168 170
2587 1 99 170 167
2588 1 99 170 168
2589 1 167 170 168
2590 1 161 166 165
2591 1 161 166 168
2592 1 165 166 168
2593 1 142 167 164
2594 1 142 167 170
2595 1 164 167 170
2596 2 3187 3189 3190
2597 1 3187 3189 3191
2598 2 3191 3189 3190
2599 17 2945 2947 2948
2600 1 2945 2947 2949
2601 17 2949 2947 2948
2602 2 2949 2951 2952
2603 1 2949 2951 2953
2604 2 2953 2951 2952
2605 2 423 425 426
2606 1 423 425 427
2607 2 427 425 426
2608 7 3199 3198 3188
2609 7 3200 3198 3188
2610 8 3199 3198 3200
2611 1 32 31 34
2612 1 32 31 105
2613 1 34 31 105
2614 1 31 34 58
2615 1 31 34 37
2616 1 58 34 37
2617 1 34 37 38
2618 1 34 37 41
2619 1 38 37 41
2620 1 37 41 64
2621 1 37 41 159
2622 1 64 41 159
2623 1 41 159 160
2624 1 41 159 162
2625 1 160 159 162
2626 1 159 162 186
2627 1 159 162 165
2628 1 186 162 165
2629 2 2951 2953 2954
2630 1 2951 2953 2955
2631 2 2955 2953 2954
2632 1 31 32 33
2633 1 31 32 104
2634 1 33 32 104
2635 1 10 35 106
2636 1 10 35 36
2637 1 106 35 36
2638 1 32 33 38
2639 1 32 33 36
2640 1 38 33 36
2641 1 33 36 35
2642 1 33 36 39
2643 1 35 36 39
2644 1 33 38 37
2645 1 33 38 40
2646 1 37 38 40
2647 1 40 160 159
2648 1 40 160 161
2649 1 159 160 161
2650 1 38 40 42
2651 1 38 40 160
2652 1 42 40 160
2653 1 160 161 166
2654 1 160 161 164
2655 1 166 161 164
2656 1 14 39 36
2657 1 14 39 42
2658 1 36 39 42
2659 1 39 42 40
2660 1 39 42 163
2661 1 40 42 163
2662 1 42 163 138
2663 1 42 163 164
2664 1 138 163 164
2665 1 161 164 163
2666 1 161 164 167
2667 1 163 164 167
2668 1 87 112 94
2669 1 87 112 114
2670 1 94 112 114
2671 1 87 107 109
2672 1 87 107 158
2673 1 109 107 158
2674 1 20 92 90
2675 1 20 92 94
2676 1 90 92 94
2677 1 43 94 92
2678 1 43 94 112
2679 1 92 94 112
2680 1 85 90 88
2681 1 85 90 92
2682 1 88 90 92
2683 1 85 87 112
2684 1 85 87 107
2685 1 112 87 107
2686 1 84 85 87
2687 1 84 85 90
2688 1 87 85 90
2689 1 81 84 85
2690 1 81 84 156
2691 1 85 84 156
2692 1 84 156 154
2693 1 84 156 158
2694 1 154 156 158
2695 1 107 158 156
2696 1 107 158 176
2697 1 156 158 176
2698 1 151 176 158
2699 1 151 176 178
2700 1 158 176 178
2701 1 149 154 152
2702 1 149 154 156
2703 1 152 154 156
2704 1 81 86 83
2705 1 81 86 88
2706 1 83 86 88
2707 1 17 93 88
2708 1 17 93 91
2709 1 88 93 91
2710 1 86 88 93
2711 1 86 88 90
2712 1 93 88 90
2713 1 86 81 84
2714 1 86 81 157
2715 1 84 81 157
2716 2 2051 2053 2054
2717 1 2051 2053 2055
2718 2 2055 2053 2054
2719 1 81 157 152
2720 1 81 157 155
2721 1 152 157 155
2722 1 150 152 157
2723 1 150 152 154
2724 1 157 152 154
2725 2 2053 2055 2056
2726 1 2053 2055 2057
2727 2 2057 2055 2056
2728 2 2055 2057 2058
2729 1 2055 2057 2059
2730 2 2059 2057 2058
2731 1 2049 2059 2057
2732 2 2049 2059 2060
2733 2 2057 2059 2060
2734 2 2051 2049 2050
2735 2 2059 2049 2050
2736 1 2051 2049 2059
2737 17 2049 2051 2052
2738 1 2049 2051 2053
2739 17 2053 2051 2052
2740 18 2051 2052 2061
2741 19 2051 2052 2062
2742 6 2061 2052 2062
2743 7 2063 2062 2052
2744 7 2064 2062 2052
2745 8 2063 2062 2064
2746 1 23 43 45
2747 1 23 43 94
2748 1 45 43 94
2749 1 17 20 21
2750 1 17 20 92
2751 1 21 20 92
2752 1 21 23 48
2753 1 21 23 43
2754 1 48 23 43
2755 1 20 21 23
2756 1 20 21 26
2757 1 23 21 26
2758 1 23 48 30
2759 1 23 48 50
2760 1 30 48 50
2761 1 30 171 151
2762 1 30 171 173
2763 1 151 171 173
2764 1 21 26 24
2765 1 21 26 28
2766 1 24 26 28
2767 1 26 28 30
2768 1 26 28 148
2769 1 30 28 148
2770 1 28 30 48
2771 1 28 30 171
2772 1 48 30 171
2773 1 149 151 176
2774 1 149 151 171
2775 1 176 151 171
2776 1 28 148 145
2777 1 28 148 149
2778 1 145 148 149
2779 1 148 149 151
2780 1 148 149 154
2781 1 151 149 154
2782 1 22 17 20
2783 1 22 17 93
2784 1 20 17 93
2785 1 17 22 19
2786 1 17 22 24
2787 1 19 22 24
2788 1 22 24 29
2789 1 22 24 26
2790 1 29 24 26
2791 1 24 29 27
2792 1 24 29 145
2793 1 27 29 145
2794 1 145 150 147
2795 1 145 150 152
2796 1 147 150 152
2797 1 29 145 150
2798 1 29 145 148
2799 1 150 145 148
2800 2 3203 3201 3202
2801 2 3211 3201 3202
2802 1 3203 3201 3211
2803 1 3201 3211 3209
2804 2 3201 3211 3212
2805 2 3209 3211 3212
2806 7 2767 2766 2756
2807 7 2768 2766 2756
2808 8 2767 2766 2768
2809 18 2755 2756 2765
2810 19 2755 2756 2766
2811 6 2765 2756 2766
2812 2 551 553 554
2813 1 551 553 555
2814 2 555 553 554
2815 2 3203 3205 3206
2816 1 3203 3205 3207
2817 2 3207 3205 3206
2818 2 3205 3207 3208
2819 1 3205 3207 3209
2820 2 3209 3207 3208
2821 2 3207 3209 3210
2822 1 3207 3209 3211
2823 2 3211 3209 3210
2824 7 287 286 276
2825 7 288 286 276
2826 8 287 286 288
2827 2 2453 2455 2456
2828 1 2453 2455 2457
2829 2 2457 2455 2456
2830 2 2455 2457 2458
2831 1 2455 2457 2459
2832 2 2459 2457 2458
2833 2 2451 2453 2454
2834 1 2451 2453 2455
2835 2 2455 2453 2454
2836 2 791 793 794
2837 1 791 793 795
2838 2 795 793 794
2839 2 789 791 792
2840 1 789 791 793
2841 2 793 791 792
2842 1 785 795 793
2843 2 785 795 796
2844 2 793 795 796
2845 18 275 276 285
2846 19 275 276 286
2847 6 285 276 286
2848 18 3123 3124 3133
2849 19 3123 3124 3134
2850 6 3133 3124 3134
2851 17 3121 3123 3124
2852 1 3121 3123 3125
2853 17 3125 3123 3124
2854 1 545 555 553
2855 2 545 555 556
2856 2 553 555 556
2857 17 2849 2851 2852
2858 1 2849 2851 2853
2859 17 2853 2851 2852
2860 2 2851 2849 2850
2861 2 2859 2849 2850
2862 1 2851 2849 2859
2863 2 2853 2855 2856
2864 1 2853 2855 2857
2865 2 2857 2855 2856
2866 2 2855 2857 2858
2867 1 2855 2857 2859
2868 2 2859 2857 2858
2869 1 2849 2859 2857
2870 2 2849 2859 2860
2871 2 2857 2859 2860
2872 2 547 545 546
2873 2 555 545 546
2874 1 547 545 555
2875 2 947 949 950
2876 1 947 949 951
2877 2 951 949 950
2878 17 945 947 948
2879 1 945 947 949
2880 17 949 947 948
2881 7 3135 3134 3124
2882 7 3136 3134 3124
2883 8 3135 3134 3136
2884 7 959 958 948
2885 7 960 958 948
2886 8 959 958 960
2887 18 947 948 957
2888 19 947 948 958
2889 6 957 948 958
2890 2 277 279 280
2891 1 277 279 281
2892 2 281 279 280
2893 2 279 281 282
2894 1 279 281 283
2895 2 283 281 282
2896 2 275 277 278
2897 1 275 277 279
2898 2 279 277 278
2899 17 273 275 276
2900 1 273 275 277
2901 17 277 275 276
2902 2 3347 3349 3350
2903 1 3347 3349 3351
2904 2 3351 3349 3350
2905 18 2611 2612 2621
2906 19 2611 2612 2622
2907 6 2621 2612 2622
2908 2 3123 3125 3126
2909 1 3123 3125 3127
2910 2 3127 3125 3126
2911 2 275 273 274
2912 2 283 273 274
2913 1 275 273 283
2914 2 3127 3129 3130
2915 1 3127 3129 3131
2916 2 3131 3129 3130
2917 2 3125 3127 3128
2918 1 3125 3127 3129
2919 2 3129 3127 3128
2920 1 273 283 281
2921 2 273 283 284
2922 2 281 283 284
2923 2 2071 2073 2074
2924 1 2071 2073 2075
2925 2 2075 2073 2074
2926 2 2069 2071 2072
2927 1 2069 2071 2073
2928 2 2073 2071 2072
2929 2 2067 2069 2070
2930 1 2067 2069 2071
2931 2 2071 2069 2070
2932 2 3347 3345 3346
2933 2 3355 3345 3346
2934 1 3347 3345 3355
2935 17 3345 3347 3348
2936 1 3345 3347 3349
2937 17 3349 3347 3348
2938 1 2065 2075 2073
2939 2 2065 2075 2076
2940 2 2073 2075 2076
2941 7 2287 2286 2276
2942 7 2288 2286 2276
2943 8 2287 2286 2288
2944 7 1535 1534 1524
2945 7 1536 1534 1524
2946 8 1535 1534 1536
2947 7 3359 3358 3348
2948 7 3360 3358 3348
2949 8 3359 3358 3360
2950 17 993 995 996
2951 1 993 995 997
2952 17 997 995 996
2953 2 2613 2615 2616
2954 1 2613 2615 2617
2955 2 2617 2615 2616
2956 2 2615 2617 2618
2957 1 2615 2617 2619
2958 2 2619 2617 2618
2959 2 995 997 998
2960 1 995 997 999
2961 2 999 997 998
2962 2 997 999 1000
2963 1 997 999 1001
2964 2 1001 999 1000
2965 2 2611 2613 2614
2966 1 2611 2613 2615
2967 2 2615 2613 2614
2968 1 2609 2619 2617
2969 2 2609 2619 2620
2970 2 2617 2619 2620
2971 7 2623 2622 2612
2972 7 2624 2622 2612
2973 8 2623 2622 2624
2974 17 2609 2611 2612
2975 1 2609 2611 2613
2976 17 2613 2611 2612
2977 2 2611 2609 2610
2978 2 2619 2609 2610
2979 1 2611 2609 2619
2980 18 1523 1524 1533
2981 19 1523 1524 1534
2982 6 1533 1524 1534
2983 18 995 996 1005
2984 19 995 996 1006
2985 6 1005 996 1006
2986 7 1007 1006 996
2987 7 1008 1006 996
2988 8 1007 1006 1008
2989 2 1523 1521 1522
2990 2 1531 1521 1522
2991 1 1523 1521 1531
2992 1 1521 1531 1529
2993 2 1521 1531 1532
2994 2 1529 1531 1532
2995 18 3347 3348 3357
2996 19 3347 3348 3358
2997 6 3357 3348 3358
2998 2 995 993 994
2999 2 1003 993 994
3000 1 995 993 1003
3001 17 1521 1523 1524
3002 1 1521 1523 1525
3003 17 1525 1523 1524
3004 2 1525 1527 1528
3005 1 1525 1527 1529
3006 2 1529 1527 1528
3007 2 1523 1525 1526
3008 1 1523 1525 1527
3009 2 1527 1525 1526
3010 2 1527 1529 1530
3011 1 1527 1529 1531
3012 2 1531 1529 1530
3013 7 1679 1678 1668
3014 7 1680 1678 1668
3015 8 1679 1678 1680
3016 2 2485 2487 2488
3017 1 2485 2487 2489
3018 2 2489 2487 2488
3019 17 1873 1875 1876
3020 1 1873 1875 1877
3021 17 1877 1875 1876
3022 2 1879 1881 1882
3023 1 1879 1881 1883
3024 2 1883 1881 1882
3025 2 1875 1873 1874
3026 2 1883 1873 1874
3027 1 1875 1873 1883
3028 1 1873 1883 1881
3029 2 1873 1883 1884
3030 2 1881 1883 1884
3031 7 527 526 516
3032 7 528 526 516
3033 8 527 526 528
3034 2 2487 2489 2490
3035 1 2487 2489 2491
3036 2 2491 2489 2490
3037 1 2481 2491 2489
3038 2 2481 2491 2492
3039 2 2489 2491 2492
3040 7 1295 1294 1284
3041 7 1296 1294 1284
3042 8 1295 1294 1296
3043 2 517 519 520
3044 1 517 519 521
3045 2 521 519 520
3046 2 519 521 522
3047 1 519 521 523
3048 2 523 521 522
3049 2 1875 1877 1878
3050 1 1875 1877 1879
3051 2 1879 1877 1878
3052 2 1877 1879 1880
3053 1 1877 1879 1881
3054 2 1881 1879 1880
3055 17 1313 1315 1316
3056 1 1313 1315 1317
3057 17 1317 1315 1316
3058 2 1315 1317 1318
3059 1 1315 1317 1319
3060 2 1319 1317 1318
3061 2 1315 1313 1314
3062 2 1323 1313 1314
3063 1 1315 1313 1323
3064 2 1319 1321 1322
3065 1 1319 1321 1323
3066 2 1323 1321 1322
3067 1 1313 1323 1321
3068 2 1313 1323 1324
3069 2 1321 1323 1324
3070 2 1317 1319 1320
3071 1 1317 1319 1321
3072 2 1321 1319 1320
3073 18 1875 1876 1885
3074 19 1875 1876 1886
3075 6 1885 1876 1886
3076 2 3157 3159 3160
3077 1 3157 3159 3161
3078 2 3161 3159 3160
3079 17 881 883 884
3080 1 881 883 885
3081 17 885 883 884
3082 7 895 894 884
3083 7 896 894 884
3084 8 895 894 896
3085 2 883 885 886
3086 1 883 885 887
3087 2 887 885 886
3088 18 883 884 893
3089 19 883 884 894
3090 6 893 884 894
3091 2 1619 1621 1622
3092 1 1619 1621 1623
3093 2 1623 1621 1622
3094 2 885 887 888
3095 1 885 887 889
3096 2 889 887 888
3097 2 883 881 882
3098 2 891 881 882
3099 1 883 881 891
3100 2 887 889 890
3101 1 887 889 891
3102 2 891 889 890
3103 7 2719 2718 2708
3104 7 2720 2718 2708
3105 8 2719 2718 2720
3106 1 513 523 521
3107 2 513 523 524
3108 2 521 523 524
3109 7 1887 1886 1876
3110 7 1888 1886 1876
3111 8 1887 1886 1888
3112 2 515 513 514
3113 2 523 513 514
3114 1 515 513 523
3115 2 1621 1623 1624
3116 1 1621 1623 1625
3117 2 1625 1623 1624
3118 7 2095 2094 2084
3119 7 2096 2094 2084
3120 8 2095 2094 2096
3121 18 2083 2084 2093
3122 19 2083 2084 2094
3123 6 2093 2084 2094
3124 17 2081 2083 2084
3125 1 2081 2083 2085
3126 17 2085 2083 2084
3127 2 2083 2085 2086
3128 1 2083 2085 2087
3129 2 2087 2085 2086
3130 1 881 891 889
3131 2 881 891 892
3132 2 889 891 892
3133 2 1623 1625 1626
3134 1 1623 1625 1627
3135 2 1627 1625 1626
3136 18 1619 1620 1629
3137 19 1619 1620 1630
3138 6 1629 1620 1630
3139 17 1409 1411 1412
3140 1 1409 1411 1413
3141 17 1413 1411 1412
3142 2 3187 3185 3186
3143 2 3195 3185 3186
3144 1 3187 3185 3195
3145 2 1411 1413 1414
3146 1 1411 1413 1415
3147 2 1415 1413 1414
3148 18 1411 1412 1421
3149 19 1411 1412 1422
3150 6 1421 1412 1422
3151 7 1423 1422 1412
3152 7 1424 1422 1412
3153 8 1423 1422 1424
3154 2 419 421 422
3155 1 419 421 423
3156 2 423 421 422
3157 18 419 420 429
3158 19 419 420 430
3159 6 429 420 430
3160 7 1631 1630 1620
3161 7 1632 1630 1620
3162 8 1631 1630 1632
3163 17 1617 1619 1620
3164 1 1617 1619 1621
3165 17 1621 1619 1620
3166 2 1619 1617 1618
3167 2 1627 1617 1618
3168 1 1619 1617 1627
3169 17 2593 2595 2596
3170 1 2593 2595 2597
3171 17 2597 2595 2596
3172 2 2595 2597 2598
3173 1 2595 2597 2599
3174 2 2599 2597 2598
3175 2 2595 2593 2594
3176 2 2603 2593 2594
3177 1 2595 2593 2603
3178 2 2597 2599 2600
3179 1 2597 2599 2601
3180 2 2601 2599 2600
3181 1 2593 2603 2601
3182 2 2593 2603 2604
3183 2 2601 2603 2604
3184 2 2599 2601 2602
3185 1 2599 2601 2603
3186 2 2603 2601 2602
3187 1 1617 1627 1625
3188 2 1617 1627 1628
3189 2 1625 1627 1628
3190 2 1411 1409 1410
3191 2 1419 1409 1410
3192 1 1411 1409 1419
3193 1 3185 3195 3193
3194 2 3185 3195 3196
3195 2 3193 3195 3196
3196 2 3191 3193 3194
3197 1 3191 3193 3195
3198 2 3195 3193 3194
3199 1 75 78 103
3200 1 75 78 79
3201 1 103 78 79
3202 1 10 79 78
3203 1 10 79 80
3204 1 78 79 80
3205 1 74 75 78
3206 1 74 75 76
3207 1 78 75 76
3208 1 99 74 75
3209 1 99 74 143
3210 1 75 74 143
3211 1 74 143 142
3212 1 74 143 144
3213 1 142 143 144
3214 1 139 142 167
3215 1 139 142 143
3216 1 167 142 143
3217 2 3189 3191 3192
3218 1 3189 3191 3193
3219 2 3193 3191 3192
3220 1 1409 1419 1417
3221 2 1409 1419 1420
3222 2 1417 1419 1420
3223 2 1413 1415 1416
3224 1 1413 1415 1417
3225 2 1417 1415 1416
3226 2 1415 1417 1418
3227 1 1415 1417 1419
3228 2 1419 1417 1418
3229 1 9 80 77
3230 1 9 80 79
3231 1 77 80 79
3232 1 73 76 75
3233 1 73 76 77
3234 1 75 76 77
3235 1 73 144 141
3236 1 73 144 143
3237 1 141 144 143
3238 2 2965 2967 2968
3239 1 2965 2967 2969
3240 2 2969 2967 2968
3241 2 421 423 424
3242 1 421 423 425
3243 2 425 423 424
3244 1 35 10 11
3245 1 35 10 79
3246 1 11 10 79
3247 1 10 11 14
3248 1 10 11 12
3249 1 14 11 12
3250 1 11 14 39
3251 1 11 14 15
3252 1 39 14 15
3253 1 14 15 138
3254 1 14 15 16
3255 1 138 15 16
3256 1 15 138 163
3257 1 15 138 139
3258 1 163 138 139
3259 1 138 139 142
3260 1 138 139 140
3261 1 142 139 140
3262 2 1175 1177 1178
3263 1 1175 1177 1179
3264 2 1179 1177 1178
3265 2 1173 1175 1176
3266 1 1173 1175 1177
3267 2 1177 1175 1176
3268 1 1169 1179 1177
3269 2 1169 1179 1180
3270 2 1177 1179 1180
3271 1 9 12 11
3272 1 9 12 13
3273 1 11 12 13
3274 17 1169 1171 1172
3275 1 1169 1171 1173
3276 17 1173 1171 1172
3277 1 13 16 15
3278 1 13 16 137
3279 1 15 16 137
3280 1 137 140 139
3281 1 137 140 141
3282 1 139 140 141
3283 2 1171 1169 1170
3284 2 1179 1169 1170
3285 1 1171 1169 1179
3286 7 1183 1182 1172
3287 7 1184 1182 1172
3288 8 1183 1182 1184
3289 1 69 77 76
3290 1 69 77 80
3291 1 76 77 80
3292 1 65 73 76
3293 1 65 73 144
3294 1 76 73 144
3295 1 133 141 140
3296 1 133 141 144
3297 1 140 141 144
3298 1 66 69 71
3299 1 66 69 77
3300 1 71 69 77
3301 1 66 65 73
3302 1 66 65 135
3303 1 73 65 135
3304 1 18 91 89
3305 1 18 91 93
3306 1 89 91 93
3307 1 82 83 86
3308 1 82 83 89
3309 1 86 83 89
3310 1 1 71 69
3311 1 1 71 72
3312 1 69 71 72
3313 1 3 72 70
3314 1 3 72 71
3315 1 70 72 71
3316 1 65 66 69
3317 1 65 66 68
3318 1 69 66 68
3319 1 66 68 67
3320 1 66 68 70
3321 1 67 68 70
3322 1 68 70 89
3323 1 68 70 72
3324 1 89 70 72
3325 1 70 89 83
3326 1 70 89 91
3327 1 83 89 91
3328 1 82 67 68
3329 1 82 67 136
3330 1 68 67 136
3331 1 67 82 83
3332 1 67 82 155
3333 1 83 82 155
3334 1 82 155 153
3335 1 82 155 157
3336 1 153 155 157
3337 1 65 135 133
3338 1 65 135 136
3339 1 133 135 136
3340 1 67 136 134
3341 1 67 136 135
3342 1 134 136 135
3343 1 130 133 135
3344 1 130 133 141
3345 1 135 133 141
3346 1 132 134 153
3347 1 132 134 136
3348 1 153 134 136
3349 1 134 153 147
3350 1 134 153 155
3351 1 147 153 155
3352 7 3151 3150 3140
3353 7 3152 3150 3140
3354 8 3151 3150 3152
3355 18 3139 3140 3149
3356 19 3139 3140 3150
3357 6 3149 3140 3150
3358 7 831 830 820
3359 7 832 830 820
3360 8 831 830 832
3361 18 819 820 829
3362 19 819 820 830
3363 6 829 820 830
3364 1 1 9 12
3365 1 1 9 80
3366 1 12 9 80
3367 1 5 13 12
3368 1 5 13 16
3369 1 12 13 16
3370 1 16 137 129
3371 1 16 137 140
3372 1 129 137 140
3373 1 2 1 9
3374 1 2 1 71
3375 1 9 1 71
3376 1 18 3 4
3377 1 18 3 72
3378 1 4 3 72
3379 1 3 18 19
3380 1 3 18 91
3381 1 19 18 91
3382 1 18 19 25
3383 1 18 19 22
3384 1 25 19 22
3385 1 1 2 5
3386 1 1 2 4
3387 1 5 2 4
3388 1 2 4 3
3389 1 2 4 6
3390 1 3 4 6
3391 1 2 5 7
3392 1 2 5 13
3393 1 7 5 13
3394 1 7 129 130
3395 1 7 129 137
3396 1 130 129 137
3397 1 4 6 25
3398 1 4 6 8
3399 1 25 6 8
3400 1 6 25 19
3401 1 6 25 27
3402 1 19 25 27
3403 1 25 27 29
3404 1 25 27 146
3405 1 29 27 146
3406 1 146 147 150
3407 1 146 147 153
3408 1 150 147 153
3409 1 6 8 7
3410 1 6 8 131
3411 1 7 8 131
3412 1 5 7 129
3413 1 5 7 8
3414 1 129 7 8
3415 1 129 130 133
3416 1 129 130 132
3417 1 133 130 132
3418 1 130 132 131
3419 1 130 132 134
3420 1 131 132 134
3421 1 8 131 146
3422 1 8 131 132
3423 1 146 131 132
3424 1 27 146 131
3425 1 27 146 147
3426 1 131 146 147
3427 2 1271 1273 1274
3428 1 1271 1273 1275
3429 2 1275 1273 1274
3430 1 3137 3147 3145
3431 2 3137 3147 3148
3432 2 3145 3147 3148
3433 2 3139 3137 3138
3434 2 3147 3137 3138
3435 1 3139 3137 3147
3436 17 817 819 820
3437 1 817 819 821
3438 17 821 819 820
3439 2 2565 2567 2568
3440 1 2565 2567 2569
3441 2 2569 2567 2568
3442 2 2563 2565 2566
3443 1 2563 2565 2567
3444 2 2567 2565 2566
3445 2 2567 2569 2570
3446 1 2567 2569 2571
3447 2 2571 2569 2570
3448 1 2561 2571 2569
3449 2 2561 2571 2572
3450 2 2569 2571 2572
3451 17 2561 2563 2564
3452 1 2561 2563 2565
3453 17 2565 2563 2564
3454 2 2563 2561 2562
3455 2 2571 2561 2562
3456 1 2563 2561 2571
3457 2 3139 3141 3142
3458 1 3139 3141 3143
3459 2 3143 3141 3142
3460 17 3137 3139 3140
3461 1 3137 3139 3141
3462 17 3141 3139 3140
3463 2 819 821 822
3464 1 819 821 823
3465 2 823 821 822
3466 2 821 823 824
3467 1 821 823 825
3468 2 825 823 824
3469 2 823 825 826
3470 1 823 825 827
3471 2 827 825 826
3472 17 2753 2755 2756
3473 1 2753 2755 2757
3474 17 2757 2755 2756
3475 2 2755 2753 2754
3476 2 2763 2753 2754
3477 1 2755 2753 2763
3478 2 3143 3145 3146
3479 1 3143 3145 3147
3480 2 3147 3145 3146
3481 2 3141 3143 3144
3482 1 3141 3143 3145
3483 2 3145 3143 3144
3484 2 2757 2759 2760
3485 1 2757 2759 2761
3486 2 2761 2759 2760
3487 2 2759 2761 2762
3488 1 2759 2761 2763
3489 2 2763 2761 2762
3490 1 2753 2763 2761
3491 2 2753 2763 2764
3492 2 2761 2763 2764
3493 2 549 551 552
3494 1 549 551 553
3495 2 553 551 552
3496 18 2451 2452 2461
3497 19 2451 2452 2462
3498 6 2461 2452 2462
3499 7 2463 2462 2452
3500 7 2464 2462 2452
3501 8 2463 2462 2464
3502 17 2449 2451 2452
3503 1 2449 2451 2453
3504 17 2453 2451 2452
3505 2 2451 2449 2450
3506 2 2459 2449 2450
3507 1 2451 2449 2459
3508 7 1343 1342 1332
3509 7 1344 1342 1332
3510 8 1343 1342 1344
3511 1 2449 2459 2457
3512 2 2449 2459 2460
3513 2 2457 2459 2460
3514 7 2575 2574 2564
3515 7 2576 2574 2564
3516 8 2575 2574 2576
3517 7 2863 2862 2852
3518 7 2864 2862 2852
3519 8 2863 2862 2864
3520 2 2755 2757 2758
3521 1 2755 2757 2759
3522 2 2759 2757 2758
3523 2 2851 2853 2854
3524 1 2851 2853 2855
3525 2 2855 2853 2854
3526 18 2851 2852 2861
3527 19 2851 2852 2862
3528 6 2861 2852 2862
3529 7 559 558 548
3530 7 560 558 548
3531 8 559 558 560
3532 2 547 549 550
3533 1 547 549 551
3534 2 551 549 550
3535 17 545 547 548
3536 1 545 547 549
3537 17 549 547 548
3538 18 547 548 557
3539 19 547 548 558
3540 6 557 548 558
3541 2 323 321 322
3542 2 331 321 322
3543 1 323 321 331
3544 17 321 323 324
3545 1 321 323 325
3546 17 325 323 324
3547 18 323 324 333
3548 19 323 324 334
3549 6 333 324 334
3550 7 335 334 324
3551 7 336 334 324
3552 8 335 334 336
3553 1 321 331 329
3554 2 321 331 332
3555 2 329 331 332
3556 2 917 919 920
3557 1 917 919 921
3558 2 921 919 920
3559 2 1383 1385 1386
3560 1 1383 1385 1387
3561 2 1387 1385 1386
3562 2 1381 1383 1384
3563 1 1381 1383 1385
3564 2 1385 1383 1384
3565 18 227 228 237
3566 19 227 228 238
3567 6 237 228 238
3568 2 227 229 230
3569 1 227 229 231
3570 2 231 229 230
3571 17 1377 1379 1380
3572 1 1377 1379 1381
3573 17 1381 1379 1380
3574 2 1379 1377 1378
3575 2 1387 1377 1378
3576 1 1379 1377 1387
3577 1 1377 1387 1385
3578 2 1377 1387 1388
3579 2 1385 1387 1388
3580 7 239 238 228
3581 7 240 238 228
3582 8 239 238 240
3583 7 2079 2078 2068
3584 7 2080 2078 2068
3585 8 2079 2078 2080
3586 18 2067 2068 2077
3587 19 2067 2068 2078
3588 6 2077 2068 2078
3589 17 2065 2067 2068
3590 1 2065 2067 2069
3591 17 2069 2067 2068
3592 17 225 227 228
3593 1 225 227 229
3594 17 229 227 228
3595 2 227 225 226
3596 2 235 225 226
3597 1 227 225 235
3598 2 2067 2065 2066
3599 2 2075 2065 2066
3600 1 2067 2065 2075
3601 1 225 235 233
3602 2 225 235 236
3603 2 233 235 236
3604 2 229 231 232
3605 1 229 231 233
3606 2 233 231 232
3607 2 231 233 234
3608 1 231 233 235
3609 2 235 233 234
3610 1 1969 1979 1977
3611 2 1969 1979 1980
3612 2 1977 1979 1980
3613 2 1973 1975 1976
3614 1 1973 1975 1977
3615 2 1977 1975 1976
3616 2 1975 1977 1978
3617 1 1975 1977 1979
3618 2 1979 1977 1978
3619 2 999 1001 1002
3620 1 999 1001 1003
3621 2 1003 1001 1002
3622 1 993 1003 1001
3623 2 993 1003 1004
3624 2 1001 1003 1004
3625 7 1391 1390 1380
3626 7 1392 1390 1380
3627 8 1391 1390 1392
3628 2 1379 1381 1382
3629 1 1379 1381 1383
3630 2 1383 1381 1382
3631 18 1379 1380 1389
3632 19 1379 1380 1390
3633 6 1389 1380 1390
3634 2 2483 2481 2482
3635 2 2491 2481 2482
3636 1 2483 2481 2491
3637 17 2481 2483 2484
3638 1 2481 2483 2485
3639 17 2485 2483 2484
3640 2 2483 2485 2486
3641 1 2483 2485 2487
3642 2 2487 2485 2486
3643 18 2483 2484 2493
3644 19 2483 2484 2494
3645 6 2493 2484 2494
3646 7 2495 2494 2484
3647 7 2496 2494 2484
3648 8 2495 2494 2496
3649 1 1665 1675 1673
3650 2 1665 1675 1676
3651 2 1673 1675 1676
3652 2 1667 1665 1666
3653 2 1675 1665 1666
3654 1 1667 1665 1675
3655 18 1315 1316 1325
3656 19 1315 1316 1326
3657 6 1325 1316 1326
3658 18 1667 1668 1677
3659 19 1667 1668 1678
3660 6 1677 1668 1678
3661 17 1665 1667 1668
3662 1 1665 1667 1669
3663 17 1669 1667 1668
3664 2 1671 1673 1674
3665 1 1671 1673 1675
3666 2 1675 1673 1674
3667 2 1669 1671 1672
3668 1 1669 1671 1673
3669 2 1673 1671 1672
3670 2 1667 1669 1670
3671 1 1667 1669 1671
3672 2 1671 1669 1670
3673 2 1283 1285 1286
3674 1 1283 1285 1287
3675 2 1287 1285 1286
3676 2 1285 1287 1288
3677 1 1285 1287 1289
3678 2 1289 1287 1288
3679 7 2175 2174 2164
3680 7 2176 2174 2164
3681 8 2175 2174 2176
3682 17 1281 1283 1284
3683 1 1281 1283 1285
3684 17 1285 1283 1284
3685 18 1283 1284 1293
3686 19 1283 1284 1294
3687 6 1293 1284 1294
3688 2 1287 1289 1290
3689 1 1287 1289 1291
3690 2 1291 1289 1290
3691 18 1059 1060 1069
3692 19 1059 1060 1070
3693 6 1069 1060 1070
3694 7 1071 1070 1060
3695 7 1072 1070 1060
3696 8 1071 1070 1072
3697 17 1057 1059 1060
3698 1 1057 1059 1061
3699 17 1061 1059 1060
3700 2 1283 1281 1282
3701 2 1291 1281 1282
3702 1 1283 1281 1291
3703 1 1281 1291 1289
3704 2 1281 1291 1292
3705 2 1289 1291 1292
3706 17 2161 2163 2164
3707 1 2161 2163 2165
3708 17 2165 2163 2164
3709 2 2163 2161 2162
3710 2 2171 2161 2162
3711 1 2163 2161 2171
3712 1 2161 2171 2169
3713 2 2161 2171 2172
3714 2 2169 2171 2172
3715 2 1811 1809 1810
3716 2 1819 1809 1810
3717 1 1811 1809 1819
3718 17 1809 1811 1812
3719 1 1809 1811 1813
3720 17 1813 1811 1812
3721 18 1811 1812 1821
3722 19 1811 1812 1822
3723 6 1821 1812 1822
3724 7 1823 1822 1812
3725 7 1824 1822 1812
3726 8 1823 1822 1824
3727 2 1059 1057 1058
3728 2 1067 1057 1058
3729 1 1059 1057 1067
3730 1 1809 1819 1817
3731 2 1809 1819 1820
3732 2 1817 1819 1820
3733 2 2165 2167 2168
3734 1 2165 2167 2169
3735 2 2169 2167 2168
3736 2 2167 2169 2170
3737 1 2167 2169 2171
3738 2 2171 2169 2170
3739 2 2707 2709 2710
3740 1 2707 2709 2711
3741 2 2711 2709 2710
3742 2 2709 2711 2712
3743 1 2709 2711 2713
3744 2 2713 2711 2712
3745 2 2711 2713 2714
3746 1 2711 2713 2715
3747 2 2715 2713 2714
3748 17 2705 2707 2708
3749 1 2705 2707 2709
3750 17 2709 2707 2708
3751 1 2705 2715 2713
3752 2 2705 2715 2716
3753 2 2713 2715 2716
3754 1 2545 2555 2553
3755 2 2545 2555 2556
3756 2 2553 2555 2556
3757 2 2551 2553 2554
3758 1 2551 2553 2555
3759 2 2555 2553 2554
3760 2 1061 1063 1064
3761 1 1061 1063 1065
3762 2 1065 1063 1064
3763 2 1059 1061 1062
3764 1 1059 1061 1063
3765 2 1063 1061 1062
3766 18 2707 2708 2717
3767 19 2707 2708 2718
3768 6 2717 2708 2718
3769 2 2707 2705 2706
3770 2 2715 2705 2706
3771 1 2707 2705 2715
3772 7 2559 2558 2548
3773 7 2560 2558 2548
3774 8 2559 2558 2560
3775 2 1063 1065 1066
3776 1 1063 1065 1067
3777 2 1067 1065 1066
3778 1 1057 1067 1065
3779 2 1057 1067 1068
3780 2 1065 1067 1068
3781 2 2547 2545 2546
3782 2 2555 2545 2546
3783 1 2547 2545 2555
3784 18 2547 2548 2557
3785 19 2547 2548 2558
3786 6 2557 2548 2558
3787 17 2545 2547 2548
3788 1 2545 2547 2549
3789 17 2549 2547 2548
3790 18 835 836 845
3791 19 835 836 846
3792 6 845 836 846
3793 7 847 846 836
3794 7 848 846 836
3795 8 847 846 848
3796 17 833 835 836
3797 1 833 835 837
3798 17 837 835 836
3799 2 835 833 834
3800 2 843 833 834
3801 1 835 833 843
3802 2 835 837 838
3803 1 835 837 839
3804 2 839 837 838
3805 2 2547 2549 2550
3806 1 2547 2549 2551
3807 2 2551 2549 2550
3808 2 2549 2551 2552
3809 1 2549 2551 2553
3810 2 2553 2551 2552
3811 7 3295 3294 3284
3812 7 3296 3294 3284
3813 8 3295 3294 3296
3814 18 3283 3284 3293
3815 19 3283 3284 3294
3816 6 3293 3284 3294
3817 17 3281 3283 3284
3818 1 3281 3283 3285
3819 17 3285 3283 3284
3820 17 2113 2115 2116
3821 1 2113 2115 2117
3822 17 2117 2115 2116
3823 18 2115 2116 2125
3824 19 2115 2116 2126
3825 6 2125 2116 2126
3826 2 2115 2117 2118
3827 1 2115 2117 2119
3828 2 2119 2117 2118
3829 7 2127 2126 2116
3830 7 2128 2126 2116
3831 8 2127 2126 2128
3832 7 2607 2606 2596
3833 7 2608 2606 2596
3834 8 2607 2606 2608
3835 18 2595 2596 2605
3836 19 2595 2596 2606
3837 6 2605 2596 2606
3838 1 833 843 841
3839 2 833 843 844
3840 2 841 843 844
3841 2 2115 2113 2114
3842 2 2123 2113 2114
3843 1 2115 2113 2123
3844 1 2113 2123 2121
3845 2 2113 2123 2124
3846 2 2121 2123 2124
3847 2 839 841 842
3848 1 839 841 843
3849 2 843 841 842
3850 2 837 839 840
3851 1 837 839 841
3852 2 841 839 840
3853 18 499 500 509
3854 19 499 500 510
3855 6 509 500 510
3856 7 511 510 500
3857 7 512 510 500
3858 8 511 510 512
3859 17 497 499 500
3860 1 497 499 501
3861 17 501 499 500
3862 2 499 497 498
3863 2 507 497 498
3864 1 499 497 507
3865 1 497 507 505
3866 2 497 507 508
3867 2 505 507 508
3868 2 2117 2119 2120
3869 1 2117 2119 2121
3870 2 2121 2119 2120
3871 2 503 505 506
3872 1 503 505 507
3873 2 507 505 506
3874 2 2963 2961 2962
3875 2 2971 2961 2962
3876 1 2963 2961 2971
3877 1 2961 2971 2969
3878 2 2961 2971 2972
3879 2 2969 2971 2972
3880 2 2967 2969 2970
3881 1 2967 2969 2971
3882 2 2971 2969 2970
3883 2 501 503 504
3884 1 501 503 505
3885 2 505 503 504
3886 17 2961 2963 2964
3887 1 2961 2963 2965
3888 17 2965 2963 2964
3889 2 1959 1961 1962
3890 1 1959 1961 1963
3891 2 1963 1961 1962
3892 2 1171 1173 1174
3893 1 1171 1173 1175
3894 2 1175 1173 1174
3895 2 2119 2121 2122
3896 1 2119 2121 2123
3897 2 2123 2121 2122
3898 2 499 501 502
3899 1 499 501 503
3900 2 503 501 502
3901 2 2645 2647 2648
3902 1 2645 2647 2649
3903 2 2649 2647 2648
3904 18 1171 1172 1181
3905 19 1171 1172 1182
3906 6 1181 1172 1182
3907 2 2643 2645 2646
3908 1 2643 2645 2647
3909 2 2647 2645 2646
3910 7 2655 2654 2644
3911 7 2656 2654 2644
3912 8 2655 2654 2656
3913 18 2643 2644 2653
3914 19 2643 2644 2654
3915 6 2653 2644 2654
3916 2 2647 2649 2650
3917 1 2647 2649 2651
3918 2 2651 2649 2650
3919 1 2641 2651 2649
3920 2 2641 2651 2652
3921 2 2649 2651 2652
3922 17 2641 2643 2644
3923 1 2641 2643 2645
3924 17 2645 2643 2644
3925 2 2643 2641 2642
3926 2 2651 2641 2642
3927 1 2643 2641 2651
3928 7 2975 2974 2964
3929 7 2976 2974 2964
3930 8 2975 2974 2976
3931 2 2963 2965 2966
3932 1 2963 2965 2967
3933 2 2967 2965 2966
3934 18 2963 2964 2973
3935 19 2963 2964 2974
3936 6 2973 2964 2974
3937 2 2213 2215 2216
3938 1 2213 2215 2217
3939 2 2217 2215 2216
3940 1 1953 1963 1961
3941 2 1953 1963 1964
3942 2 1961 1963 1964
3943 2 2211 2209 2210
3944 2 2219 2209 2210
3945 1 2211 2209 2219
3946 2 1955 1953 1954
3947 2 1963 1953 1954
3948 1 1955 1953 1963
3949 17 2209 2211 2212
3950 1 2209 2211 2213
3951 17 2213 2211 2212
3952 17 1953 1955 1956
3953 1 1953 1955 1957
3954 17 1957 1955 1956
3955 18 1955 1956 1965
3956 19 1955 1956 1966
3957 6 1965 1956 1966
3958 2 2211 2213 2214
3959 1 2211 2213 2215
3960 2 2215 2213 2214
3961 7 1967 1966 1956
3962 7 1968 1966 1956
3963 8 1967 1966 1968
3964 7 2223 2222 2212
3965 7 2224 2222 2212
3966 8 2223 2222 2224
3967 18 2211 2212 2221
3968 19 2211 2212 2222
3969 6 2221 2212 2222
3970 7 1279 1278 1268
3971 7 1280 1278 1268
3972 8 1279 1278 1280
3973 2 1267 1269 1270
3974 1 1267 1269 1271
3975 2 1271 1269 1270
3976 2 1269 1271 1272
3977 1 1269 1271 1273
3978 2 1273 1271 1272
3979 2 2215 2217 2218
3980 1 2215 2217 2219
3981 2 2219 2217 2218
3982 1 2209 2219 2217
3983 2 2209 2219 2220
3984 2 2217 2219 2220
3985 17 1265 1267 1268
3986 1 1265 1267 1269
3987 17 1269 1267 1268
3988 1 1265 1275 1273
3989 2 1265 1275 1276
3990 2 1273 1275 1276
3991 2 1267 1265 1266
3992 2 1275 1265 1266
3993 1 1267 1265 1275
3994 18 1267 1268 1277
3995 19 1267 1268 1278
3996 6 1277 1268 1278
3997 2 755 757 758
3998 1 755 757 759
3999 2 759 757 758
4000 17 753 755 756
4001 1 753 755 757
4002 17 757 755 756
4003 7 767 766 756
4004 7 768 766 756
4005 8 767 766 768
4006 2 819 817 818
4007 2 827 817 818
4008 1 819 817 827
4009 7 1839 1838 1828
4010 7 1840 1838 1828
4011 8 1839 1838 1840
4012 17 1825 1827 1828
4013 1 1825 1827 1829
4014 17 1829 1827 1828
4015 18 1827 1828 1837
4016 19 1827 1828 1838
4017 6 1837 1828 1838
4018 1 2193 2203 2201
4019 2 2193 2203 2204
4020 2 2201 2203 2204
4021 2 1827 1825 1826
4022 2 1835 1825 1826
4023 1 1827 1825 1835
4024 2 2195 2193 2194
4025 2 2203 2193 2194
4026 1 2195 2193 2203
4027 2 2199 2201 2202
4028 1 2199 2201 2203
4029 2 2203 2201 2202
4030 1 817 827 825
4031 2 817 827 828
4032 2 825 827 828
4033 2 1827 1829 1830
4034 1 1827 1829 1831
4035 2 1831 1829 1830
4036 2 757 759 760
4037 1 757 759 761
4038 2 761 759 760
4039 2 759 761 762
4040 1 759 761 763
4041 2 763 761 762
4042 2 2195 2197 2198
4043 1 2195 2197 2199
4044 2 2199 2197 2198
4045 2 2197 2199 2200
4046 1 2197 2199 2201
4047 2 2201 2199 2200
4048 17 2193 2195 2196
4049 1 2193 2195 2197
4050 17 2197 2195 2196
4051 18 2195 2196 2205
4052 19 2195 2196 2206
4053 6 2205 2196 2206
4054 1 753 763 761
4055 2 753 763 764
4056 2 761 763 764
4057 18 1331 1332 1341
4058 19 1331 1332 1342
4059 6 1341 1332 1342
4060 1 1825 1835 1833
4061 2 1825 1835 1836
4062 2 1833 1835 1836
4063 2 741 743 744
4064 1 741 743 745
4065 2 745 743 744
4066 2 743 745 746
4067 1 743 745 747
4068 2 747 745 746
4069 18 2563 2564 2573
4070 19 2563 2564 2574
4071 6 2573 2564 2574
4072 1 737 747 745
4073 2 737 747 748
4074 2 745 747 748
4075 2 739 737 738
4076 2 747 737 738
4077 1 739 737 747
4078 2 739 741 742
4079 1 739 741 743
4080 2 743 741 742
4081 17 737 739 740
4082 1 737 739 741
4083 17 741 739 740
4084 18 739 740 749
4085 19 739 740 750
4086 6 749 740 750
4087 7 751 750 740
4088 7 752 750 740
4089 8 751 750 752
4090 2 1331 1329 1330
4091 2 1339 1329 1330
4092 1 1331 1329 1339
4093 2 327 329 330
4094 1 327 329 331
4095 2 331 329 330
4096 2 1829 1831 1832
4097 1 1829 1831 1833
4098 2 1833 1831 1832
4099 2 919 921 922
4100 1 919 921 923
4101 2 923 921 922
4102 2 1831 1833 1834
4103 1 1831 1833 1835
4104 2 1835 1833 1834
4105 1 913 923 921
4106 2 913 923 924
4107 2 921 923 924
4108 2 323 325 326
4109 1 323 325 327
4110 2 327 325 326
4111 2 915 913 914
4112 2 923 913 914
4113 1 915 913 923
4114 17 913 915 916
4115 1 913 915 917
4116 17 917 915 916
4117 7 927 926 916
4118 7 928 926 916
4119 8 927 926 928
4120 18 915 916 925
4121 19 915 916 926
4122 6 925 916 926
4123 2 915 917 918
4124 1 915 917 919
4125 2 919 917 918
4126 2 325 327 328
4127 1 325 327 329
4128 2 329 327 328
4129 2 1331 1333 1334
4130 1 1331 1333 1335
4131 2 1335 1333 1334
4132 17 1329 1331 1332
4133 1 1329 1331 1333
4134 17 1333 1331 1332
4135 2 1333 1335 1336
4136 1 1333 1335 1337
4137 2 1337 1335 1336
4138 2 1335 1337 1338
4139 1 1335 1337 1339
4140 2 1339 1337 1338
4141 1 1329 1339 1337
4142 2 1329 1339 1340
4143 2 1337 1339 1340
4144 1 193 203 201
4145 2 193 203 204
4146 2 201 203 204
4147 2 199 201 202
4148 1 199 201 203
4149 2 203 201 202
4150 2 1971 1973 1974
4151 1 1971 1973 1975
4152 2 1975 1973 1974
4153 2 1863 1865 1866
4154 1 1863 1865 1867
4155 2 1867 1865 1866
4156 2 197 199 200
4157 1 197 199 201
4158 2 201 199 200
4159 2 195 193 194
4160 2 203 193 194
4161 1 195 193 203
4162 17 1969 1971 1972
4163 1 1969 1971 1973
4164 17 1973 1971 1972
4165 2 1971 1969 1970
4166 2 1979 1969 1970
4167 1 1971 1969 1979
4168 18 1971 1972 1981
4169 19 1971 1972 1982
4170 6 1981 1972 1982
4171 7 2159 2158 2148
4172 7 2160 2158 2148
4173 8 2159 2158 2160
4174 2 1859 1861 1862
4175 1 1859 1861 1863
4176 2 1863 1861 1862
4177 2 1861 1863 1864
4178 1 1861 1863 1865
4179 2 1865 1863 1864
4180 2 3319 3321 3322
4181 1 3319 3321 3323
4182 2 3323 3321 3322
4183 1 3313 3323 3321
4184 2 3313 3323 3324
4185 2 3321 3323 3324
4186 2 3315 3313 3314
4187 2 3323 3313 3314
4188 1 3315 3313 3323
4189 17 1857 1859 1860
4190 1 1857 1859 1861
4191 17 1861 1859 1860
4192 2 3317 3319 3320
4193 1 3317 3319 3321
4194 2 3321 3319 3320
4195 2 3315 3317 3318
4196 1 3315 3317 3319
4197 2 3319 3317 3318
4198 17 3313 3315 3316
4199 1 3313 3315 3317
4200 17 3317 3315 3316
4201 17 369 371 372
4202 1 369 371 373
4203 17 373 371 372
4204 18 371 372 381
4205 19 371 372 382
4206 6 381 372 382
4207 2 371 369 370
4208 2 379 369 370
4209 1 371 369 379
4210 7 383 382 372
4211 7 384 382 372
4212 8 383 382 384
4213 2 371 373 374
4214 1 371 373 375
4215 2 375 373 374
4216 2 375 377 378
4217 1 375 377 379
4218 2 379 377 378
4219 2 373 375 376
4220 1 373 375 377
4221 2 377 375 376
4222 1 369 379 377
4223 2 369 379 380
4224 2 377 379 380
4225 7 1327 1326 1316
4226 7 1328 1326 1316
4227 8 1327 1326 1328
4228 7 1983 1982 1972
4229 7 1984 1982 1972
4230 8 1983 1982 1984
4231 2 1811 1813 1814
4232 1 1811 1813 1815
4233 2 1815 1813 1814
4234 2 1859 1857 1858
4235 2 1867 1857 1858
4236 1 1859 1857 1867
4237 1 1857 1867 1865
4238 2 1857 1867 1868
4239 2 1865 1867 1868
4240 2 1815 1817 1818
4241 1 1815 1817 1819
4242 2 1819 1817 1818
4243 2 1813 1815 1816
4244 1 1813 1815 1817
4245 2 1817 1815 1816
4246 18 1859 1860 1869
4247 19 1859 1860 1870
4248 6 1869 1860 1870
4249 7 367 366 356
4250 7 368 366 356
4251 8 367 366 368
4252 7 1871 1870 1860
4253 7 1872 1870 1860
4254 8 1871 1870 1872
4255 18 2163 2164 2173
4256 19 2163 2164 2174
4257 6 2173 2164 2174
4258 18 2499 2500 2509
4259 19 2499 2500 2510
4260 6 2509 2500 2510
4261 2 2163 2165 2166
4262 1 2163 2165 2167
4263 2 2167 2165 2166
4264 2 531 529 530
4265 2 539 529 530
4266 1 531 529 539
4267 2 535 537 538
4268 1 535 537 539
4269 2 539 537 538
4270 1 529 539 537
4271 2 529 539 540
4272 2 537 539 540
4273 17 529 531 532
4274 1 529 531 533
4275 17 533 531 532
4276 7 2511 2510 2500
4277 7 2512 2510 2500
4278 8 2511 2510 2512
4279 2 2979 2981 2982
4280 1 2979 2981 2983
4281 2 2983 2981 2982
4282 2 2981 2983 2984
4283 1 2981 2983 2985
4284 2 2985 2983 2984
4285 18 1747 1748 1757
4286 19 1747 1748 1758
4287 6 1757 1748 1758
4288 2 1747 1745 1746
4289 2 1755 1745 1746
4290 1 1747 1745 1755
4291 2 1751 1753 1754
4292 1 1751 1753 1755
4293 2 1755 1753 1754
4294 17 1745 1747 1748
4295 1 1745 1747 1749
4296 17 1749 1747 1748
4297 1 1745 1755 1753
4298 2 1745 1755 1756
4299 2 1753 1755 1756
4300 2 1749 1751 1752
4301 1 1749 1751 1753
4302 2 1753 1751 1752
4303 2 1747 1749 1750
4304 1 1747 1749 1751
4305 2 1751 1749 1750
4306 7 2991 2990 2980
4307 7 2992 2990 2980
4308 8 2991 2990 2992
4309 7 1759 1758 1748
4310 7 1760 1758 1748
4311 8 1759 1758 1760
4312 2 2983 2985 2986
4313 1 2983 2985 2987
4314 2 2987 2985 2986
4315 1 2977 2987 2985
4316 2 2977 2987 2988
4317 2 2985 2987 2988
4318 2 1639 1641 1642
4319 1 1639 1641 1643
4320 2 1643 1641 1642
4321 1 1633 1643 1641
4322 2 1633 1643 1644
4323 2 1641 1643 1644
4324 2 1635 1633 1634
4325 2 1643 1633 1634
4326 1 1635 1633 1643
4327 7 223 222 212
4328 7 224 222 212
4329 8 223 222 224
4330 2 2979 2977 2978
4331 2 2987 2977 2978
4332 1 2979 2977 2987
4333 2 2917 2919 2920
4334 1 2917 2919 2921
4335 2 2921 2919 2920
4336 2 2919 2921 2922
4337 1 2919 2921 2923
4338 2 2923 2921 2922
4339 1 209 219 217
4340 2 209 219 220
4341 2 217 219 220
4342 2 211 209 210
4343 2 219 209 210
4344 1 211 209 219
4345 7 1647 1646 1636
4346 7 1648 1646 1636
4347 8 1647 1646 1648
4348 18 2979 2980 2989
4349 19 2979 2980 2990
4350 6 2989 2980 2990
4351 2 1637 1639 1640
4352 1 1637 1639 1641
4353 2 1641 1639 1640
4354 17 1633 1635 1636
4355 1 1633 1635 1637
4356 17 1637 1635 1636
4357 18 1635 1636 1645
4358 19 1635 1636 1646
4359 6 1645 1636 1646
4360 17 2977 2979 2980
4361 1 2977 2979 2981
4362 17 2981 2979 2980
4363 2 1635 1637 1638
4364 1 1635 1637 1639
4365 2 1639 1637 1638
4366 7 2367 2366 2356
4367 7 2368 2366 2356
4368 8 2367 2366 2368
4369 17 2353 2355 2356
4370 1 2353 2355 2357
4371 17 2357 2355 2356
4372 18 2355 2356 2365
4373 19 2355 2356 2366
4374 6 2365 2356 2366
4375 2 3283 3285 3286
4376 1 3283 3285 3287
4377 2 3287 3285 3286
4378 7 3007 3006 2996
4379 7 3008 3006 2996
4380 8 3007 3006 3008
4381 17 2913 2915 2916
4382 1 2913 2915 2917
4383 17 2917 2915 2916
4384 2 2915 2913 2914
4385 2 2923 2913 2914
4386 1 2915 2913 2923
4387 1 2913 2923 2921
4388 2 2913 2923 2924
4389 2 2921 2923 2924
4390 18 2227 2228 2237
4391 19 2227 2228 2238
4392 6 2237 2228 2238
4393 7 2239 2238 2228
4394 7 2240 2238 2228
4395 8 2239 2238 2240
4396 1 1649 1659 1657
4397 2 1649 1659 1660
4398 2 1657 1659 1660
4399 2 2227 2225 2226
4400 2 2235 2225 2226
4401 1 2227 2225 2235
4402 2 3285 3287 3288
4403 1 3285 3287 3289
4404 2 3289 3287 3288
4405 2 2355 2357 2358
4406 1 2355 2357 2359
4407 2 2359 2357 2358
4408 2 3287 3289 3290
4409 1 3287 3289 3291
4410 2 3291 3289 3290
4411 2 2357 2359 2360
4412 1 2357 2359 2361
4413 2 2361 2359 2360
4414 2 2359 2361 2362
4415 1 2359 2361 2363
4416 2 2363 2361 2362
4417 2 2915 2917 2918
4418 1 2915 2917 2919
4419 2 2919 2917 2918
4420 18 2915 2916 2925
4421 19 2915 2916 2926
4422 6 2925 2916 2926
4423 2 3283 3281 3282
4424 2 3291 3281 3282
4425 1 3283 3281 3291
4426 1 3281 3291 3289
4427 2 3281 3291 3292
4428 2 3289 3291 3292
4429 7 2927 2926 2916
4430 7 2928 2926 2916
4431 8 2927 2926 2928
4432 2 1651 1649 1650
4433 2 1659 1649 1650
4434 1 1651 1649 1659
4435 7 1663 1662 1652
4436 7 1664 1662 1652
4437 8 1663 1662 1664
4438 18 2995 2996 3005
4439 19 2995 2996 3006
4440 6 3005 2996 3006
4441 2 1957 1959 1960
4442 1 1957 1959 1961
4443 2 1961 1959 1960
4444 17 2993 2995 2996
4445 1 2993 2995 2997
4446 17 2997 2995 2996
4447 2 2995 2993 2994
4448 2 3003 2993 2994
4449 1 2995 2993 3003
4450 1 2993 3003 3001
4451 2 2993 3003 3004
4452 2 3001 3003 3004
4453 2 2995 2997 2998
4454 1 2995 2997 2999
4455 2 2999 2997 2998
4456 2 2997 2999 3000
4457 1 2997 2999 3001
4458 2 3001 2999 3000
4459 2 2999 3001 3002
4460 1 2999 3001 3003
4461 2 3003 3001 3002
4462 17 2305 2307 2308
4463 1 2305 2307 2309
4464 17 2309 2307 2308
4465 2 2307 2309 2310
4466 1 2307 2309 2311
4467 2 2311 2309 2310
4468 2 2309 2311 2312
4469 1 2309 2311 2313
4470 2 2313 2311 2312
4471 18 2307 2308 2317
4472 19 2307 2308 2318
4473 6 2317 2308 2318
4474 18 2339 2340 2349
4475 19 2339 2340 2350
4476 6 2349 2340 2350
4477 2 453 455 456
4478 1 453 455 457
4479 2 457 455 456
4480 2 455 457 458
4481 1 455 457 459
4482 2 459 457 458
4483 1 449 459 457
4484 2 449 459 460
4485 2 457 459 460
4486 2 451 449 450
4487 2 459 449 450
4488 1 451 449 459
4489 2 2307 2305 2306
4490 2 2315 2305 2306
4491 1 2307 2305 2315
4492 2 2311 2313 2314
4493 1 2311 2313 2315
4494 2 2315 2313 2314
4495 2 451 453 454
4496 1 451 453 455
4497 2 455 453 454
4498 17 449 451 452
4499 1 449 451 453
4500 17 453 451 452
4501 18 451 452 461
4502 19 451 452 462
4503 6 461 452 462
4504 7 463 462 452
4505 7 464 462 452
4506 8 463 462 464
4507 1 2305 2315 2313
4508 2 2305 2315 2316
4509 2 2313 2315 2316
4510 2 1955 1957 1958
4511 1 1955 1957 1959
4512 2 1959 1957 1958
4513 2 2341 2343 2344
4514 1 2341 2343 2345
4515 2 2345 2343 2344
4516 2 2339 2341 2342
4517 1 2339 2341 2343
4518 2 2343 2341 2342
4519 2 2343 2345 2346
4520 1 2343 2345 2347
4521 2 2347 2345 2346
4522 17 2337 2339 2340
4523 1 2337 2339 2341
4524 17 2341 2339 2340
4525 17 257 259 260
4526 1 257 259 261
4527 17 261 259 260
4528 18 259 260 269
4529 19 259 260 270
4530 6 269 260 270
4531 2 469 471 472
4532 1 469 471 473
4533 2 473 471 472
4534 2 471 473 474
4535 1 471 473 475
4536 2 475 473 474
4537 1 257 267 265
4538 2 257 267 268
4539 2 265 267 268
4540 2 259 257 258
4541 2 267 257 258
4542 1 259 257 267
4543 18 755 756 765
4544 19 755 756 766
4545 6 765 756 766
4546 2 1427 1425 1426
4547 2 1435 1425 1426
4548 1 1427 1425 1435
4549 1 1425 1435 1433
4550 2 1425 1435 1436
4551 2 1433 1435 1436
4552 17 1425 1427 1428
4553 1 1425 1427 1429
4554 17 1429 1427 1428
4555 18 1427 1428 1437
4556 19 1427 1428 1438
4557 6 1437 1428 1438
4558 7 1439 1438 1428
4559 7 1440 1438 1428
4560 8 1439 1438 1440
4561 7 271 270 260
4562 7 272 270 260
4563 8 271 270 272
4564 7 2351 2350 2340
4565 7 2352 2350 2340
4566 8 2351 2350 2352
4567 2 467 469 470
4568 1 467 469 471
4569 2 471 469 470
4570 17 465 467 468
4571 1 465 467 469
4572 17 469 467 468
4573 2 467 465 466
4574 2 475 465 466
4575 1 467 465 475
4576 1 465 475 473
4577 2 465 475 476
4578 2 473 475 476
4579 7 2207 2206 2196
4580 7 2208 2206 2196
4581 8 2207 2206 2208
4582 18 467 468 477
4583 19 467 468 478
4584 6 477 468 478
4585 7 479 478 468
4586 7 480 478 468
4587 8 479 478 480
4588 18 595 596 605
4589 19 595 596 606
4590 6 605 596 606
4591 2 755 753 754
4592 2 763 753 754
4593 1 755 753 763
4594 1 433 443 441
4595 2 433 443 444
4596 2 441 443 444
4597 2 437 439 440
4598 1 437 439 441
4599 2 441 439 440
4600 2 439 441 442
4601 1 439 441 443
4602 2 443 441 442
4603 2 435 437 438
4604 1 435 437 439
4605 2 439 437 438
4606 2 1733 1735 1736
4607 1 1733 1735 1737
4608 2 1737 1735 1736
4609 2 1731 1733 1734
4610 1 1731 1733 1735
4611 2 1735 1733 1734
4612 7 607 606 596
4613 7 608 606 596
4614 8 607 606 608
4615 17 593 595 596
4616 1 593 595 597
4617 17 597 595 596
4618 2 597 599 600
4619 1 597 599 601
4620 2 601 599 600
4621 2 595 597 598
4622 1 595 597 599
4623 2 599 597 598
4624 2 599 601 602
4625 1 599 601 603
4626 2 603 601 602
4627 2 595 593 594
4628 2 603 593 594
4629 1 595 593 603
4630 1 2145 2155 2153
4631 2 2145 2155 2156
4632 2 2153 2155 2156
4633 2 2147 2145 2146
4634 2 2155 2145 2146
4635 1 2147 2145 2155
4636 2 1603 1601 1602
4637 2 1611 1601 1602
4638 1 1603 1601 1611
4639 1 1601 1611 1609
4640 2 1601 1611 1612
4641 2 1609 1611 1612
4642 17 1601 1603 1604
4643 1 1601 1603 1605
4644 17 1605 1603 1604
4645 1 593 603 601
4646 2 593 603 604
4647 2 601 603 604
4648 7 1615 1614 1604
4649 7 1616 1614 1604
4650 8 1615 1614 1616
4651 2 775 777 778
4652 1 775 777 779
4653 2 779 777 778
4654 2 773 775 776
4655 1 773 775 777
4656 2 777 775 776
4657 2 1731 1729 1730
4658 2 1739 1729 1730
4659 1 1731 1729 1739
4660 17 1729 1731 1732
4661 1 1729 1731 1733
4662 17 1733 1731 1732
4663 18 1731 1732 1741
4664 19 1731 1732 1742
4665 6 1741 1732 1742
4666 2 1735 1737 1738
4667 1 1735 1737 1739
4668 2 1739 1737 1738
4669 1 1729 1739 1737
4670 2 1729 1739 1740
4671 2 1737 1739 1740
4672 7 1743 1742 1732
4673 7 1744 1742 1732
4674 8 1743 1742 1744
4675 18 1603 1604 1613
4676 19 1603 1604 1614
4677 6 1613 1604 1614
4678 7 3327 3326 3316
4679 7 3328 3326 3316
4680 8 3327 3326 3328
4681 1 769 779 777
4682 2 769 779 780
4683 2 777 779 780
4684 2 2147 2149 2150
4685 1 2147 2149 2151
4686 2 2151 2149 2150
4687 17 2145 2147 2148
4688 1 2145 2147 2149
4689 17 2149 2147 2148
4690 2 2151 2153 2154
4691 1 2151 2153 2155
4692 2 2155 2153 2154
4693 2 2149 2151 2152
4694 1 2149 2151 2153
4695 2 2153 2151 2152
4696 2 1779 1777 1778
4697 2 1787 1777 1778
4698 1 1779 1777 1787
4699 1 1777 1787 1785
4700 2 1777 1787 1788
4701 2 1785 1787 1788
4702 2 1603 1605 1606
4703 1 1603 1605 1607
4704 2 1607 1605 1606
4705 17 193 195 196
4706 1 193 195 197
4707 17 197 195 196
4708 2 1605 1607 1608
4709 1 1605 1607 1609
4710 2 1609 1607 1608
4711 2 195 197 198
4712 1 195 197 199
4713 2 199 197 198
4714 2 1607 1609 1610
4715 1 1607 1609 1611
4716 2 1611 1609 1610
4717 1 3233 3243 3241
4718 2 3233 3243 3244
4719 2 3241 3243 3244
4720 18 2147 2148 2157
4721 19 2147 2148 2158
4722 6 2157 2148 2158
4723 18 195 196 205
4724 19 195 196 206
4725 6 205 196 206
4726 18 3315 3316 3325
4727 19 3315 3316 3326
4728 6 3325 3316 3326
4729 17 3233 3235 3236
4730 1 3233 3235 3237
4731 17 3237 3235 3236
4732 18 3235 3236 3245
4733 19 3235 3236 3246
4734 6 3245 3236 3246
4735 7 1791 1790 1780
4736 7 1792 1790 1780
4737 8 1791 1790 1792
4738 17 1777 1779 1780
4739 1 1777 1779 1781
4740 17 1781 1779 1780
4741 7 207 206 196
4742 7 208 206 196
4743 8 207 206 208
4744 18 1779 1780 1789
4745 19 1779 1780 1790
4746 6 1789 1780 1790
4747 2 3235 3233 3234
4748 2 3243 3233 3234
4749 1 3235 3233 3243
4750 2 1781 1783 1784
4751 1 1781 1783 1785
4752 2 1785 1783 1784
4753 2 1783 1785 1786
4754 1 1783 1785 1787
4755 2 1787 1785 1786
4756 17 2497 2499 2500
4757 1 2497 2499 2501
4758 17 2501 2499 2500
4759 2 2499 2497 2498
4760 2 2507 2497 2498
4761 1 2499 2497 2507
4762 1 2497 2507 2505
4763 2 2497 2507 2508
4764 2 2505 2507 2508
4765 2 2499 2501 2502
4766 1 2499 2501 2503
4767 2 2503 2501 2502
4768 2 2501 2503 2504
4769 1 2501 2503 2505
4770 2 2505 2503 2504
4771 2 2503 2505 2506
4772 1 2503 2505 2507
4773 2 2507 2505 2506
4774 2 1699 1697 1698
4775 2 1707 1697 1698
4776 1 1699 1697 1707
4777 18 1699 1700 1709
4778 19 1699 1700 1710
4779 6 1709 1700 1710
4780 17 1697 1699 1700
4781 1 1697 1699 1701
4782 17 1701 1699 1700
4783 18 355 356 365
4784 19 355 356 366
4785 6 365 356 366
4786 2 355 353 354
4787 2 363 353 354
4788 1 355 353 363
4789 17 353 355 356
4790 1 353 355 357
4791 17 357 355 356
4792 1 353 363 361
4793 2 353 363 364
4794 2 361 363 364
4795 2 355 357 358
4796 1 355 357 359
4797 2 359 357 358
4798 2 359 361 362
4799 1 359 361 363
4800 2 363 361 362
4801 2 357 359 360
4802 1 357 359 361
4803 2 361 359 360
4804 2 1779 1781 1782
4805 1 1779 1781 1783
4806 2 1783 1781 1782
4807 7 1711 1710 1700
4808 7 1712 1710 1700
4809 8 1711 1710 1712
4810 2 1399 1401 1402
4811 1 1399 1401 1403
4812 2 1403 1401 1402
4813 2 1397 1399 1400
4814 1 1397 1399 1401
4815 2 1401 1399 1400
4816 2 1395 1397 1398
4817 1 1395 1397 1399
4818 2 1399 1397 1398
4819 2 531 533 534
4820 1 531 533 535
4821 2 535 533 534
4822 7 543 542 532
4823 7 544 542 532
4824 8 543 542 544
4825 2 533 535 536
4826 1 533 535 537
4827 2 537 535 536
4828 18 531 532 541
4829 19 531 532 542
4830 6 541 532 542
4831 2 1461 1463 1464
4832 1 1461 1463 1465
4833 2 1465 1463 1464
4834 2 1463 1465 1466
4835 1 1463 1465 1467
4836 2 1467 1465 1466
4837 1 961 971 969
4838 2 961 971 972
4839 2 969 971 972
4840 2 963 961 962
4841 2 971 961 962
4842 1 963 961 971
4843 17 961 963 964
4844 1 961 963 965
4845 17 965 963 964
4846 2 967 969 970
4847 1 967 969 971
4848 2 971 969 970
4849 2 965 967 968
4850 1 965 967 969
4851 2 969 967 968
4852 2 1459 1457 1458
4853 2 1467 1457 1458
4854 1 1459 1457 1467
4855 2 1459 1461 1462
4856 1 1459 1461 1463
4857 2 1463 1461 1462
4858 18 1459 1460 1469
4859 19 1459 1460 1470
4860 6 1469 1460 1470
4861 7 1471 1470 1460
4862 7 1472 1470 1460
4863 8 1471 1470 1472
4864 17 1457 1459 1460
4865 1 1457 1459 1461
4866 17 1461 1459 1460
4867 1 1457 1467 1465
4868 2 1457 1467 1468
4869 2 1465 1467 1468
4870 18 211 212 221
4871 19 211 212 222
4872 6 221 212 222
4873 2 1091 1093 1094
4874 1 1091 1093 1095
4875 2 1095 1093 1094
4876 2 215 217 218
4877 1 215 217 219
4878 2 219 217 218
4879 17 1089 1091 1092
4880 1 1089 1091 1093
4881 17 1093 1091 1092
4882 17 209 211 212
4883 1 209 211 213
4884 17 213 211 212
4885 2 211 213 214
4886 1 211 213 215
4887 2 215 213 214
4888 2 213 215 216
4889 1 213 215 217
4890 2 217 215 216
4891 2 1093 1095 1096
4892 1 1093 1095 1097
4893 2 1097 1095 1096
4894 2 1095 1097 1098
4895 1 1095 1097 1099
4896 2 1099 1097 1098
4897 7 3263 3262 3252
4898 7 3264 3262 3252
4899 8 3263 3262 3264
4900 2 1091 1089 1090
4901 2 1099 1089 1090
4902 1 1091 1089 1099
4903 1 1089 1099 1097
4904 2 1089 1099 1100
4905 2 1097 1099 1100
4906 2 3365 3367 3368
4907 1 3365 3367 3369
4908 2 3369 3367 3368
4909 1 3361 3371 3369
4910 2 3361 3371 3372
4911 2 3369 3371 3372
4912 2 3367 3369 3370
4913 1 3367 3369 3371
4914 2 3371 3369 3370
4915 2 3363 3365 3366
4916 1 3363 3365 3367
4917 2 3367 3365 3366
4918 2 3363 3361 3362
4919 2 3371 3361 3362
4920 1 3363 3361 3371
4921 18 3363 3364 3373
4922 19 3363 3364 3374
4923 6 3373 3364 3374
4924 7 3375 3374 3364
4925 7 3376 3374 3364
4926 8 3375 3374 3376
4927 17 3361 3363 3364
4928 1 3361 3363 3365
4929 17 3365 3363 3364
4930 2 1655 1657 1658
4931 1 1655 1657 1659
4932 2 1659 1657 1658
4933 2 3303 3305 3306
4934 1 3303 3305 3307
4935 2 3307 3305 3306
4936 1 3297 3307 3305
4937 2 3297 3307 3308
4938 2 3305 3307 3308
4939 2 3299 3301 3302
4940 1 3299 3301 3303
4941 2 3303 3301 3302
4942 2 3301 3303 3304
4943 1 3301 3303 3305
4944 2 3305 3303 3304
4945 17 2225 2227 2228
4946 1 2225 2227 2229
4947 17 2229 2227 2228
4948 2 2227 2229 2230
4949 1 2227 2229 2231
4950 2 2231 2229 2230
4951 17 3297 3299 3300
4952 1 3297 3299 3301
4953 17 3301 3299 3300
4954 2 1365 1367 1368
4955 1 1365 1367 1369
4956 2 1369 1367 1368
4957 18 3299 3300 3309
4958 19 3299 3300 3310
4959 6 3309 3300 3310
4960 2 2231 2233 2234
4961 1 2231 2233 2235
4962 2 2235 2233 2234
4963 2 2229 2231 2232
4964 1 2229 2231 2233
4965 2 2233 2231 2232
4966 2 1367 1369 1370
4967 1 1367 1369 1371
4968 2 1371 1369 1370
4969 2 2355 2353 2354
4970 2 2363 2353 2354
4971 1 2355 2353 2363
4972 2 1653 1655 1656
4973 1 1653 1655 1657
4974 2 1657 1655 1656
4975 1 2353 2363 2361
4976 2 2353 2363 2364
4977 2 2361 2363 2364
4978 2 1651 1653 1654
4979 1 1651 1653 1655
4980 2 1655 1653 1654
4981 2 1363 1365 1366
4982 1 1363 1365 1367
4983 2 1367 1365 1366
4984 17 1361 1363 1364
4985 1 1361 1363 1365
4986 17 1365 1363 1364
4987 18 1363 1364 1373
4988 19 1363 1364 1374
4989 6 1373 1364 1374
4990 7 1375 1374 1364
4991 7 1376 1374 1364
4992 8 1375 1374 1376
4993 7 3311 3310 3300
4994 7 3312 3310 3300
4995 8 3311 3310 3312
4996 17 1649 1651 1652
4997 1 1649 1651 1653
4998 17 1653 1651 1652
4999 18 1651 1652 1661
5000 19 1651 1652 1662
5001 6 1661 1652 1662
5002 2 295 297 298
5003 1 295 297 299
5004 2 299 297 298
5005 7 2783 2782 2772
5006 7 2784 2782 2772
5007 8 2783 2782 2784
5008 18 2771 2772 2781
5009 19 2771 2772 2782
5010 6 2781 2772 2782
5011 17 2769 2771 2772
5012 1 2769 2771 2773
5013 17 2773 2771 2772
5014 7 2319 2318 2308
5015 7 2320 2318 2308
5016 8 2319 2318 2320
5017 1 2225 2235 2233
5018 2 2225 2235 2236
5019 2 2233 2235 2236
5020 2 293 295 296
5021 1 293 295 297
5022 2 297 295 296
5023 2 291 293 294
5024 1 291 293 295
5025 2 295 293 294
5026 17 289 291 292
5027 1 289 291 293
5028 17 293 291 292
5029 2 291 289 290
5030 2 299 289 290
5031 1 291 289 299
5032 1 289 299 297
5033 2 289 299 300
5034 2 297 299 300
5035 17 721 723 724
5036 1 721 723 725
5037 17 725 723 724
5038 2 723 721 722
5039 2 731 721 722
5040 1 723 721 731
5041 2 727 729 730
5042 1 727 729 731
5043 2 731 729 730
5044 1 721 731 729
5045 2 721 731 732
5046 2 729 731 732
5047 2 723 725 726
5048 1 723 725 727
5049 2 727 725 726
5050 2 725 727 728
5051 1 725 727 729
5052 2 729 727 728
5053 18 723 724 733
5054 19 723 724 734
5055 6 733 724 734
5056 7 735 734 724
5057 7 736 734 724
5058 8 735 734 736
5059 1 1505 1515 1513
5060 2 1505 1515 1516
5061 2 1513 1515 1516
5062 1 2337 2347 2345
5063 2 2337 2347 2348
5064 2 2345 2347 2348
5065 2 259 261 262
5066 1 259 261 263
5067 2 263 261 262
5068 2 261 263 264
5069 1 261 263 265
5070 2 265 263 264
5071 2 2339 2337 2338
5072 2 2347 2337 2338
5073 1 2339 2337 2347
5074 2 2771 2773 2774
5075 1 2771 2773 2775
5076 2 2775 2773 2774
5077 2 263 265 266
5078 1 263 265 267
5079 2 267 265 266
5080 1 1537 1547 1545
5081 2 1537 1547 1548
5082 2 1545 1547 1548
5083 2 1509 1511 1512
5084 1 1509 1511 1513
5085 2 1513 1511 1512
5086 2 1511 1513 1514
5087 1 1511 1513 1515
5088 2 1515 1513 1514
5089 2 1111 1113 1114
5090 1 1111 1113 1115
5091 2 1115 1113 1114
5092 2 1431 1433 1434
5093 1 1431 1433 1435
5094 2 1435 1433 1434
5095 2 1429 1431 1432
5096 1 1429 1431 1433
5097 2 1433 1431 1432
5098 2 1427 1429 1430
5099 1 1427 1429 1431
5100 2 1431 1429 1430
5101 18 291 292 301
5102 19 291 292 302
5103 6 301 292 302
5104 7 303 302 292
5105 7 304 302 292
5106 8 303 302 304
5107 2 1539 1537 1538
5108 2 1547 1537 1538
5109 1 1539 1537 1547
5110 17 1537 1539 1540
5111 1 1537 1539 1541
5112 17 1541 1539 1540
5113 7 1551 1550 1540
5114 7 1552 1550 1540
5115 8 1551 1550 1552
5116 18 1539 1540 1549
5117 19 1539 1540 1550
5118 6 1549 1540 1550
5119 2 1507 1509 1510
5120 1 1507 1509 1511
5121 2 1511 1509 1510
5122 2 1507 1505 1506
5123 2 1515 1505 1506
5124 1 1507 1505 1515
5125 17 2785 2787 2788
5126 1 2785 2787 2789
5127 17 2789 2787 2788
5128 2 2787 2789 2790
5129 1 2787 2789 2791
5130 2 2791 2789 2790
5131 2 2787 2785 2786
5132 2 2795 2785 2786
5133 1 2787 2785 2795
5134 2 2789 2791 2792
5135 1 2789 2791 2793
5136 2 2793 2791 2792
5137 1 2785 2795 2793
5138 2 2785 2795 2796
5139 2 2793 2795 2796
5140 18 1507 1508 1517
5141 19 1507 1508 1518
5142 6 1517 1508 1518
5143 2 2791 2793 2794
5144 1 2791 2793 2795
5145 2 2795 2793 2794
5146 17 1505 1507 1508
5147 1 1505 1507 1509
5148 17 1509 1507 1508
5149 7 2799 2798 2788
5150 7 2800 2798 2788
5151 8 2799 2798 2800
5152 18 2787 2788 2797
5153 19 2787 2788 2798
5154 6 2797 2788 2798
5155 2 435 433 434
5156 2 443 433 434
5157 1 435 433 443
5158 17 433 435 436
5159 1 433 435 437
5160 17 437 435 436
5161 7 1519 1518 1508
5162 7 1520 1518 1508
5163 8 1519 1518 1520
5164 7 447 446 436
5165 7 448 446 436
5166 8 447 446 448
5167 18 435 436 445
5168 19 435 436 446
5169 6 445 436 446
5170 7 591 590 580
5171 7 592 590 580
5172 8 591 590 592
5173 18 771 772 781
5174 19 771 772 782
5175 6 781 772 782
5176 18 579 580 589
5177 19 579 580 590
5178 6 589 580 590
5179 2 3107 3105 3106
5180 2 3115 3105 3106
5181 1 3107 3105 3115
5182 18 3107 3108 3117
5183 19 3107 3108 3118
5184 6 3117 3108 3118
5185 7 3119 3118 3108
5186 7 3120 3118 3108
5187 8 3119 3118 3120
5188 7 1487 1486 1476
5189 7 1488 1486 1476
5190 8 1487 1486 1488
5191 2 3107 3109 3110
5192 1 3107 3109 3111
5193 2 3111 3109 3110
5194 17 3105 3107 3108
5195 1 3105 3107 3109
5196 17 3109 3107 3108
5197 18 1475 1476 1485
5198 19 1475 1476 1486
5199 6 1485 1476 1486
5200 17 1473 1475 1476
5201 1 1473 1475 1477
5202 17 1477 1475 1476
5203 17 2737 2739 2740
5204 1 2737 2739 2741
5205 17 2741 2739 2740
5206 1 2737 2747 2745
5207 2 2737 2747 2748
5208 2 2745 2747 2748
5209 2 771 769 770
5210 2 779 769 770
5211 1 771 769 779
5212 17 769 771 772
5213 1 769 771 773
5214 17 773 771 772
5215 18 2739 2740 2749
5216 19 2739 2740 2750
5217 6 2749 2740 2750
5218 7 2751 2750 2740
5219 7 2752 2750 2740
5220 8 2751 2750 2752
5221 2 2739 2737 2738
5222 2 2747 2737 2738
5223 1 2739 2737 2747
5224 2 771 773 774
5225 1 771 773 775
5226 2 775 773 774
5227 7 783 782 772
5228 7 784 782 772
5229 8 783 782 784
5230 2 1477 1479 1480
5231 1 1477 1479 1481
5232 2 1481 1479 1480
5233 2 1475 1473 1474
5234 2 1483 1473 1474
5235 1 1475 1473 1483
5236 2 1475 1477 1478
5237 1 1475 1477 1479
5238 2 1479 1477 1478
5239 1 3105 3115 3113
5240 2 3105 3115 3116
5241 2 3113 3115 3116
5242 2 3111 3113 3114
5243 1 3111 3113 3115
5244 2 3115 3113 3114
5245 2 3239 3241 3242
5246 1 3239 3241 3243
5247 2 3243 3241 3242
5248 2 339 341 342
5249 1 339 341 343
5250 2 343 341 342
5251 7 351 350 340
5252 7 352 350 340
5253 8 351 350 352
5254 18 339 340 349
5255 19 339 340 350
5256 6 349 340 350
5257 2 3109 3111 3112
5258 1 3109 3111 3113
5259 2 3113 3111 3112
5260 17 337 339 340
5261 1 337 339 341
5262 17 341 339 340
5263 2 341 343 344
5264 1 341 343 345
5265 2 345 343 344
5266 2 2519 2521 2522
5267 1 2519 2521 2523
5268 2 2523 2521 2522
5269 1 2513 2523 2521
5270 2 2513 2523 2524
5271 2 2521 2523 2524
5272 2 3237 3239 3240
5273 1 3237 3239 3241
5274 2 3241 3239 3240
5275 2 3235 3237 3238
5276 1 3235 3237 3239
5277 2 3239 3237 3238
5278 2 1479 1481 1482
5279 1 1479 1481 1483
5280 2 1483 1481 1482
5281 1 1473 1483 1481
5282 2 1473 1483 1484
5283 2 1481 1483 1484
5284 7 3247 3246 3236
5285 7 3248 3246 3236
5286 8 3247 3246 3248
5287 1 625 635 633
5288 2 625 635 636
5289 2 633 635 636
5290 2 627 625 626
5291 2 635 625 626
5292 1 627 625 635
5293 2 631 633 634
5294 1 631 633 635
5295 2 635 633 634
5296 2 629 631 632
5297 1 629 631 633
5298 2 633 631 632
5299 2 627 629 630
5300 1 627 629 631
5301 2 631 629 630
5302 17 625 627 628
5303 1 625 627 629
5304 17 629 627 628
5305 2 2515 2513 2514
5306 2 2523 2513 2514
5307 1 2515 2513 2523
5308 17 2513 2515 2516
5309 1 2513 2515 2517
5310 17 2517 2515 2516
5311 18 627 628 637
5312 19 627 628 638
5313 6 637 628 638
5314 7 1215 1214 1204
5315 7 1216 1214 1204
5316 8 1215 1214 1216
5317 1 1697 1707 1705
5318 2 1697 1707 1708
5319 2 1705 1707 1708
5320 2 1699 1701 1702
5321 1 1699 1701 1703
5322 2 1703 1701 1702
5323 2 1701 1703 1704
5324 1 1701 1703 1705
5325 2 1705 1703 1704
5326 2 339 337 338
5327 2 347 337 338
5328 1 339 337 347
5329 1 337 347 345
5330 2 337 347 348
5331 2 345 347 348
5332 2 343 345 346
5333 1 343 345 347
5334 2 347 345 346
5335 2 963 965 966
5336 1 963 965 967
5337 2 967 965 966
5338 2 1703 1705 1706
5339 1 1703 1705 1707
5340 2 1707 1705 1706
5341 7 1407 1406 1396
5342 7 1408 1406 1396
5343 8 1407 1406 1408
5344 2 2517 2519 2520
5345 1 2517 2519 2521
5346 2 2521 2519 2520
5347 7 639 638 628
5348 7 640 638 628
5349 8 639 638 640
5350 1 1393 1403 1401
5351 2 1393 1403 1404
5352 2 1401 1403 1404
5353 17 1393 1395 1396
5354 1 1393 1395 1397
5355 17 1397 1395 1396
5356 18 963 964 973
5357 19 963 964 974
5358 6 973 964 974
5359 7 975 974 964
5360 7 976 974 964
5361 8 975 974 976
5362 2 1395 1393 1394
5363 2 1403 1393 1394
5364 1 1395 1393 1403
5365 18 2515 2516 2525
5366 19 2515 2516 2526
5367 6 2525 2516 2526
5368 7 2527 2526 2516
5369 7 2528 2526 2516
5370 8 2527 2526 2528
5371 2 2515 2517 2518
5372 1 2515 2517 2519
5373 2 2519 2517 2518
5374 18 1395 1396 1405
5375 19 1395 1396 1406
5376 6 1405 1396 1406

Dihedrals

1 3 1993 1991 1989 1990
2 3 1989 1991 1993 1994
3 1 1989 1991 1993 1995
4 5 1992 1991 1993 1994
5 20 1990 1989 1987 1988
6 21 1991 1989 1987 1988
7 3 1987 1989 1991 1992
8 1 1987 1989 1991 1993
9 5 1990 1989 1991 1992
10 3 1989 1987 1985 1986
11 6 1985 1987 1988 1997
12 7 1985 1987 1988 1998
13 6 1989 1987 1988 1997
14 7 1989 1987 1988 1998
15 3 1985 1987 1989 1990
16 1 1985 1987 1989 1991
17 20 2838 2837 2835 2836
18 21 2839 2837 2835 2836
19 3 2835 2837 2839 2840
20 1 2835 2837 2839 2841
21 5 2838 2837 2839 2840
22 3 2841 2839 2837 2838
23 3 2837 2839 2841 2842
24 1 2837 2839 2841 2843
25 5 2840 2839 2841 2842
26 8 1987 1988 1998 1999
27 8 1987 1988 1998 2000
28 9 1997 1988 1998 1999
29 9 1997 1988 1998 2000
30 3 2837 2835 2833 2834
31 6 2833 2835 2836 2845
32 7 2833 2835 2836 2846
33 6 2837 2835 2836 2845
34 7 2837 2835 2836 2846
35 3 2833 2835 2837 2838
36 1 2833 2835 2837 2839
37 20 2834 2833 2835 2836
38 21 2843 2833 2835 2836
39 1 2843 2833 2835 2837
40 5 2834 2833 2843 2844
41 1 2835 2833 2843 2841
42 3 2835 2833 2843 2844
43 3 3253 3251 3249 3250
44 6 3249 3251 3252 3261
45 7 3249 3251 3252 3262
46 6 3253 3251 3252 3261
47 7 3253 3251 3252 3262
48 3 3249 3251 3253 3254
49 1 3249 3251 3253 3255
50 20 3250 3249 3251 3252
51 21 3259 3249 3251 3252
52 1 3259 3249 3251 3253
53 5 3250 3249 3259 3260
54 1 3251 3249 3259 3257
55 3 3251 3249 3259 3260
56 3 3257 3259 3249 3250
57 3 3249 3259 3257 3258
58 3 3259 3257 3255 3256
59 1 3255 3257 3259 3249
60 3 3255 3257 3259 3260
61 5 3258 3257 3259 3260
62 20 3254 3253 3251 3252
63 21 3255 3253 3251 3252
64 3 3251 3253 3255 3256
65 1 3251 3253 3255 3257
66 5 3254 3253 3255 3256
67 3 3257 3255 3253 3254
68 3 3253 3255 3257 3258
69 1 3253 3255 3257 3259
70 5 3256 3255 3257 3258
71 3 2841 2843 2833 2834
72 3 2833 2843 2841 2842
73 3 2843 2841 2839 2840
74 1 2839 2841 2843 2833
75 3 2839 2841 2843 2844
76 5 2842 2841 2843 2844
77 3 1209 1207 1205 1206
78 3 1205 1207 1209 1210
79 1 1205 1207 1209 1211
80 5 1208 1207 1209 1210
81 3 1995 1993 1991 1992
82 1 1991 1993 1995 1985
83 3 1991 1993 1995 1996
84 5 1994 1993 1995 1996
85 3 1993 1995 1985 1986
86 3 1985 1995 1993 1994
87 20 1986 1985 1987 1988
88 21 1995 1985 1987 1988
89 1 1995 1985 1987 1989
90 5 1986 1985 1995 1996
91 1 1987 1985 1995 1993
92 3 1987 1985 1995 1996
93 20 1590 1589 1587 1588
94 21 1591 1589 1587 1588
95 3 1587 1589 1591 1592
96 1 1587 1589 1591 1593
97 5 1590 1589 1591 1592
98 3 1595 1593 1591 1592
99 1 1591 1593 1595 1585
100 3 1591 1593 1595 1596
101 5 1594 1593 1595 1596
102 3 1593 1591 1589 1590
103 3 1589 1591 1593 1594
104 1 1589 1591 1593 1595
105 5 1592 1591 1593 1594
106 3 1593 1595 1585 1586
107 3 1585 1595 1593 1594
108 20 1586 1585 1587 1588
109 21 1595 1585 1587 1588
110 1 1595 1585 1587 1589
111 5 1586 1585 1595 1596
112 1 1587 1585 1595 1593
113 3 1587 1585 1595 1596
114 3 1589 1587 1585 1586
115 6 1585 1587 1588 1597
116 7 1585 1587 1588 1598
117 6 1589 1587 1588 1597
118 7 1589 1587 1588 1598
119 3 1585 1587 1589 1590
120 1 1585 1587 1589 1591
121 3 667 665 663 664
122 1 663 665 667 657
123 3 663 665 667 668
124 5 666 665 667 668
125 8 3251 3252 3262 3263
126 8 3251 3252 3262 3264
127 9 3261 3252 3262 3263
128 9 3261 3252 3262 3264
129 20 662 661 659 660
130 21 663 661 659 660
131 3 659 661 663 664
132 1 659 661 663 665
133 5 662 661 663 664
134 8 659 660 670 671
135 8 659 660 670 672
136 9 669 660 670 671
137 9 669 660 670 672
138 3 661 659 657 658
139 6 657 659 660 669
140 7 657 659 660 670
141 6 661 659 660 669
142 7 661 659 660 670
143 3 657 659 661 662
144 1 657 659 661 663
145 20 658 657 659 660
146 21 667 657 659 660
147 1 667 657 659 661
148 5 658 657 667 668
149 1 659 657 667 665
150 3 659 657 667 668
151 3 665 667 657 658
152 3 657 667 665 666
153 8 1091 1092 1102 1103
154 8 1091 1092 1102 1104
155 9 1101 1092 1102 1103
156 9 1101 1092 1102 1104
157 3 2585 2583 2581 2582
158 3 2581 2583 2585 2586
159 1 2581 2583 2585 2587
160 5 2584 2583 2585 2586
161 20 2582 2581 2579 2580
162 21 2583 2581 2579 2580
163 3 2579 2581 2583 2584
164 1 2579 2581 2583 2585
165 5 2582 2581 2583 2584
166 3 3177 3175 3173 3174
167 3 3173 3175 3177 3178
168 1 3173 3175 3177 3179
169 5 3176 3175 3177 3178
170 3 3179 3177 3175 3176
171 1 3175 3177 3179 3169
172 3 3175 3177 3179 3180
173 5 3178 3177 3179 3180
174 3 3177 3179 3169 3170
175 3 3169 3179 3177 3178
176 3 2587 2585 2583 2584
177 1 2583 2585 2587 2577
178 3 2583 2585 2587 2588
179 5 2586 2585 2587 2588
180 3 2585 2587 2577 2578
181 3 2577 2587 2585 2586
182 20 3298 3297 3299 3300
183 21 3307 3297 3299 3300
184 1 3307 3297 3299 3301
185 5 3298 3297 3307 3308
186 1 3299 3297 3307 3305
187 3 3299 3297 3307 3308
188 3 1369 1371 1361 1362
189 3 1361 1371 1369 1370
190 8 2579 2580 2590 2591
191 8 2579 2580 2590 2592
192 9 2589 2580 2590 2591
193 9 2589 2580 2590 2592
194 3 2581 2579 2577 2578
195 6 2577 2579 2580 2589
196 7 2577 2579 2580 2590
197 6 2581 2579 2580 2589
198 7 2581 2579 2580 2590
199 3 2577 2579 2581 2582
200 1 2577 2579 2581 2583
201 20 3174 3173 3171 3172
202 21 3175 3173 3171 3172
203 3 3171 3173 3175 3176
204 1 3171 3173 3175 3177
205 5 3174 3173 3175 3176
206 3 3173 3171 3169 3170
207 6 3169 3171 3172 3181
208 7 3169 3171 3172 3182
209 6 3173 3171 3172 3181
210 7 3173 3171 3172 3182
211 3 3169 3171 3173 3174
212 1 3169 3171 3173 3175
213 20 3170 3169 3171 3172
214 21 3179 3169 3171 3172
215 1 3179 3169 3171 3173
216 5 3170 3169 3179 3180
217 1 3171 3169 3179 3177
218 3 3171 3169 3179 3180
219 20 242 241 243 244
220 21 251 241 243 244
221 1 251 241 243 245
222 5 242 241 251 252
223 1 243 241 251 249
224 3 243 241 251 252
225 3 249 251 241 242
226 3 241 251 249 250
227 20 2578 2577 2579 2580
228 21 2587 2577 2579 2580
229 1 2587 2577 2579 2581
230 5 2578 2577 2587 2588
231 1 2579 2577 2587 2585
232 3 2579 2577 2587 2588
233 8 3171 3172 3182 3183
234 8 3171 3172 3182 3184
235 9 3181 3172 3182 3183
236 9 3181 3172 3182 3184
237 20 1362 1361 1363 1364
238 21 1371 1361 1363 1364
239 1 1371 1361 1363 1365
240 5 1362 1361 1371 1372
241 1 1363 1361 1371 1369
242 3 1363 1361 1371 1372
243 3 869 867 865 866
244 6 865 867 868 877
245 7 865 867 868 878
246 6 869 867 868 877
247 7 869 867 868 878
248 3 865 867 869 870
249 1 865 867 869 871
250 8 867 868 878 879
251 8 867 868 878 880
252 9 877 868 878 879
253 9 877 868 878 880
254 20 866 865 867 868
255 21 875 865 867 868
256 1 875 865 867 869
257 5 866 865 875 876
258 1 867 865 875 873
259 3 867 865 875 876
260 20 2770 2769 2771 2772
261 21 2779 2769 2771 2772
262 1 2779 2769 2771 2773
263 5 2770 2769 2779 2780
264 1 2771 2769 2779 2777
265 3 2771 2769 2779 2780
266 3 2777 2779 2769 2770
267 3 2769 2779 2777 2778
268 3 873 871 869 870
269 3 869 871 873 874
270 1 869 871 873 875
271 5 872 871 873 874
272 20 870 869 867 868
273 21 871 869 867 868
274 3 867 869 871 872
275 1 867 869 871 873
276 5 870 869 871 872
277 3 873 875 865 866
278 3 865 875 873 874
279 3 875 873 871 872
280 1 871 873 875 865
281 3 871 873 875 876
282 5 874 873 875 876
283 3 245 243 241 242
284 6 241 243 244 253
285 7 241 243 244 254
286 6 245 243 244 253
287 7 245 243 244 254
288 3 241 243 245 246
289 1 241 243 245 247
290 8 243 244 254 255
291 8 243 244 254 256
292 9 253 244 254 255
293 9 253 244 254 256
294 3 251 249 247 248
295 1 247 249 251 241
296 3 247 249 251 252
297 5 250 249 251 252
298 20 246 245 243 244
299 21 247 245 243 244
300 3 243 245 247 248
301 1 243 245 247 249
302 5 246 245 247 248
303 3 249 247 245 246
304 3 245 247 249 250
305 1 245 247 249 251
306 5 248 247 249 250
307 3 1113 1111 1109 1110
308 3 1109 1111 1113 1114
309 1 1109 1111 1113 1115
310 5 1112 1111 1113 1114
311 20 1110 1109 1107 1108
312 21 1111 1109 1107 1108
313 3 1107 1109 1111 1112
314 1 1107 1109 1111 1113
315 5 1110 1109 1111 1112
316 8 1443 1444 1454 1455
317 8 1443 1444 1454 1456
318 9 1453 1444 1454 1455
319 9 1453 1444 1454 1456
320 20 1442 1441 1443 1444
321 21 1451 1441 1443 1444
322 1 1451 1441 1443 1445
323 5 1442 1441 1451 1452
324 1 1443 1441 1451 1449
325 3 1443 1441 1451 1452
326 3 3033 3035 3025 3026
327 3 3025 3035 3033 3034
328 3 2779 2777 2775 2776
329 1 2775 2777 2779 2769
330 3 2775 2777 2779 2780
331 5 2778 2777 2779 2780
332 3 1445 1443 1441 1442
333 6 1441 1443 1444 1453
334 7 1441 1443 1444 1454
335 6 1445 1443 1444 1453
336 7 1445 1443 1444 1454
337 3 1441 1443 1445 1446
338 1 1441 1443 1445 1447
339 3 1547 1545 1543 1544
340 1 1543 1545 1547 1537
341 3 1543 1545 1547 1548
342 5 1546 1545 1547 1548
343 3 2777 2775 2773 2774
344 3 2773 2775 2777 2778
345 1 2773 2775 2777 2779
346 5 2776 2775 2777 2778
347 20 1106 1105 1107 1108
348 21 1115 1105 1107 1108
349 1 1115 1105 1107 1109
350 5 1106 1105 1115 1116
351 1 1107 1105 1115 1113
352 3 1107 1105 1115 1116
353 8 1107 1108 1118 1119
354 8 1107 1108 1118 1120
355 9 1117 1108 1118 1119
356 9 1117 1108 1118 1120
357 3 1109 1107 1105 1106
358 6 1105 1107 1108 1117
359 7 1105 1107 1108 1118
360 6 1109 1107 1108 1117
361 7 1109 1107 1108 1118
362 3 1105 1107 1109 1110
363 1 1105 1107 1109 1111
364 3 1113 1115 1105 1106
365 3 1105 1115 1113 1114
366 3 1449 1451 1441 1442
367 3 1441 1451 1449 1450
368 3 1451 1449 1447 1448
369 1 1447 1449 1451 1441
370 3 1447 1449 1451 1452
371 5 1450 1449 1451 1452
372 3 1545 1543 1541 1542
373 3 1541 1543 1545 1546
374 1 1541 1543 1545 1547
375 5 1544 1543 1545 1546
376 20 1542 1541 1539 1540
377 21 1543 1541 1539 1540
378 3 1539 1541 1543 1544
379 1 1539 1541 1543 1545
380 5 1542 1541 1543 1544
381 3 3035 3033 3031 3032
382 1 3031 3033 3035 3025
383 3 3031 3033 3035 3036
384 5 3034 3033 3035 3036
385 20 3026 3025 3027 3028
386 21 3035 3025 3027 3028
387 1 3035 3025 3027 3029
388 5 3026 3025 3035 3036
389 1 3027 3025 3035 3033
390 3 3027 3025 3035 3036
391 20 3030 3029 3027 3028
392 21 3031 3029 3027 3028
393 3 3027 3029 3031 3032
394 1 3027 3029 3031 3033
395 5 3030 3029 3031 3032
396 3 3033 3031 3029 3030
397 3 3029 3031 3033 3034
398 1 3029 3031 3033 3035
399 5 3032 3031 3033 3034
400 8 3027 3028 3038 3039
401 8 3027 3028 3038 3040
402 9 3037 3028 3038 3039
403 9 3037 3028 3038 3040
404 3 3029 3027 3025 3026
405 6 3025 3027 3028 3037
406 7 3025 3027 3028 3038
407 6 3029 3027 3028 3037
408 7 3029 3027 3028 3038
409 3 3025 3027 3029 3030
410 1 3025 3027 3029 3031
411 3 585 583 581 582
412 3 581 583 585 586
413 1 581 583 585 587
414 5 584 583 585 586
415 20 582 581 579 580
416 21 583 581 579 580
417 3 579 581 583 584
418 1 579 581 583 585
419 5 582 581 583 584
420 3 585 587 577 578
421 3 577 587 585 586
422 3 587 585 583 584
423 1 583 585 587 577
424 3 583 585 587 588
425 5 586 585 587 588
426 20 578 577 579 580
427 21 587 577 579 580
428 1 587 577 579 581
429 5 578 577 587 588
430 1 579 577 587 585
431 3 579 577 587 588
432 3 581 579 577 578
433 6 577 579 580 589
434 7 577 579 580 590
435 6 581 579 580 589
436 7 581 579 580 590
437 3 577 579 581 582
438 1 577 579 581 583
439 8 2435 2436 2446 2447
440 8 2435 2436 2446 2448
441 9 2445 2436 2446 2447
442 9 2445 2436 2446 2448
443 3 1033 1035 1025 1026
444 3 1025 1035 1033 1034
445 20 1026 1025 1027 1028
446 21 1035 1025 1027 1028
447 1 1035 1025 1027 1029
448 5 1026 1025 1035 1036
449 1 1027 1025 1035 1033
450 3 1027 1025 1035 1036
451 20 1030 1029 1027 1028
452 21 1031 1029 1027 1028
453 3 1027 1029 1031 1032
454 1 1027 1029 1031 1033
455 5 1030 1029 1031 1032
456 3 1033 1031 1029 1030
457 3 1029 1031 1033 1034
458 1 1029 1031 1033 1035
459 5 1032 1031 1033 1034
460 3 1035 1033 1031 1032
461 1 1031 1033 1035 1025
462 3 1031 1033 1035 1036
463 5 1034 1033 1035 1036
464 3 1029 1027 1025 1026
465 6 1025 1027 1028 1037
466 7 1025 1027 1028 1038
467 6 1029 1027 1028 1037
468 7 1029 1027 1028 1038
469 3 1025 1027 1029 1030
470 1 1025 1027 1029 1031
471 8 1027 1028 1038 1039
472 8 1027 1028 1038 1040
473 9 1037 1028 1038 1039
474 9 1037 1028 1038 1040
475 8 1763 1764 1774 1775
476 8 1763 1764 1774 1776
477 9 1773 1764 1774 1775
478 9 1773 1764 1774 1776
479 20 1138 1137 1139 1140
480 21 1147 1137 1139 1140
481 1 1147 1137 1139 1141
482 5 1138 1137 1147 1148
483 1 1139 1137 1147 1145
484 3 1139 1137 1147 1148
485 3 1141 1139 1137 1138
486 6 1137 1139 1140 1149
487 7 1137 1139 1140 1150
488 6 1141 1139 1140 1149
489 7 1141 1139 1140 1150
490 3 1137 1139 1141 1142
491 1 1137 1139 1141 1143
492 20 1142 1141 1139 1140
493 21 1143 1141 1139 1140
494 3 1139 1141 1143 1144
495 1 1139 1141 1143 1145
496 5 1142 1141 1143 1144
497 3 1145 1147 1137 1138
498 3 1137 1147 1145 1146
499 3 1147 1145 1143 1144
500 1 1143 1145 1147 1137
501 3 1143 1145 1147 1148
502 5 1146 1145 1147 1148
503 3 1145 1143 1141 1142
504 3 1141 1143 1145 1146
505 1 1141 1143 1145 1147
506 5 1144 1143 1145 1146
507 8 1139 1140 1150 1151
508 8 1139 1140 1150 1152
509 9 1149 1140 1150 1151
510 9 1149 1140 1150 1152
511 20 2742 2741 2739 2740
512 21 2743 2741 2739 2740
513 3 2739 2741 2743 2744
514 1 2739 2741 2743 2745
515 5 2742 2741 2743 2744
516 20 2802 2801 2803 2804
517 21 2811 2801 2803 2804
518 1 2811 2801 2803 2805
519 5 2802 2801 2811 2812
520 1 2803 2801 2811 2809
521 3 2803 2801 2811 2812
522 3 2809 2807 2805 2806
523 3 2805 2807 2809 2810
524 1 2805 2807 2809 2811
525 5 2808 2807 2809 2810
526 3 2811 2809 2807 2808
527 1 2807 2809 2811 2801
528 3 2807 2809 2811 2812
529 5 2810 2809 2811 2812
530 3 2809 2811 2801 2802
531 3 2801 2811 2809 2810
532 8 2003 2004 2014 2015
533 8 2003 2004 2014 2016
534 9 2013 2004 2014 2015
535 9 2013 2004 2014 2016
536 3 2745 2743 2741 2742
537 3 2741 2743 2745 2746
538 1 2741 2743 2745 2747
539 5 2744 2743 2745 2746
540 3 2747 2745 2743 2744
541 1 2743 2745 2747 2737
542 3 2743 2745 2747 2748
543 5 2746 2745 2747 2748
544 20 2002 2001 2003 2004
545 21 2011 2001 2003 2004
546 1 2011 2001 2003 2005
547 5 2002 2001 2011 2012
548 1 2003 2001 2011 2009
549 3 2003 2001 2011 2012
550 3 2005 2003 2001 2002
551 6 2001 2003 2004 2013
552 7 2001 2003 2004 2014
553 6 2005 2003 2004 2013
554 7 2005 2003 2004 2014
555 3 2001 2003 2005 2006
556 1 2001 2003 2005 2007
557 8 1907 1908 1918 1919
558 8 1907 1908 1918 1920
559 9 1917 1908 1918 1919
560 9 1917 1908 1918 1920
561 3 1909 1907 1905 1906
562 6 1905 1907 1908 1917
563 7 1905 1907 1908 1918
564 6 1909 1907 1908 1917
565 7 1909 1907 1908 1918
566 3 1905 1907 1909 1910
567 1 1905 1907 1909 1911
568 20 2530 2529 2531 2532
569 21 2539 2529 2531 2532
570 1 2539 2529 2531 2533
571 5 2530 2529 2539 2540
572 1 2531 2529 2539 2537
573 3 2531 2529 2539 2540
574 20 1910 1909 1907 1908
575 21 1911 1909 1907 1908
576 3 1907 1909 1911 1912
577 1 1907 1909 1911 1913
578 5 1910 1909 1911 1912
579 3 2537 2539 2529 2530
580 3 2529 2539 2537 2538
581 20 1906 1905 1907 1908
582 21 1915 1905 1907 1908
583 1 1915 1905 1907 1909
584 5 1906 1905 1915 1916
585 1 1907 1905 1915 1913
586 3 1907 1905 1915 1916
587 3 1915 1913 1911 1912
588 1 1911 1913 1915 1905
589 3 1911 1913 1915 1916
590 5 1914 1913 1915 1916
591 3 1913 1915 1905 1906
592 3 1905 1915 1913 1914
593 3 1913 1911 1909 1910
594 3 1909 1911 1913 1914
595 1 1909 1911 1913 1915
596 5 1912 1911 1913 1914
597 3 2539 2537 2535 2536
598 1 2535 2537 2539 2529
599 3 2535 2537 2539 2540
600 5 2538 2537 2539 2540
601 3 2533 2531 2529 2530
602 6 2529 2531 2532 2541
603 7 2529 2531 2532 2542
604 6 2533 2531 2532 2541
605 7 2533 2531 2532 2542
606 3 2529 2531 2533 2534
607 1 2529 2531 2533 2535
608 20 2534 2533 2531 2532
609 21 2535 2533 2531 2532
610 3 2531 2533 2535 2536
611 1 2531 2533 2535 2537
612 5 2534 2533 2535 2536
613 3 2537 2535 2533 2534
614 3 2533 2535 2537 2538
615 1 2533 2535 2537 2539
616 5 2536 2535 2537 2538
617 8 2531 2532 2542 2543
618 8 2531 2532 2542 2544
619 9 2541 2532 2542 2543
620 9 2541 2532 2542 2544
621 3 985 987 977 978
622 3 977 987 985 986
623 3 1259 1257 1255 1256
624 1 1255 1257 1259 1249
625 3 1255 1257 1259 1260
626 5 1258 1257 1259 1260
627 3 1257 1255 1253 1254
628 3 1253 1255 1257 1258
629 1 1253 1255 1257 1259
630 5 1256 1255 1257 1258
631 3 1257 1259 1249 1250
632 3 1249 1259 1257 1258
633 3 1253 1251 1249 1250
634 6 1249 1251 1252 1261
635 7 1249 1251 1252 1262
636 6 1253 1251 1252 1261
637 7 1253 1251 1252 1262
638 3 1249 1251 1253 1254
639 1 1249 1251 1253 1255
640 20 1254 1253 1251 1252
641 21 1255 1253 1251 1252
642 3 1251 1253 1255 1256
643 1 1251 1253 1255 1257
644 5 1254 1253 1255 1256
645 3 985 983 981 982
646 3 981 983 985 986
647 1 981 983 985 987
648 5 984 983 985 986
649 3 987 985 983 984
650 1 983 985 987 977
651 3 983 985 987 988
652 5 986 985 987 988
653 20 978 977 979 980
654 21 987 977 979 980
655 1 987 977 979 981
656 5 978 977 987 988
657 1 979 977 987 985
658 3 979 977 987 988
659 20 2006 2005 2003 2004
660 21 2007 2005 2003 2004
661 3 2003 2005 2007 2008
662 1 2003 2005 2007 2009
663 5 2006 2005 2007 2008
664 20 1250 1249 1251 1252
665 21 1259 1249 1251 1252
666 1 1259 1249 1251 1253
667 5 1250 1249 1259 1260
668 1 1251 1249 1259 1257
669 3 1251 1249 1259 1260
670 8 3091 3092 3102 3103
671 8 3091 3092 3102 3104
672 9 3101 3092 3102 3103
673 9 3101 3092 3102 3104
674 3 3099 3097 3095 3096
675 1 3095 3097 3099 3089
676 3 3095 3097 3099 3100
677 5 3098 3097 3099 3100
678 20 3090 3089 3091 3092
679 21 3099 3089 3091 3092
680 1 3099 3089 3091 3093
681 5 3090 3089 3099 3100
682 1 3091 3089 3099 3097
683 3 3091 3089 3099 3100
684 3 3097 3099 3089 3090
685 3 3089 3099 3097 3098
686 3 3097 3095 3093 3094
687 3 3093 3095 3097 3098
688 1 3093 3095 3097 3099
689 5 3096 3095 3097 3098
690 20 3094 3093 3091 3092
691 21 3095 3093 3091 3092
692 3 3091 3093 3095 3096
693 1 3091 3093 3095 3097
694 5 3094 3093 3095 3096
695 3 3093 3091 3089 3090
696 6 3089 3091 3092 3101
697 7 3089 3091 3092 3102
698 6 3093 3091 3092 3101
699 7 3093 3091 3092 3102
700 3 3089 3091 3093 3094
701 1 3089 3091 3093 3095
702 8 1203 1204 1214 1215
703 8 1203 1204 1214 1216
704 9 1213 1204 1214 1215
705 9 1213 1204 1214 1216
706 8 979 980 990 991
707 8 979 980 990 992
708 9 989 980 990 991
709 9 989 980 990 992
710 20 982 981 979 980
711 21 983 981 979 980
712 3 979 981 983 984
713 1 979 981 983 985
714 5 982 981 983 984
715 3 981 979 977 978
716 6 977 979 980 989
717 7 977 979 980 990
718 6 981 979 980 989
719 7 981 979 980 990
720 3 977 979 981 982
721 1 977 979 981 983
722 3 1493 1491 1489 1490
723 6 1489 1491 1492 1501
724 7 1489 1491 1492 1502
725 6 1493 1491 1492 1501
726 7 1493 1491 1492 1502
727 3 1489 1491 1493 1494
728 1 1489 1491 1493 1495
729 20 1490 1489 1491 1492
730 21 1499 1489 1491 1492
731 1 1499 1489 1491 1493
732 5 1490 1489 1499 1500
733 1 1491 1489 1499 1497
734 3 1491 1489 1499 1500
735 8 2835 2836 2846 2847
736 8 2835 2836 2846 2848
737 9 2845 2836 2846 2847
738 9 2845 2836 2846 2848
739 3 1497 1499 1489 1490
740 3 1489 1499 1497 1498
741 3 1499 1497 1495 1496
742 1 1495 1497 1499 1489
743 3 1495 1497 1499 1500
744 5 1498 1497 1499 1500
745 20 1202 1201 1203 1204
746 21 1211 1201 1203 1204
747 1 1211 1201 1203 1205
748 5 1202 1201 1211 1212
749 1 1203 1201 1211 1209
750 3 1203 1201 1211 1212
751 3 1209 1211 1201 1202
752 3 1201 1211 1209 1210
753 3 1205 1203 1201 1202
754 6 1201 1203 1204 1213
755 7 1201 1203 1204 1214
756 6 1205 1203 1204 1213
757 7 1205 1203 1204 1214
758 3 1201 1203 1205 1206
759 1 1201 1203 1205 1207
760 3 1211 1209 1207 1208
761 1 1207 1209 1211 1201
762 3 1207 1209 1211 1212
763 5 1210 1209 1211 1212
764 20 1206 1205 1203 1204
765 21 1207 1205 1203 1204
766 3 1203 1205 1207 1208
767 1 1203 1205 1207 1209
768 5 1206 1205 1207 1208
769 8 1587 1588 1598 1599
770 8 1587 1588 1598 1600
771 9 1597 1588 1598 1599
772 9 1597 1588 1598 1600
773 20 2630 2629 2627 2628
774 21 2631 2629 2627 2628
775 3 2627 2629 2631 2632
776 1 2627 2629 2631 2633
777 5 2630 2629 2631 2632
778 20 2626 2625 2627 2628
779 21 2635 2625 2627 2628
780 1 2635 2625 2627 2629
781 5 2626 2625 2635 2636
782 1 2627 2625 2635 2633
783 3 2627 2625 2635 2636
784 3 2629 2627 2625 2626
785 6 2625 2627 2628 2637
786 7 2625 2627 2628 2638
787 6 2629 2627 2628 2637
788 7 2629 2627 2628 2638
789 3 2625 2627 2629 2630
790 1 2625 2627 2629 2631
791 8 2627 2628 2638 2639
792 8 2627 2628 2638 2640
793 9 2637 2628 2638 2639
794 9 2637 2628 2638 2640
795 3 2325 2323 2321 2322
796 6 2321 2323 2324 2333
797 7 2321 2323 2324 2334
798 6 2325 2323 2324 2333
799 7 2325 2323 2324 2334
800 3 2321 2323 2325 2326
801 1 2321 2323 2325 2327
802 8 2323 2324 2334 2335
803 8 2323 2324 2334 2336
804 9 2333 2324 2334 2335
805 9 2333 2324 2334 2336
806 20 2322 2321 2323 2324
807 21 2331 2321 2323 2324
808 1 2331 2321 2323 2325
809 5 2322 2321 2331 2332
810 1 2323 2321 2331 2329
811 3 2323 2321 2331 2332
812 3 2329 2331 2321 2322
813 3 2321 2331 2329 2330
814 20 2326 2325 2323 2324
815 21 2327 2325 2323 2324
816 3 2323 2325 2327 2328
817 1 2323 2325 2327 2329
818 5 2326 2325 2327 2328
819 3 2329 2327 2325 2326
820 3 2325 2327 2329 2330
821 1 2325 2327 2329 2331
822 5 2328 2327 2329 2330
823 3 2331 2329 2327 2328
824 1 2327 2329 2331 2321
825 3 2327 2329 2331 2332
826 5 2330 2329 2331 2332
827 8 3059 3060 3070 3071
828 8 3059 3060 3070 3072
829 9 3069 3060 3070 3071
830 9 3069 3060 3070 3072
831 3 3061 3059 3057 3058
832 6 3057 3059 3060 3069
833 7 3057 3059 3060 3070
834 6 3061 3059 3060 3069
835 7 3061 3059 3060 3070
836 3 3057 3059 3061 3062
837 1 3057 3059 3061 3063
838 20 3058 3057 3059 3060
839 21 3067 3057 3059 3060
840 1 3067 3057 3059 3061
841 5 3058 3057 3067 3068
842 1 3059 3057 3067 3065
843 3 3059 3057 3067 3068
844 8 1123 1124 1134 1135
845 8 1123 1124 1134 1136
846 9 1133 1124 1134 1135
847 9 1133 1124 1134 1136
848 3 1125 1123 1121 1122
849 6 1121 1123 1124 1133
850 7 1121 1123 1124 1134
851 6 1125 1123 1124 1133
852 7 1125 1123 1124 1134
853 3 1121 1123 1125 1126
854 1 1121 1123 1125 1127
855 20 1126 1125 1123 1124
856 21 1127 1125 1123 1124
857 3 1123 1125 1127 1128
858 1 1123 1125 1127 1129
859 5 1126 1125 1127 1128
860 20 1122 1121 1123 1124
861 21 1131 1121 1123 1124
862 1 1131 1121 1123 1125
863 5 1122 1121 1131 1132
864 1 1123 1121 1131 1129
865 3 1123 1121 1131 1132
866 3 1129 1127 1125 1126
867 3 1125 1127 1129 1130
868 1 1125 1127 1129 1131
869 5 1128 1127 1129 1130
870 3 1129 1131 1121 1122
871 3 1121 1131 1129 1130
872 3 1131 1129 1127 1128
873 1 1127 1129 1131 1121
874 3 1127 1129 1131 1132
875 5 1130 1129 1131 1132
876 3 665 663 661 662
877 3 661 663 665 666
878 1 661 663 665 667
879 5 664 663 665 666
880 3 681 683 673 674
881 3 673 683 681 682
882 3 681 679 677 678
883 3 677 679 681 682
884 1 677 679 681 683
885 5 680 679 681 682
886 3 683 681 679 680
887 1 679 681 683 673
888 3 679 681 683 684
889 5 682 681 683 684
890 20 678 677 675 676
891 21 679 677 675 676
892 3 675 677 679 680
893 1 675 677 679 681
894 5 678 677 679 680
895 3 565 563 561 562
896 6 561 563 564 573
897 7 561 563 564 574
898 6 565 563 564 573
899 7 565 563 564 574
900 3 561 563 565 566
901 1 561 563 565 567
902 20 566 565 563 564
903 21 567 565 563 564
904 3 563 565 567 568
905 1 563 565 567 569
906 5 566 565 567 568
907 3 569 567 565 566
908 3 565 567 569 570
909 1 565 567 569 571
910 5 568 567 569 570
911 3 569 571 561 562
912 3 561 571 569 570
913 3 571 569 567 568
914 1 567 569 571 561
915 3 567 569 571 572
916 5 570 569 571 572
917 20 562 561 563 564
918 21 571 561 563 564
919 1 571 561 563 565
920 5 562 561 571 572
921 1 563 561 571 569
922 3 563 561 571 572
923 8 563 564 574 575
924 8 563 564 574 576
925 9 573 564 574 575
926 9 573 564 574 576
927 3 1051 1049 1047 1048
928 1 1047 1049 1051 1041
929 3 1047 1049 1051 1052
930 5 1050 1049 1051 1052
931 3 1049 1047 1045 1046
932 3 1045 1047 1049 1050
933 1 1045 1047 1049 1051
934 5 1048 1047 1049 1050
935 3 1049 1051 1041 1042
936 3 1041 1051 1049 1050
937 20 1046 1045 1043 1044
938 21 1047 1045 1043 1044
939 3 1043 1045 1047 1048
940 1 1043 1045 1047 1049
941 5 1046 1045 1047 1048
942 3 1045 1043 1041 1042
943 6 1041 1043 1044 1053
944 7 1041 1043 1044 1054
945 6 1045 1043 1044 1053
946 7 1045 1043 1044 1054
947 3 1041 1043 1045 1046
948 1 1041 1043 1045 1047
949 20 1042 1041 1043 1044
950 21 1051 1041 1043 1044
951 1 1051 1041 1043 1045
952 5 1042 1041 1051 1052
953 1 1043 1041 1051 1049
954 3 1043 1041 1051 1052
955 20 674 673 675 676
956 21 683 673 675 676
957 1 683 673 675 677
958 5 674 673 683 684
959 1 675 673 683 681
960 3 675 673 683 684
961 3 677 675 673 674
962 6 673 675 676 685
963 7 673 675 676 686
964 6 677 675 676 685
965 7 677 675 676 686
966 3 673 675 677 678
967 1 673 675 677 679
968 3 1689 1691 1681 1682
969 3 1681 1691 1689 1690
970 3 1691 1689 1687 1688
971 1 1687 1689 1691 1681
972 3 1687 1689 1691 1692
973 5 1690 1689 1691 1692
974 20 1686 1685 1683 1684
975 21 1687 1685 1683 1684
976 3 1683 1685 1687 1688
977 1 1683 1685 1687 1689
978 5 1686 1685 1687 1688
979 20 1682 1681 1683 1684
980 21 1691 1681 1683 1684
981 1 1691 1681 1683 1685
982 5 1682 1681 1691 1692
983 1 1683 1681 1691 1689
984 3 1683 1681 1691 1692
985 3 1685 1683 1681 1682
986 6 1681 1683 1684 1693
987 7 1681 1683 1684 1694
988 6 1685 1683 1684 1693
989 7 1685 1683 1684 1694
990 3 1681 1683 1685 1686
991 1 1681 1683 1685 1687
992 8 1683 1684 1694 1695
993 8 1683 1684 1694 1696
994 9 1693 1684 1694 1695
995 9 1693 1684 1694 1696
996 20 2098 2097 2099 2100
997 21 2107 2097 2099 2100
998 1 2107 2097 2099 2101
999 5 2098 2097 2107 2108
1000 1 2099 2097 2107 2105
1001 3 2099 2097 2107 2108
1002 3 2105 2107 2097 2098
1003 3 2097 2107 2105 2106
1004 8 1219 1220 1230 1231
1005 8 1219 1220 1230 1232
1006 9 1229 1220 1230 1231
1007 9 1229 1220 1230 1232
1008 3 1689 1687 1685 1686
1009 3 1685 1687 1689 1690
1010 1 1685 1687 1689 1691
1011 5 1688 1687 1689 1690
1012 3 2107 2105 2103 2104
1013 1 2103 2105 2107 2097
1014 3 2103 2105 2107 2108
1015 5 2106 2105 2107 2108
1016 8 1043 1044 1054 1055
1017 8 1043 1044 1054 1056
1018 9 1053 1044 1054 1055
1019 9 1053 1044 1054 1056
1020 3 1225 1223 1221 1222
1021 3 1221 1223 1225 1226
1022 1 1221 1223 1225 1227
1023 5 1224 1223 1225 1226
1024 3 1227 1225 1223 1224
1025 1 1223 1225 1227 1217
1026 3 1223 1225 1227 1228
1027 5 1226 1225 1227 1228
1028 3 1225 1227 1217 1218
1029 3 1217 1227 1225 1226
1030 20 1222 1221 1219 1220
1031 21 1223 1221 1219 1220
1032 3 1219 1221 1223 1224
1033 1 1219 1221 1223 1225
1034 5 1222 1221 1223 1224
1035 3 1221 1219 1217 1218
1036 6 1217 1219 1220 1229
1037 7 1217 1219 1220 1230
1038 6 1221 1219 1220 1229
1039 7 1221 1219 1220 1230
1040 3 1217 1219 1221 1222
1041 1 1217 1219 1221 1223
1042 20 1218 1217 1219 1220
1043 21 1227 1217 1219 1220
1044 1 1227 1217 1219 1221
1045 5 1218 1217 1227 1228
1046 1 1219 1217 1227 1225
1047 3 1219 1217 1227 1228
1048 8 2403 2404 2414 2415
1049 8 2403 2404 2414 2416
1050 9 2413 2404 2414 2415
1051 9 2413 2404 2414 2416
1052 20 1446 1445 1443 1444
1053 21 1447 1445 1443 1444
1054 3 1443 1445 1447 1448
1055 1 1443 1445 1447 1449
1056 5 1446 1445 1447 1448
1057 20 1718 1717 1715 1716
1058 21 1719 1717 1715 1716
1059 3 1715 1717 1719 1720
1060 1 1715 1717 1719 1721
1061 5 1718 1717 1719 1720
1062 3 1717 1715 1713 1714
1063 6 1713 1715 1716 1725
1064 7 1713 1715 1716 1726
1065 6 1717 1715 1716 1725
1066 7 1717 1715 1716 1726
1067 3 1713 1715 1717 1718
1068 1 1713 1715 1717 1719
1069 8 1715 1716 1726 1727
1070 8 1715 1716 1726 1728
1071 9 1725 1716 1726 1727
1072 9 1725 1716 1726 1728
1073 3 1723 1721 1719 1720
1074 1 1719 1721 1723 1713
1075 3 1719 1721 1723 1724
1076 5 1722 1721 1723 1724
1077 3 1721 1719 1717 1718
1078 3 1717 1719 1721 1722
1079 1 1717 1719 1721 1723
1080 5 1720 1719 1721 1722
1081 20 2290 2289 2291 2292
1082 21 2299 2289 2291 2292
1083 1 2299 2289 2291 2293
1084 5 2290 2289 2299 2300
1085 1 2291 2289 2299 2297
1086 3 2291 2289 2299 2300
1087 3 2297 2299 2289 2290
1088 3 2289 2299 2297 2298
1089 8 1347 1348 1358 1359
1090 8 1347 1348 1358 1360
1091 9 1357 1348 1358 1359
1092 9 1357 1348 1358 1360
1093 3 1449 1447 1445 1446
1094 3 1445 1447 1449 1450
1095 1 1445 1447 1449 1451
1096 5 1448 1447 1449 1450
1097 3 1355 1353 1351 1352
1098 1 1351 1353 1355 1345
1099 3 1351 1353 1355 1356
1100 5 1354 1353 1355 1356
1101 3 1353 1355 1345 1346
1102 3 1345 1355 1353 1354
1103 20 1350 1349 1347 1348
1104 21 1351 1349 1347 1348
1105 3 1347 1349 1351 1352
1106 1 1347 1349 1351 1353
1107 5 1350 1349 1351 1352
1108 3 1353 1351 1349 1350
1109 3 1349 1351 1353 1354
1110 1 1349 1351 1353 1355
1111 5 1352 1351 1353 1354
1112 3 2293 2291 2289 2290
1113 6 2289 2291 2292 2301
1114 7 2289 2291 2292 2302
1115 6 2293 2291 2292 2301
1116 7 2293 2291 2292 2302
1117 3 2289 2291 2293 2294
1118 1 2289 2291 2293 2295
1119 20 2294 2293 2291 2292
1120 21 2295 2293 2291 2292
1121 3 2291 2293 2295 2296
1122 1 2291 2293 2295 2297
1123 5 2294 2293 2295 2296
1124 3 2299 2297 2295 2296
1125 1 2295 2297 2299 2289
1126 3 2295 2297 2299 2300
1127 5 2298 2297 2299 2300
1128 3 2297 2295 2293 2294
1129 3 2293 2295 2297 2298
1130 1 2293 2295 2297 2299
1131 5 2296 2295 2297 2298
1132 3 2185 2183 2181 2182
1133 3 2181 2183 2185 2186
1134 1 2181 2183 2185 2187
1135 5 2184 2183 2185 2186
1136 20 1346 1345 1347 1348
1137 21 1355 1345 1347 1348
1138 1 1355 1345 1347 1349
1139 5 1346 1345 1355 1356
1140 1 1347 1345 1355 1353
1141 3 1347 1345 1355 1356
1142 3 1349 1347 1345 1346
1143 6 1345 1347 1348 1357
1144 7 1345 1347 1348 1358
1145 6 1349 1347 1348 1357
1146 7 1349 1347 1348 1358
1147 3 1345 1347 1349 1350
1148 1 1345 1347 1349 1351
1149 20 2182 2181 2179 2180
1150 21 2183 2181 2179 2180
1151 3 2179 2181 2183 2184
1152 1 2179 2181 2183 2185
1153 5 2182 2181 2183 2184
1154 20 1714 1713 1715 1716
1155 21 1723 1713 1715 1716
1156 1 1723 1713 1715 1717
1157 5 1714 1713 1723 1724
1158 1 1715 1713 1723 1721
1159 3 1715 1713 1723 1724
1160 3 1721 1723 1713 1714
1161 3 1713 1723 1721 1722
1162 20 1766 1765 1763 1764
1163 21 1767 1765 1763 1764
1164 3 1763 1765 1767 1768
1165 1 1763 1765 1767 1769
1166 5 1766 1765 1767 1768
1167 3 1765 1763 1761 1762
1168 6 1761 1763 1764 1773
1169 7 1761 1763 1764 1774
1170 6 1765 1763 1764 1773
1171 7 1765 1763 1764 1774
1172 3 1761 1763 1765 1766
1173 1 1761 1763 1765 1767
1174 3 1771 1769 1767 1768
1175 1 1767 1769 1771 1761
1176 3 1767 1769 1771 1772
1177 5 1770 1769 1771 1772
1178 3 1769 1767 1765 1766
1179 3 1765 1767 1769 1770
1180 1 1765 1767 1769 1771
1181 5 1768 1767 1769 1770
1182 3 1769 1771 1761 1762
1183 3 1761 1771 1769 1770
1184 20 1794 1793 1795 1796
1185 21 1803 1793 1795 1796
1186 1 1803 1793 1795 1797
1187 5 1794 1793 1803 1804
1188 1 1795 1793 1803 1801
1189 3 1795 1793 1803 1804
1190 3 1801 1803 1793 1794
1191 3 1793 1803 1801 1802
1192 3 1803 1801 1799 1800
1193 1 1799 1801 1803 1793
1194 3 1799 1801 1803 1804
1195 5 1802 1801 1803 1804
1196 3 2187 2185 2183 2184
1197 1 2183 2185 2187 2177
1198 3 2183 2185 2187 2188
1199 5 2186 2185 2187 2188
1200 3 2437 2435 2433 2434
1201 6 2433 2435 2436 2445
1202 7 2433 2435 2436 2446
1203 6 2437 2435 2436 2445
1204 7 2437 2435 2436 2446
1205 3 2433 2435 2437 2438
1206 1 2433 2435 2437 2439
1207 3 2185 2187 2177 2178
1208 3 2177 2187 2185 2186
1209 3 2441 2439 2437 2438
1210 3 2437 2439 2441 2442
1211 1 2437 2439 2441 2443
1212 5 2440 2439 2441 2442
1213 20 2438 2437 2435 2436
1214 21 2439 2437 2435 2436
1215 3 2435 2437 2439 2440
1216 1 2435 2437 2439 2441
1217 5 2438 2437 2439 2440
1218 20 2178 2177 2179 2180
1219 21 2187 2177 2179 2180
1220 1 2187 2177 2179 2181
1221 5 2178 2177 2187 2188
1222 1 2179 2177 2187 2185
1223 3 2179 2177 2187 2188
1224 20 1762 1761 1763 1764
1225 21 1771 1761 1763 1764
1226 1 1771 1761 1763 1765
1227 5 1762 1761 1771 1772
1228 1 1763 1761 1771 1769
1229 3 1763 1761 1771 1772
1230 3 2377 2379 2369 2370
1231 3 2369 2379 2377 2378
1232 3 2379 2377 2375 2376
1233 1 2375 2377 2379 2369
1234 3 2375 2377 2379 2380
1235 5 2378 2377 2379 2380
1236 3 2377 2375 2373 2374
1237 3 2373 2375 2377 2378
1238 1 2373 2375 2377 2379
1239 5 2376 2375 2377 2378
1240 20 2374 2373 2371 2372
1241 21 2375 2373 2371 2372
1242 3 2371 2373 2375 2376
1243 1 2371 2373 2375 2377
1244 5 2374 2373 2375 2376
1245 8 1571 1572 1582 1583
1246 8 1571 1572 1582 1584
1247 9 1581 1572 1582 1583
1248 9 1581 1572 1582 1584
1249 20 2806 2805 2803 2804
1250 21 2807 2805 2803 2804
1251 3 2803 2805 2807 2808
1252 1 2803 2805 2807 2809
1253 5 2806 2805 2807 2808
1254 20 2434 2433 2435 2436
1255 21 2443 2433 2435 2436
1256 1 2443 2433 2435 2437
1257 5 2434 2433 2443 2444
1258 1 2435 2433 2443 2441
1259 3 2435 2433 2443 2444
1260 3 2441 2443 2433 2434
1261 3 2433 2443 2441 2442
1262 3 2443 2441 2439 2440
1263 1 2439 2441 2443 2433
1264 3 2439 2441 2443 2444
1265 5 2442 2441 2443 2444
1266 3 2805 2803 2801 2802
1267 6 2801 2803 2804 2813
1268 7 2801 2803 2804 2814
1269 6 2805 2803 2804 2813
1270 7 2805 2803 2804 2814
1271 3 2801 2803 2805 2806
1272 1 2801 2803 2805 2807
1273 8 2803 2804 2814 2815
1274 8 2803 2804 2814 2816
1275 9 2813 2804 2814 2815
1276 9 2813 2804 2814 2816
1277 3 2665 2667 2657 2658
1278 3 2657 2667 2665 2666
1279 3 2667 2665 2663 2664
1280 1 2663 2665 2667 2657
1281 3 2663 2665 2667 2668
1282 5 2666 2665 2667 2668
1283 20 2658 2657 2659 2660
1284 21 2667 2657 2659 2660
1285 1 2667 2657 2659 2661
1286 5 2658 2657 2667 2668
1287 1 2659 2657 2667 2665
1288 3 2659 2657 2667 2668
1289 3 2009 2011 2001 2002
1290 3 2001 2011 2009 2010
1291 3 2011 2009 2007 2008
1292 1 2007 2009 2011 2001
1293 3 2007 2009 2011 2012
1294 5 2010 2009 2011 2012
1295 3 2373 2371 2369 2370
1296 6 2369 2371 2372 2381
1297 7 2369 2371 2372 2382
1298 6 2373 2371 2372 2381
1299 7 2373 2371 2372 2382
1300 3 2369 2371 2373 2374
1301 1 2369 2371 2373 2375
1302 20 2370 2369 2371 2372
1303 21 2379 2369 2371 2372
1304 1 2379 2369 2371 2373
1305 5 2370 2369 2379 2380
1306 1 2371 2369 2379 2377
1307 3 2371 2369 2379 2380
1308 8 2371 2372 2382 2383
1309 8 2371 2372 2382 2384
1310 9 2381 2372 2382 2383
1311 9 2381 2372 2382 2384
1312 3 2025 2023 2021 2022
1313 3 2021 2023 2025 2026
1314 1 2021 2023 2025 2027
1315 5 2024 2023 2025 2026
1316 3 2027 2025 2023 2024
1317 1 2023 2025 2027 2017
1318 3 2023 2025 2027 2028
1319 5 2026 2025 2027 2028
1320 3 2025 2027 2017 2018
1321 3 2017 2027 2025 2026
1322 8 2019 2020 2030 2031
1323 8 2019 2020 2030 2032
1324 9 2029 2020 2030 2031
1325 9 2029 2020 2030 2032
1326 3 2021 2019 2017 2018
1327 6 2017 2019 2020 2029
1328 7 2017 2019 2020 2030
1329 6 2021 2019 2020 2029
1330 7 2021 2019 2020 2030
1331 3 2017 2019 2021 2022
1332 1 2017 2019 2021 2023
1333 20 2022 2021 2019 2020
1334 21 2023 2021 2019 2020
1335 3 2019 2021 2023 2024
1336 1 2019 2021 2023 2025
1337 5 2022 2021 2023 2024
1338 3 2009 2007 2005 2006
1339 3 2005 2007 2009 2010
1340 1 2005 2007 2009 2011
1341 5 2008 2007 2009 2010
1342 8 1251 1252 1262 1263
1343 8 1251 1252 1262 1264
1344 9 1261 1252 1262 1263
1345 9 1261 1252 1262 1264
1346 20 2018 2017 2019 2020
1347 21 2027 2017 2019 2020
1348 1 2027 2017 2019 2021
1349 5 2018 2017 2027 2028
1350 1 2019 2017 2027 2025
1351 3 2019 2017 2027 2028
1352 8 1155 1156 1166 1167
1353 8 1155 1156 1166 1168
1354 9 1165 1156 1166 1167
1355 9 1165 1156 1166 1168
1356 3 1157 1155 1153 1154
1357 6 1153 1155 1156 1165
1358 7 1153 1155 1156 1166
1359 6 1157 1155 1156 1165
1360 7 1157 1155 1156 1166
1361 3 1153 1155 1157 1158
1362 1 1153 1155 1157 1159
1363 3 1161 1163 1153 1154
1364 3 1153 1163 1161 1162
1365 20 1154 1153 1155 1156
1366 21 1163 1153 1155 1156
1367 1 1163 1153 1155 1157
1368 5 1154 1153 1163 1164
1369 1 1155 1153 1163 1161
1370 3 1155 1153 1163 1164
1371 3 2635 2633 2631 2632
1372 1 2631 2633 2635 2625
1373 3 2631 2633 2635 2636
1374 5 2634 2633 2635 2636
1375 3 2633 2631 2629 2630
1376 3 2629 2631 2633 2634
1377 1 2629 2631 2633 2635
1378 5 2632 2631 2633 2634
1379 3 2633 2635 2625 2626
1380 3 2625 2635 2633 2634
1381 8 3011 3012 3022 3023
1382 8 3011 3012 3022 3024
1383 9 3021 3012 3022 3023
1384 9 3021 3012 3022 3024
1385 20 3014 3013 3011 3012
1386 21 3015 3013 3011 3012
1387 3 3011 3013 3015 3016
1388 1 3011 3013 3015 3017
1389 5 3014 3013 3015 3016
1390 3 3013 3011 3009 3010
1391 6 3009 3011 3012 3021
1392 7 3009 3011 3012 3022
1393 6 3013 3011 3012 3021
1394 7 3013 3011 3012 3022
1395 3 3009 3011 3013 3014
1396 1 3009 3011 3013 3015
1397 20 3010 3009 3011 3012
1398 21 3019 3009 3011 3012
1399 1 3019 3009 3011 3013
1400 5 3010 3009 3019 3020
1401 1 3011 3009 3019 3017
1402 3 3011 3009 3019 3020
1403 3 3019 3017 3015 3016
1404 1 3015 3017 3019 3009
1405 3 3015 3017 3019 3020
1406 5 3018 3017 3019 3020
1407 3 3017 3015 3013 3014
1408 3 3013 3015 3017 3018
1409 1 3013 3015 3017 3019
1410 5 3016 3015 3017 3018
1411 3 3017 3019 3009 3010
1412 3 3009 3019 3017 3018
1413 8 1491 1492 1502 1503
1414 8 1491 1492 1502 1504
1415 9 1501 1492 1502 1503
1416 9 1501 1492 1502 1504
1417 20 1494 1493 1491 1492
1418 21 1495 1493 1491 1492
1419 3 1491 1493 1495 1496
1420 1 1491 1493 1495 1497
1421 5 1494 1493 1495 1496
1422 3 1497 1495 1493 1494
1423 3 1493 1495 1497 1498
1424 1 1493 1495 1497 1499
1425 5 1496 1495 1497 1498
1426 3 1193 1191 1189 1190
1427 3 1189 1191 1193 1194
1428 1 1189 1191 1193 1195
1429 5 1192 1191 1193 1194
1430 3 1195 1193 1191 1192
1431 1 1191 1193 1195 1185
1432 3 1191 1193 1195 1196
1433 5 1194 1193 1195 1196
1434 20 1190 1189 1187 1188
1435 21 1191 1189 1187 1188
1436 3 1187 1189 1191 1192
1437 1 1187 1189 1191 1193
1438 5 1190 1189 1191 1192
1439 20 1186 1185 1187 1188
1440 21 1195 1185 1187 1188
1441 1 1195 1185 1187 1189
1442 5 1186 1185 1195 1196
1443 1 1187 1185 1195 1193
1444 3 1187 1185 1195 1196
1445 3 1189 1187 1185 1186
1446 6 1185 1187 1188 1197
1447 7 1185 1187 1188 1198
1448 6 1189 1187 1188 1197
1449 7 1189 1187 1188 1198
1450 3 1185 1187 1189 1190
1451 1 1185 1187 1189 1191
1452 8 1187 1188 1198 1199
1453 8 1187 1188 1198 1200
1454 9 1197 1188 1198 1199
1455 9 1197 1188 1198 1200
1456 3 1193 1195 1185 1186
1457 3 1185 1195 1193 1194
1458 3 2825 2823 2821 2822
1459 3 2821 2823 2825 2826
1460 1 2821 2823 2825 2827
1461 5 2824 2823 2825 2826
1462 20 2822 2821 2819 2820
1463 21 2823 2821 2819 2820
1464 3 2819 2821 2823 2824
1465 1 2819 2821 2823 2825
1466 5 2822 2821 2823 2824
1467 3 2827 2825 2823 2824
1468 1 2823 2825 2827 2817
1469 3 2823 2825 2827 2828
1470 5 2826 2825 2827 2828
1471 3 2825 2827 2817 2818
1472 3 2817 2827 2825 2826
1473 3 2907 2905 2903 2904
1474 1 2903 2905 2907 2897
1475 3 2903 2905 2907 2908
1476 5 2906 2905 2907 2908
1477 20 2818 2817 2819 2820
1478 21 2827 2817 2819 2820
1479 1 2827 2817 2819 2821
1480 5 2818 2817 2827 2828
1481 1 2819 2817 2827 2825
1482 3 2819 2817 2827 2828
1483 3 3065 3067 3057 3058
1484 3 3057 3067 3065 3066
1485 8 3043 3044 3054 3055
1486 8 3043 3044 3054 3056
1487 9 3053 3044 3054 3055
1488 9 3053 3044 3054 3056
1489 20 2902 2901 2899 2900
1490 21 2903 2901 2899 2900
1491 3 2899 2901 2903 2904
1492 1 2899 2901 2903 2905
1493 5 2902 2901 2903 2904
1494 3 2905 2903 2901 2902
1495 3 2901 2903 2905 2906
1496 1 2901 2903 2905 2907
1497 5 2904 2903 2905 2906
1498 3 2821 2819 2817 2818
1499 6 2817 2819 2820 2829
1500 7 2817 2819 2820 2830
1501 6 2821 2819 2820 2829
1502 7 2821 2819 2820 2830
1503 3 2817 2819 2821 2822
1504 1 2817 2819 2821 2823
1505 3 3067 3065 3063 3064
1506 1 3063 3065 3067 3057
1507 3 3063 3065 3067 3068
1508 5 3066 3065 3067 3068
1509 20 3062 3061 3059 3060
1510 21 3063 3061 3059 3060
1511 3 3059 3061 3063 3064
1512 1 3059 3061 3063 3065
1513 5 3062 3061 3063 3064
1514 3 3065 3063 3061 3062
1515 3 3061 3063 3065 3066
1516 1 3061 3063 3065 3067
1517 5 3064 3063 3065 3066
1518 8 2819 2820 2830 2831
1519 8 2819 2820 2830 2832
1520 9 2829 2820 2830 2831
1521 9 2829 2820 2830 2832
1522 8 803 804 814 815
1523 8 803 804 814 816
1524 9 813 804 814 815
1525 9 813 804 814 816
1526 20 3042 3041 3043 3044
1527 21 3051 3041 3043 3044
1528 1 3051 3041 3043 3045
1529 5 3042 3041 3051 3052
1530 1 3043 3041 3051 3049
1531 3 3043 3041 3051 3052
1532 20 802 801 803 804
1533 21 811 801 803 804
1534 1 811 801 803 805
1535 5 802 801 811 812
1536 1 803 801 811 809
1537 3 803 801 811 812
1538 3 713 715 705 706
1539 3 705 715 713 714
1540 20 706 705 707 708
1541 21 715 705 707 708
1542 1 715 705 707 709
1543 5 706 705 715 716
1544 1 707 705 715 713
1545 3 707 705 715 716
1546 3 2905 2907 2897 2898
1547 3 2897 2907 2905 2906
1548 8 1923 1924 1934 1935
1549 8 1923 1924 1934 1936
1550 9 1933 1924 1934 1935
1551 9 1933 1924 1934 1936
1552 3 1925 1923 1921 1922
1553 6 1921 1923 1924 1933
1554 7 1921 1923 1924 1934
1555 6 1925 1923 1924 1933
1556 7 1925 1923 1924 1934
1557 3 1921 1923 1925 1926
1558 1 1921 1923 1925 1927
1559 20 2898 2897 2899 2900
1560 21 2907 2897 2899 2900
1561 1 2907 2897 2899 2901
1562 5 2898 2897 2907 2908
1563 1 2899 2897 2907 2905
1564 3 2899 2897 2907 2908
1565 3 715 713 711 712
1566 1 711 713 715 705
1567 3 711 713 715 716
1568 5 714 713 715 716
1569 20 806 805 803 804
1570 21 807 805 803 804
1571 3 803 805 807 808
1572 1 803 805 807 809
1573 5 806 805 807 808
1574 3 713 711 709 710
1575 3 709 711 713 714
1576 1 709 711 713 715
1577 5 712 711 713 714
1578 20 710 709 707 708
1579 21 711 709 707 708
1580 3 707 709 711 712
1581 1 707 709 711 713
1582 5 710 709 711 712
1583 3 709 707 705 706
1584 6 705 707 708 717
1585 7 705 707 708 718
1586 6 709 707 708 717
1587 7 709 707 708 718
1588 3 705 707 709 710
1589 1 705 707 709 711
1590 3 805 803 801 802
1591 6 801 803 804 813
1592 7 801 803 804 814
1593 6 805 803 804 813
1594 7 805 803 804 814
1595 3 801 803 805 806
1596 1 801 803 805 807
1597 3 809 811 801 802
1598 3 801 811 809 810
1599 3 2889 2891 2881 2882
1600 3 2881 2891 2889 2890
1601 3 1931 1929 1927 1928
1602 1 1927 1929 1931 1921
1603 3 1927 1929 1931 1932
1604 5 1930 1929 1931 1932
1605 3 1929 1931 1921 1922
1606 3 1921 1931 1929 1930
1607 3 3225 3223 3221 3222
1608 3 3221 3223 3225 3226
1609 1 3221 3223 3225 3227
1610 5 3224 3223 3225 3226
1611 3 3227 3225 3223 3224
1612 1 3223 3225 3227 3217
1613 3 3223 3225 3227 3228
1614 5 3226 3225 3227 3228
1615 20 1922 1921 1923 1924
1616 21 1931 1921 1923 1924
1617 1 1931 1921 1923 1925
1618 5 1922 1921 1931 1932
1619 1 1923 1921 1931 1929
1620 3 1923 1921 1931 1932
1621 20 1926 1925 1923 1924
1622 21 1927 1925 1923 1924
1623 3 1923 1925 1927 1928
1624 1 1923 1925 1927 1929
1625 5 1926 1925 1927 1928
1626 3 1929 1927 1925 1926
1627 3 1925 1927 1929 1930
1628 1 1925 1927 1929 1931
1629 5 1928 1927 1929 1930
1630 3 1243 1241 1239 1240
1631 1 1239 1241 1243 1233
1632 3 1239 1241 1243 1244
1633 5 1242 1241 1243 1244
1634 3 1241 1243 1233 1234
1635 3 1233 1243 1241 1242
1636 3 1241 1239 1237 1238
1637 3 1237 1239 1241 1242
1638 1 1237 1239 1241 1243
1639 5 1240 1239 1241 1242
1640 20 3222 3221 3219 3220
1641 21 3223 3221 3219 3220
1642 3 3219 3221 3223 3224
1643 1 3219 3221 3223 3225
1644 5 3222 3221 3223 3224
1645 8 2883 2884 2894 2895
1646 8 2883 2884 2894 2896
1647 9 2893 2884 2894 2895
1648 9 2893 2884 2894 2896
1649 3 2885 2883 2881 2882
1650 6 2881 2883 2884 2893
1651 7 2881 2883 2884 2894
1652 6 2885 2883 2884 2893
1653 7 2885 2883 2884 2894
1654 3 2881 2883 2885 2886
1655 1 2881 2883 2885 2887
1656 3 3225 3227 3217 3218
1657 3 3217 3227 3225 3226
1658 8 675 676 686 687
1659 8 675 676 686 688
1660 9 685 676 686 687
1661 9 685 676 686 688
1662 20 3218 3217 3219 3220
1663 21 3227 3217 3219 3220
1664 1 3227 3217 3219 3221
1665 5 3218 3217 3227 3228
1666 1 3219 3217 3227 3225
1667 3 3219 3217 3227 3228
1668 8 707 708 718 719
1669 8 707 708 718 720
1670 9 717 708 718 719
1671 9 717 708 718 720
1672 8 3219 3220 3230 3231
1673 8 3219 3220 3230 3232
1674 9 3229 3220 3230 3231
1675 9 3229 3220 3230 3232
1676 8 1235 1236 1246 1247
1677 8 1235 1236 1246 1248
1678 9 1245 1236 1246 1247
1679 9 1245 1236 1246 1248
1680 20 1238 1237 1235 1236
1681 21 1239 1237 1235 1236
1682 3 1235 1237 1239 1240
1683 1 1235 1237 1239 1241
1684 5 1238 1237 1239 1240
1685 3 1237 1235 1233 1234
1686 6 1233 1235 1236 1245
1687 7 1233 1235 1236 1246
1688 6 1237 1235 1236 1245
1689 7 1237 1235 1236 1246
1690 3 1233 1235 1237 1238
1691 1 1233 1235 1237 1239
1692 20 1234 1233 1235 1236
1693 21 1243 1233 1235 1236
1694 1 1243 1233 1235 1237
1695 5 1234 1233 1243 1244
1696 1 1235 1233 1243 1241
1697 3 1235 1233 1243 1244
1698 3 3221 3219 3217 3218
1699 6 3217 3219 3220 3229
1700 7 3217 3219 3220 3230
1701 6 3221 3219 3220 3229
1702 7 3221 3219 3220 3230
1703 3 3217 3219 3221 3222
1704 1 3217 3219 3221 3223
1705 20 2882 2881 2883 2884
1706 21 2891 2881 2883 2884
1707 1 2891 2881 2883 2885
1708 5 2882 2881 2891 2892
1709 1 2883 2881 2891 2889
1710 3 2883 2881 2891 2892
1711 8 2099 2100 2110 2111
1712 8 2099 2100 2110 2112
1713 9 2109 2100 2110 2111
1714 9 2109 2100 2110 2112
1715 3 2101 2099 2097 2098
1716 6 2097 2099 2100 2109
1717 7 2097 2099 2100 2110
1718 6 2101 2099 2100 2109
1719 7 2101 2099 2100 2110
1720 3 2097 2099 2101 2102
1721 1 2097 2099 2101 2103
1722 20 2102 2101 2099 2100
1723 21 2103 2101 2099 2100
1724 3 2099 2101 2103 2104
1725 1 2099 2101 2103 2105
1726 5 2102 2101 2103 2104
1727 20 1554 1553 1555 1556
1728 21 1563 1553 1555 1556
1729 1 1563 1553 1555 1557
1730 5 1554 1553 1563 1564
1731 1 1555 1553 1563 1561
1732 3 1555 1553 1563 1564
1733 3 1561 1563 1553 1554
1734 3 1553 1563 1561 1562
1735 3 1563 1561 1559 1560
1736 1 1559 1561 1563 1553
1737 3 1559 1561 1563 1564
1738 5 1562 1561 1563 1564
1739 3 1561 1559 1557 1558
1740 3 1557 1559 1561 1562
1741 1 1557 1559 1561 1563
1742 5 1560 1559 1561 1562
1743 3 1557 1555 1553 1554
1744 6 1553 1555 1556 1565
1745 7 1553 1555 1556 1566
1746 6 1557 1555 1556 1565
1747 7 1557 1555 1556 1566
1748 3 1553 1555 1557 1558
1749 1 1553 1555 1557 1559
1750 20 2406 2405 2403 2404
1751 21 2407 2405 2403 2404
1752 3 2403 2405 2407 2408
1753 1 2403 2405 2407 2409
1754 5 2406 2405 2407 2408
1755 3 2409 2407 2405 2406
1756 3 2405 2407 2409 2410
1757 1 2405 2407 2409 2411
1758 5 2408 2407 2409 2410
1759 3 2411 2409 2407 2408
1760 1 2407 2409 2411 2401
1761 3 2407 2409 2411 2412
1762 5 2410 2409 2411 2412
1763 3 2405 2403 2401 2402
1764 6 2401 2403 2404 2413
1765 7 2401 2403 2404 2414
1766 6 2405 2403 2404 2413
1767 7 2405 2403 2404 2414
1768 3 2401 2403 2405 2406
1769 1 2401 2403 2405 2407
1770 20 2402 2401 2403 2404
1771 21 2411 2401 2403 2404
1772 1 2411 2401 2403 2405
1773 5 2402 2401 2411 2412
1774 1 2403 2401 2411 2409
1775 3 2403 2401 2411 2412
1776 3 2409 2411 2401 2402
1777 3 2401 2411 2409 2410
1778 3 1083 1081 1079 1080
1779 1 1079 1081 1083 1073
1780 3 1079 1081 1083 1084
1781 5 1082 1081 1083 1084
1782 3 1081 1079 1077 1078
1783 3 1077 1079 1081 1082
1784 1 1077 1079 1081 1083
1785 5 1080 1079 1081 1082
1786 3 2105 2103 2101 2102
1787 3 2101 2103 2105 2106
1788 1 2101 2103 2105 2107
1789 5 2104 2103 2105 2106
1790 20 1558 1557 1555 1556
1791 21 1559 1557 1555 1556
1792 3 1555 1557 1559 1560
1793 1 1555 1557 1559 1561
1794 5 1558 1557 1559 1560
1795 3 1947 1945 1943 1944
1796 1 1943 1945 1947 1937
1797 3 1943 1945 1947 1948
1798 5 1946 1945 1947 1948
1799 3 1945 1943 1941 1942
1800 3 1941 1943 1945 1946
1801 1 1941 1943 1945 1947
1802 5 1944 1943 1945 1946
1803 3 2681 2679 2677 2678
1804 3 2677 2679 2681 2682
1805 1 2677 2679 2681 2683
1806 5 2680 2679 2681 2682
1807 3 2683 2681 2679 2680
1808 1 2679 2681 2683 2673
1809 3 2679 2681 2683 2684
1810 5 2682 2681 2683 2684
1811 20 2678 2677 2675 2676
1812 21 2679 2677 2675 2676
1813 3 2675 2677 2679 2680
1814 1 2675 2677 2679 2681
1815 5 2678 2677 2679 2680
1816 20 1942 1941 1939 1940
1817 21 1943 1941 1939 1940
1818 3 1939 1941 1943 1944
1819 1 1939 1941 1943 1945
1820 5 1942 1941 1943 1944
1821 3 2681 2683 2673 2674
1822 3 2673 2683 2681 2682
1823 3 2677 2675 2673 2674
1824 6 2673 2675 2676 2685
1825 7 2673 2675 2676 2686
1826 6 2677 2675 2676 2685
1827 7 2677 2675 2676 2686
1828 3 2673 2675 2677 2678
1829 1 2673 2675 2677 2679
1830 3 1945 1947 1937 1938
1831 3 1937 1947 1945 1946
1832 20 1938 1937 1939 1940
1833 21 1947 1937 1939 1940
1834 1 1947 1937 1939 1941
1835 5 1938 1937 1947 1948
1836 1 1939 1937 1947 1945
1837 3 1939 1937 1947 1948
1838 3 1941 1939 1937 1938
1839 6 1937 1939 1940 1949
1840 7 1937 1939 1940 1950
1841 6 1941 1939 1940 1949
1842 7 1941 1939 1940 1950
1843 3 1937 1939 1941 1942
1844 1 1937 1939 1941 1943
1845 8 2291 2292 2302 2303
1846 8 2291 2292 2302 2304
1847 9 2301 2292 2302 2303
1848 9 2301 2292 2302 2304
1849 3 2181 2179 2177 2178
1850 6 2177 2179 2180 2189
1851 7 2177 2179 2180 2190
1852 6 2181 2179 2180 2189
1853 7 2181 2179 2180 2190
1854 3 2177 2179 2181 2182
1855 1 2177 2179 2181 2183
1856 20 2674 2673 2675 2676
1857 21 2683 2673 2675 2676
1858 1 2683 2673 2675 2677
1859 5 2674 2673 2683 2684
1860 1 2675 2673 2683 2681
1861 3 2675 2673 2683 2684
1862 3 1081 1083 1073 1074
1863 3 1073 1083 1081 1082
1864 3 1077 1075 1073 1074
1865 6 1073 1075 1076 1085
1866 7 1073 1075 1076 1086
1867 6 1077 1075 1076 1085
1868 7 1077 1075 1076 1086
1869 3 1073 1075 1077 1078
1870 1 1073 1075 1077 1079
1871 20 1078 1077 1075 1076
1872 21 1079 1077 1075 1076
1873 3 1075 1077 1079 1080
1874 1 1075 1077 1079 1081
1875 5 1078 1077 1079 1080
1876 8 2675 2676 2686 2687
1877 8 2675 2676 2686 2688
1878 9 2685 2676 2686 2687
1879 9 2685 2676 2686 2688
1880 20 1074 1073 1075 1076
1881 21 1083 1073 1075 1076
1882 1 1083 1073 1075 1077
1883 5 1074 1073 1083 1084
1884 1 1075 1073 1083 1081
1885 3 1075 1073 1083 1084
1886 8 2179 2180 2190 2191
1887 8 2179 2180 2190 2192
1888 9 2189 2180 2190 2191
1889 9 2189 2180 2190 2192
1890 3 1797 1795 1793 1794
1891 6 1793 1795 1796 1805
1892 7 1793 1795 1796 1806
1893 6 1797 1795 1796 1805
1894 7 1797 1795 1796 1806
1895 3 1793 1795 1797 1798
1896 1 1793 1795 1797 1799
1897 8 307 308 318 319
1898 8 307 308 318 320
1899 9 317 308 318 319
1900 9 317 308 318 320
1901 3 1801 1799 1797 1798
1902 3 1797 1799 1801 1802
1903 1 1797 1799 1801 1803
1904 5 1800 1799 1801 1802
1905 20 1798 1797 1795 1796
1906 21 1799 1797 1795 1796
1907 3 1795 1797 1799 1800
1908 1 1795 1797 1799 1801
1909 5 1798 1797 1799 1800
1910 20 2134 2133 2131 2132
1911 21 2135 2133 2131 2132
1912 3 2131 2133 2135 2136
1913 1 2131 2133 2135 2137
1914 5 2134 2133 2135 2136
1915 3 2137 2135 2133 2134
1916 3 2133 2135 2137 2138
1917 1 2133 2135 2137 2139
1918 5 2136 2135 2137 2138
1919 3 2139 2137 2135 2136
1920 1 2135 2137 2139 2129
1921 3 2135 2137 2139 2140
1922 5 2138 2137 2139 2140
1923 3 2133 2131 2129 2130
1924 6 2129 2131 2132 2141
1925 7 2129 2131 2132 2142
1926 6 2133 2131 2132 2141
1927 7 2133 2131 2132 2142
1928 3 2129 2131 2133 2134
1929 1 2129 2131 2133 2135
1930 8 1939 1940 1950 1951
1931 8 1939 1940 1950 1952
1932 9 1949 1940 1950 1951
1933 9 1949 1940 1950 1952
1934 8 1795 1796 1806 1807
1935 8 1795 1796 1806 1808
1936 9 1805 1796 1806 1807
1937 9 1805 1796 1806 1808
1938 3 309 307 305 306
1939 6 305 307 308 317
1940 7 305 307 308 318
1941 6 309 307 308 317
1942 7 309 307 308 318
1943 3 305 307 309 310
1944 1 305 307 309 311
1945 20 306 305 307 308
1946 21 315 305 307 308
1947 1 315 305 307 309
1948 5 306 305 315 316
1949 1 307 305 315 313
1950 3 307 305 315 316
1951 20 310 309 307 308
1952 21 311 309 307 308
1953 3 307 309 311 312
1954 1 307 309 311 313
1955 5 310 309 311 312
1956 3 313 315 305 306
1957 3 305 315 313 314
1958 3 315 313 311 312
1959 1 311 313 315 305
1960 3 311 313 315 316
1961 5 314 313 315 316
1962 3 313 311 309 310
1963 3 309 311 313 314
1964 1 309 311 313 315
1965 5 312 311 313 314
1966 8 2131 2132 2142 2143
1967 8 2131 2132 2142 2144
1968 9 2141 2132 2142 2143
1969 9 2141 2132 2142 2144
1970 3 1577 1575 1573 1574
1971 3 1573 1575 1577 1578
1972 1 1573 1575 1577 1579
1973 5 1576 1575 1577 1578
1974 3 1579 1577 1575 1576
1975 1 1575 1577 1579 1569
1976 3 1575 1577 1579 1580
1977 5 1578 1577 1579 1580
1978 3 1577 1579 1569 1570
1979 3 1569 1579 1577 1578
1980 20 1570 1569 1571 1572
1981 21 1579 1569 1571 1572
1982 1 1579 1569 1571 1573
1983 5 1570 1569 1579 1580
1984 1 1571 1569 1579 1577
1985 3 1571 1569 1579 1580
1986 20 1574 1573 1571 1572
1987 21 1575 1573 1571 1572
1988 3 1571 1573 1575 1576
1989 1 1571 1573 1575 1577
1990 5 1574 1573 1575 1576
1991 3 1573 1571 1569 1570
1992 6 1569 1571 1572 1581
1993 7 1569 1571 1572 1582
1994 6 1573 1571 1572 1581
1995 7 1573 1571 1572 1582
1996 3 1569 1571 1573 1574
1997 1 1569 1571 1573 1575
1998 3 2265 2267 2257 2258
1999 3 2257 2267 2265 2266
2000 20 2258 2257 2259 2260
2001 21 2267 2257 2259 2260
2002 1 2267 2257 2259 2261
2003 5 2258 2257 2267 2268
2004 1 2259 2257 2267 2265
2005 3 2259 2257 2267 2268
2006 3 2261 2259 2257 2258
2007 6 2257 2259 2260 2269
2008 7 2257 2259 2260 2270
2009 6 2261 2259 2260 2269
2010 7 2261 2259 2260 2270
2011 3 2257 2259 2261 2262
2012 1 2257 2259 2261 2263
2013 8 2259 2260 2270 2271
2014 8 2259 2260 2270 2272
2015 9 2269 2260 2270 2271
2016 9 2269 2260 2270 2272
2017 8 3331 3332 3342 3343
2018 8 3331 3332 3342 3344
2019 9 3341 3332 3342 3343
2020 9 3341 3332 3342 3344
2021 8 1011 1012 1022 1023
2022 8 1011 1012 1022 1024
2023 9 1021 1012 1022 1023
2024 9 1021 1012 1022 1024
2025 3 2665 2663 2661 2662
2026 3 2661 2663 2665 2666
2027 1 2661 2663 2665 2667
2028 5 2664 2663 2665 2666
2029 3 1019 1017 1015 1016
2030 1 1015 1017 1019 1009
2031 3 1015 1017 1019 1020
2032 5 1018 1017 1019 1020
2033 3 1017 1019 1009 1010
2034 3 1009 1019 1017 1018
2035 3 1017 1015 1013 1014
2036 3 1013 1015 1017 1018
2037 1 1013 1015 1017 1019
2038 5 1016 1015 1017 1018
2039 3 2661 2659 2657 2658
2040 6 2657 2659 2660 2669
2041 7 2657 2659 2660 2670
2042 6 2661 2659 2660 2669
2043 7 2661 2659 2660 2670
2044 3 2657 2659 2661 2662
2045 1 2657 2659 2661 2663
2046 8 2659 2660 2670 2671
2047 8 2659 2660 2670 2672
2048 9 2669 2660 2670 2671
2049 9 2669 2660 2670 2672
2050 20 2662 2661 2659 2660
2051 21 2663 2661 2659 2660
2052 3 2659 2661 2663 2664
2053 1 2659 2661 2663 2665
2054 5 2662 2661 2663 2664
2055 20 1010 1009 1011 1012
2056 21 1019 1009 1011 1012
2057 1 1019 1009 1011 1013
2058 5 1010 1009 1019 1020
2059 1 1011 1009 1019 1017
2060 3 1011 1009 1019 1020
2061 3 1013 1011 1009 1010
2062 6 1009 1011 1012 1021
2063 7 1009 1011 1012 1022
2064 6 1013 1011 1012 1021
2065 7 1013 1011 1012 1022
2066 3 1009 1011 1013 1014
2067 1 1009 1011 1013 1015
2068 20 1014 1013 1011 1012
2069 21 1015 1013 1011 1012
2070 3 1011 1013 1015 1016
2071 1 1011 1013 1015 1017
2072 5 1014 1013 1015 1016
2073 8 643 644 654 655
2074 8 643 644 654 656
2075 9 653 644 654 655
2076 9 653 644 654 656
2077 3 649 647 645 646
2078 3 645 647 649 650
2079 1 645 647 649 651
2080 5 648 647 649 650
2081 20 646 645 643 644
2082 21 647 645 643 644
2083 3 643 645 647 648
2084 1 643 645 647 649
2085 5 646 645 647 648
2086 20 642 641 643 644
2087 21 651 641 643 644
2088 1 651 641 643 645
2089 5 642 641 651 652
2090 1 643 641 651 649
2091 3 643 641 651 652
2092 3 645 643 641 642
2093 6 641 643 644 653
2094 7 641 643 644 654
2095 6 645 643 644 653
2096 7 645 643 644 654
2097 3 641 643 645 646
2098 1 641 643 645 647
2099 3 651 649 647 648
2100 1 647 649 651 641
2101 3 647 649 651 652
2102 5 650 649 651 652
2103 3 649 651 641 642
2104 3 641 651 649 650
2105 20 1158 1157 1155 1156
2106 21 1159 1157 1155 1156
2107 3 1155 1157 1159 1160
2108 1 1155 1157 1159 1161
2109 5 1158 1157 1159 1160
2110 3 3333 3331 3329 3330
2111 6 3329 3331 3332 3341
2112 7 3329 3331 3332 3342
2113 6 3333 3331 3332 3341
2114 7 3333 3331 3332 3342
2115 3 3329 3331 3333 3334
2116 1 3329 3331 3333 3335
2117 20 3330 3329 3331 3332
2118 21 3339 3329 3331 3332
2119 1 3339 3329 3331 3333
2120 5 3330 3329 3339 3340
2121 1 3331 3329 3339 3337
2122 3 3331 3329 3339 3340
2123 3 3337 3339 3329 3330
2124 3 3329 3339 3337 3338
2125 3 1161 1159 1157 1158
2126 3 1157 1159 1161 1162
2127 1 1157 1159 1161 1163
2128 5 1160 1159 1161 1162
2129 3 1163 1161 1159 1160
2130 1 1159 1161 1163 1153
2131 3 1159 1161 1163 1164
2132 5 1162 1161 1163 1164
2133 8 1299 1300 1310 1311
2134 8 1299 1300 1310 1312
2135 9 1309 1300 1310 1311
2136 9 1309 1300 1310 1312
2137 3 1301 1299 1297 1298
2138 6 1297 1299 1300 1309
2139 7 1297 1299 1300 1310
2140 6 1301 1299 1300 1309
2141 7 1301 1299 1300 1310
2142 3 1297 1299 1301 1302
2143 1 1297 1299 1301 1303
2144 20 1302 1301 1299 1300
2145 21 1303 1301 1299 1300
2146 3 1299 1301 1303 1304
2147 1 1299 1301 1303 1305
2148 5 1302 1301 1303 1304
2149 3 3337 3335 3333 3334
2150 3 3333 3335 3337 3338
2151 1 3333 3335 3337 3339
2152 5 3336 3335 3337 3338
2153 3 3339 3337 3335 3336
2154 1 3335 3337 3339 3329
2155 3 3335 3337 3339 3340
2156 5 3338 3337 3339 3340
2157 20 3334 3333 3331 3332
2158 21 3335 3333 3331 3332
2159 3 3331 3333 3335 3336
2160 1 3331 3333 3335 3337
2161 5 3334 3333 3335 3336
2162 3 1305 1303 1301 1302
2163 3 1301 1303 1305 1306
2164 1 1301 1303 1305 1307
2165 5 1304 1303 1305 1306
2166 20 2038 2037 2035 2036
2167 21 2039 2037 2035 2036
2168 3 2035 2037 2039 2040
2169 1 2035 2037 2039 2041
2170 5 2038 2037 2039 2040
2171 3 2041 2039 2037 2038
2172 3 2037 2039 2041 2042
2173 1 2037 2039 2041 2043
2174 5 2040 2039 2041 2042
2175 3 2043 2041 2039 2040
2176 1 2039 2041 2043 2033
2177 3 2039 2041 2043 2044
2178 5 2042 2041 2043 2044
2179 3 2037 2035 2033 2034
2180 6 2033 2035 2036 2045
2181 7 2033 2035 2036 2046
2182 6 2037 2035 2036 2045
2183 7 2037 2035 2036 2046
2184 3 2033 2035 2037 2038
2185 1 2033 2035 2037 2039
2186 8 2035 2036 2046 2047
2187 8 2035 2036 2046 2048
2188 9 2045 2036 2046 2047
2189 9 2045 2036 2046 2048
2190 3 2041 2043 2033 2034
2191 3 2033 2043 2041 2042
2192 20 2034 2033 2035 2036
2193 21 2043 2033 2035 2036
2194 1 2043 2033 2035 2037
2195 5 2034 2033 2043 2044
2196 1 2035 2033 2043 2041
2197 3 2035 2033 2043 2044
2198 8 611 612 622 623
2199 8 611 612 622 624
2200 9 621 612 622 623
2201 9 621 612 622 624
2202 3 613 611 609 610
2203 6 609 611 612 621
2204 7 609 611 612 622
2205 6 613 611 612 621
2206 7 613 611 612 622
2207 3 609 611 613 614
2208 1 609 611 613 615
2209 20 610 609 611 612
2210 21 619 609 611 612
2211 1 619 609 611 613
2212 5 610 609 619 620
2213 1 611 609 619 617
2214 3 611 609 619 620
2215 20 614 613 611 612
2216 21 615 613 611 612
2217 3 611 613 615 616
2218 1 611 613 615 617
2219 5 614 613 615 616
2220 3 617 615 613 614
2221 3 613 615 617 618
2222 1 613 615 617 619
2223 5 616 615 617 618
2224 3 617 619 609 610
2225 3 609 619 617 618
2226 3 3051 3049 3047 3048
2227 1 3047 3049 3051 3041
2228 3 3047 3049 3051 3052
2229 5 3050 3049 3051 3052
2230 3 3049 3051 3041 3042
2231 3 3041 3051 3049 3050
2232 3 3045 3043 3041 3042
2233 6 3041 3043 3044 3053
2234 7 3041 3043 3044 3054
2235 6 3045 3043 3044 3053
2236 7 3045 3043 3044 3054
2237 3 3041 3043 3045 3046
2238 1 3041 3043 3045 3047
2239 3 3049 3047 3045 3046
2240 3 3045 3047 3049 3050
2241 1 3045 3047 3049 3051
2242 5 3048 3047 3049 3050
2243 20 3046 3045 3043 3044
2244 21 3047 3045 3043 3044
2245 3 3043 3045 3047 3048
2246 1 3043 3045 3047 3049
2247 5 3046 3045 3047 3048
2248 3 619 617 615 616
2249 1 615 617 619 609
2250 3 615 617 619 620
2251 5 618 617 619 620
2252 8 2243 2244 2254 2255
2253 8 2243 2244 2254 2256
2254 9 2253 2244 2254 2255
2255 9 2253 2244 2254 2256
2256 3 411 409 407 408
2257 1 407 409 411 401
2258 3 407 409 411 412
2259 5 410 409 411 412
2260 3 409 407 405 406
2261 3 405 407 409 410
2262 1 405 407 409 411
2263 5 408 407 409 410
2264 3 409 411 401 402
2265 3 401 411 409 410
2266 20 402 401 403 404
2267 21 411 401 403 404
2268 1 411 401 403 405
2269 5 402 401 411 412
2270 1 403 401 411 409
2271 3 403 401 411 412
2272 20 406 405 403 404
2273 21 407 405 403 404
2274 3 403 405 407 408
2275 1 403 405 407 409
2276 5 406 405 407 408
2277 3 405 403 401 402
2278 6 401 403 404 413
2279 7 401 403 404 414
2280 6 405 403 404 413
2281 7 405 403 404 414
2282 3 401 403 405 406
2283 1 401 403 405 407
2284 8 403 404 414 415
2285 8 403 404 414 416
2286 9 413 404 414 415
2287 9 413 404 414 416
2288 3 2245 2243 2241 2242
2289 6 2241 2243 2244 2253
2290 7 2241 2243 2244 2254
2291 6 2245 2243 2244 2253
2292 7 2245 2243 2244 2254
2293 3 2241 2243 2245 2246
2294 1 2241 2243 2245 2247
2295 20 3078 3077 3075 3076
2296 21 3079 3077 3075 3076
2297 3 3075 3077 3079 3080
2298 1 3075 3077 3079 3081
2299 5 3078 3077 3079 3080
2300 3 3083 3081 3079 3080
2301 1 3079 3081 3083 3073
2302 3 3079 3081 3083 3084
2303 5 3082 3081 3083 3084
2304 3 3081 3079 3077 3078
2305 3 3077 3079 3081 3082
2306 1 3077 3079 3081 3083
2307 5 3080 3079 3081 3082
2308 20 2242 2241 2243 2244
2309 21 2251 2241 2243 2244
2310 1 2251 2241 2243 2245
2311 5 2242 2241 2251 2252
2312 1 2243 2241 2251 2249
2313 3 2243 2241 2251 2252
2314 8 3075 3076 3086 3087
2315 8 3075 3076 3086 3088
2316 9 3085 3076 3086 3087
2317 9 3085 3076 3086 3088
2318 3 3077 3075 3073 3074
2319 6 3073 3075 3076 3085
2320 7 3073 3075 3076 3086
2321 6 3077 3075 3076 3085
2322 7 3077 3075 3076 3086
2323 3 3073 3075 3077 3078
2324 1 3073 3075 3077 3079
2325 20 3074 3073 3075 3076
2326 21 3083 3073 3075 3076
2327 1 3083 3073 3075 3077
2328 5 3074 3073 3083 3084
2329 1 3075 3073 3083 3081
2330 3 3075 3073 3083 3084
2331 3 3081 3083 3073 3074
2332 3 3073 3083 3081 3082
2333 3 2249 2251 2241 2242
2334 3 2241 2251 2249 2250
2335 3 2901 2899 2897 2898
2336 6 2897 2899 2900 2909
2337 7 2897 2899 2900 2910
2338 6 2901 2899 2900 2909
2339 7 2901 2899 2900 2910
2340 3 2897 2899 2901 2902
2341 1 2897 2899 2901 2903
2342 8 2899 2900 2910 2911
2343 8 2899 2900 2910 2912
2344 9 2909 2900 2910 2911
2345 9 2909 2900 2910 2912
2346 20 2694 2693 2691 2692
2347 21 2695 2693 2691 2692
2348 3 2691 2693 2695 2696
2349 1 2691 2693 2695 2697
2350 5 2694 2693 2695 2696
2351 3 2697 2695 2693 2694
2352 3 2693 2695 2697 2698
2353 1 2693 2695 2697 2699
2354 5 2696 2695 2697 2698
2355 3 2693 2691 2689 2690
2356 6 2689 2691 2692 2701
2357 7 2689 2691 2692 2702
2358 6 2693 2691 2692 2701
2359 7 2693 2691 2692 2702
2360 3 2689 2691 2693 2694
2361 1 2689 2691 2693 2695
2362 20 2690 2689 2691 2692
2363 21 2699 2689 2691 2692
2364 1 2699 2689 2691 2693
2365 5 2690 2689 2699 2700
2366 1 2691 2689 2699 2697
2367 3 2691 2689 2699 2700
2368 3 2699 2697 2695 2696
2369 1 2695 2697 2699 2689
2370 3 2695 2697 2699 2700
2371 5 2698 2697 2699 2700
2372 3 2697 2699 2689 2690
2373 3 2689 2699 2697 2698
2374 3 2475 2473 2471 2472
2375 1 2471 2473 2475 2465
2376 3 2471 2473 2475 2476
2377 5 2474 2473 2475 2476
2378 3 2473 2471 2469 2470
2379 3 2469 2471 2473 2474
2380 1 2469 2471 2473 2475
2381 5 2472 2471 2473 2474
2382 3 2473 2475 2465 2466
2383 3 2465 2475 2473 2474
2384 3 3273 3271 3269 3270
2385 3 3269 3271 3273 3274
2386 1 3269 3271 3273 3275
2387 5 3272 3271 3273 3274
2388 20 3270 3269 3267 3268
2389 21 3271 3269 3267 3268
2390 3 3267 3269 3271 3272
2391 1 3267 3269 3271 3273
2392 5 3270 3269 3271 3272
2393 3 3275 3273 3271 3272
2394 1 3271 3273 3275 3265
2395 3 3271 3273 3275 3276
2396 5 3274 3273 3275 3276
2397 3 3269 3267 3265 3266
2398 6 3265 3267 3268 3277
2399 7 3265 3267 3268 3278
2400 6 3269 3267 3268 3277
2401 7 3269 3267 3268 3278
2402 3 3265 3267 3269 3270
2403 1 3265 3267 3269 3271
2404 3 3273 3275 3265 3266
2405 3 3265 3275 3273 3274
2406 20 3266 3265 3267 3268
2407 21 3275 3265 3267 3268
2408 1 3275 3265 3267 3269
2409 5 3266 3265 3275 3276
2410 1 3267 3265 3275 3273
2411 3 3267 3265 3275 3276
2412 3 811 809 807 808
2413 1 807 809 811 801
2414 3 807 809 811 812
2415 5 810 809 811 812
2416 8 3267 3268 3278 3279
2417 8 3267 3268 3278 3280
2418 9 3277 3268 3278 3279
2419 9 3277 3268 3278 3280
2420 3 809 807 805 806
2421 3 805 807 809 810
2422 1 805 807 809 811
2423 5 808 807 809 810
2424 20 2466 2465 2467 2468
2425 21 2475 2465 2467 2468
2426 1 2475 2465 2467 2469
2427 5 2466 2465 2475 2476
2428 1 2467 2465 2475 2473
2429 3 2467 2465 2475 2476
2430 3 2469 2467 2465 2466
2431 6 2465 2467 2468 2477
2432 7 2465 2467 2468 2478
2433 6 2469 2467 2468 2477
2434 7 2469 2467 2468 2478
2435 3 2465 2467 2469 2470
2436 1 2465 2467 2469 2471
2437 20 2470 2469 2467 2468
2438 21 2471 2469 2467 2468
2439 3 2467 2469 2471 2472
2440 1 2467 2469 2471 2473
2441 5 2470 2469 2471 2472
2442 8 2467 2468 2478 2479
2443 8 2467 2468 2478 2480
2444 9 2477 2468 2478 2479
2445 9 2477 2468 2478 2480
2446 8 387 388 398 399
2447 8 387 388 398 400
2448 9 397 388 398 399
2449 9 397 388 398 400
2450 8 2691 2692 2702 2703
2451 8 2691 2692 2702 2704
2452 9 2701 2692 2702 2703
2453 9 2701 2692 2702 2704
2454 3 389 387 385 386
2455 6 385 387 388 397
2456 7 385 387 388 398
2457 6 389 387 388 397
2458 7 389 387 388 398
2459 3 385 387 389 390
2460 1 385 387 389 391
2461 20 390 389 387 388
2462 21 391 389 387 388
2463 3 387 389 391 392
2464 1 387 389 391 393
2465 5 390 389 391 392
2466 3 395 393 391 392
2467 1 391 393 395 385
2468 3 391 393 395 396
2469 5 394 393 395 396
2470 3 393 391 389 390
2471 3 389 391 393 394
2472 1 389 391 393 395
2473 5 392 391 393 394
2474 20 2886 2885 2883 2884
2475 21 2887 2885 2883 2884
2476 3 2883 2885 2887 2888
2477 1 2883 2885 2887 2889
2478 5 2886 2885 2887 2888
2479 3 1849 1851 1841 1842
2480 3 1841 1851 1849 1850
2481 20 386 385 387 388
2482 21 395 385 387 388
2483 1 395 385 387 389
2484 5 386 385 395 396
2485 1 387 385 395 393
2486 3 387 385 395 396
2487 3 393 395 385 386
2488 3 385 395 393 394
2489 8 1891 1892 1902 1903
2490 8 1891 1892 1902 1904
2491 9 1901 1892 1902 1903
2492 9 1901 1892 1902 1904
2493 8 3379 3380 3390 3391
2494 8 3379 3380 3390 3392
2495 9 3389 3380 3390 3391
2496 9 3389 3380 3390 3392
2497 3 2891 2889 2887 2888
2498 1 2887 2889 2891 2881
2499 3 2887 2889 2891 2892
2500 5 2890 2889 2891 2892
2501 20 3378 3377 3379 3380
2502 21 3387 3377 3379 3380
2503 1 3387 3377 3379 3381
2504 5 3378 3377 3387 3388
2505 1 3379 3377 3387 3385
2506 3 3379 3377 3387 3388
2507 3 3385 3387 3377 3378
2508 3 3377 3387 3385 3386
2509 3 3387 3385 3383 3384
2510 1 3383 3385 3387 3377
2511 3 3383 3385 3387 3388
2512 5 3386 3385 3387 3388
2513 3 3385 3383 3381 3382
2514 3 3381 3383 3385 3386
2515 1 3381 3383 3385 3387
2516 5 3384 3383 3385 3386
2517 3 2889 2887 2885 2886
2518 3 2885 2887 2889 2890
2519 1 2885 2887 2889 2891
2520 5 2888 2887 2889 2890
2521 3 3381 3379 3377 3378
2522 6 3377 3379 3380 3389
2523 7 3377 3379 3380 3390
2524 6 3381 3379 3380 3389
2525 7 3381 3379 3380 3390
2526 3 3377 3379 3381 3382
2527 1 3377 3379 3381 3383
2528 20 3382 3381 3379 3380
2529 21 3383 3381 3379 3380
2530 3 3379 3381 3383 3384
2531 1 3379 3381 3383 3385
2532 5 3382 3381 3383 3384
2533 20 1842 1841 1843 1844
2534 21 1851 1841 1843 1844
2535 1 1851 1841 1843 1845
2536 5 1842 1841 1851 1852
2537 1 1843 1841 1851 1849
2538 3 1843 1841 1851 1852
2539 8 691 692 702 703
2540 8 691 692 702 704
2541 9 701 692 702 703
2542 9 701 692 702 704
2543 3 697 695 693 694
2544 3 693 695 697 698
2545 1 693 695 697 699
2546 5 696 695 697 698
2547 20 694 693 691 692
2548 21 695 693 691 692
2549 3 691 693 695 696
2550 1 691 693 695 697
2551 5 694 693 695 696
2552 3 699 697 695 696
2553 1 695 697 699 689
2554 3 695 697 699 700
2555 5 698 697 699 700
2556 3 693 691 689 690
2557 6 689 691 692 701
2558 7 689 691 692 702
2559 6 693 691 692 701
2560 7 693 691 692 702
2561 3 689 691 693 694
2562 1 689 691 693 695
2563 3 697 699 689 690
2564 3 689 699 697 698
2565 20 690 689 691 692
2566 21 699 689 691 692
2567 1 699 689 691 693
2568 5 690 689 699 700
2569 1 691 689 699 697
2570 3 691 689 699 700
2571 3 939 937 935 936
2572 1 935 937 939 929
2573 3 935 937 939 940
2574 5 938 937 939 940
2575 3 937 935 933 934
2576 3 933 935 937 938
2577 1 933 935 937 939
2578 5 936 935 937 938
2579 3 937 939 929 930
2580 3 929 939 937 938
2581 20 934 933 931 932
2582 21 935 933 931 932
2583 3 931 933 935 936
2584 1 931 933 935 937
2585 5 934 933 935 936
2586 8 931 932 942 943
2587 8 931 932 942 944
2588 9 941 932 942 943
2589 9 941 932 942 944
2590 3 933 931 929 930
2591 6 929 931 932 941
2592 7 929 931 932 942
2593 6 933 931 932 941
2594 7 933 931 932 942
2595 3 929 931 933 934
2596 1 929 931 933 935
2597 20 2950 2949 2947 2948
2598 21 2951 2949 2947 2948
2599 3 2947 2949 2951 2952
2600 1 2947 2949 2951 2953
2601 5 2950 2949 2951 2952
2602 8 2947 2948 2958 2959
2603 8 2947 2948 2958 2960
2604 9 2957 2948 2958 2959
2605 9 2957 2948 2958 2960
2606 20 930 929 931 932
2607 21 939 929 931 932
2608 1 939 929 931 933
2609 5 930 929 939 940
2610 1 931 929 939 937
2611 3 931 929 939 940
2612 8 1555 1556 1566 1567
2613 8 1555 1556 1566 1568
2614 9 1565 1556 1566 1567
2615 9 1565 1556 1566 1568
2616 1 98 122 125 124
2617 1 98 122 125 128
2618 1 121 122 125 124
2619 1 121 122 125 128
2620 1 122 125 128 57
2621 1 122 125 128 105
2622 1 124 125 128 57
2623 1 124 125 128 105
2624 1 120 124 125 122
2625 1 120 124 125 128
2626 1 127 124 125 122
2627 1 127 124 125 128
2628 1 120 124 127 55
2629 1 120 124 127 126
2630 1 125 124 127 55
2631 1 125 124 127 126
2632 1 113 123 126 53
2633 1 113 123 126 127
2634 1 118 123 126 53
2635 1 118 123 126 127
2636 1 53 126 127 55
2637 1 53 126 127 124
2638 1 123 126 127 55
2639 1 123 126 127 124
2640 1 117 118 120 119
2641 1 117 118 120 124
2642 1 123 118 120 119
2643 1 123 118 120 124
2644 1 117 118 123 113
2645 1 117 118 123 126
2646 1 120 118 123 113
2647 1 120 118 123 126
2648 1 118 120 124 125
2649 1 118 120 124 127
2650 1 119 120 124 125
2651 1 119 120 124 127
2652 1 119 121 122 98
2653 1 119 121 122 125
2654 1 192 121 122 98
2655 1 192 121 122 125
2656 1 119 121 192 169
2657 1 119 121 192 189
2658 1 122 121 192 169
2659 1 122 121 192 189
2660 1 120 119 121 122
2661 1 120 119 121 192
2662 1 191 119 121 122
2663 1 191 119 121 192
2664 1 121 119 120 118
2665 1 121 119 120 124
2666 1 191 119 120 118
2667 1 191 119 120 124
2668 1 121 119 191 188
2669 1 121 119 191 190
2670 1 120 119 191 188
2671 1 120 119 191 190
2672 1 108 117 118 120
2673 1 108 117 118 123
2674 1 190 117 118 120
2675 1 190 117 118 123
2676 1 108 117 190 187
2677 1 108 117 190 191
2678 1 118 117 190 187
2679 1 118 117 190 191
2680 1 117 190 191 119
2681 1 117 190 191 188
2682 1 187 190 191 119
2683 1 187 190 191 188
2684 1 186 189 192 121
2685 1 186 189 192 169
2686 1 188 189 192 121
2687 1 188 189 192 169
2688 1 184 188 189 186
2689 1 184 188 189 192
2690 1 191 188 189 186
2691 1 191 188 189 192
2692 1 184 188 191 119
2693 1 184 188 191 190
2694 1 189 188 191 119
2695 1 189 188 191 190
2696 1 177 187 190 117
2697 1 177 187 190 191
2698 1 182 187 190 117
2699 1 182 187 190 191
2700 1 111 113 116 44
2701 1 111 113 116 115
2702 1 123 113 116 44
2703 1 123 113 116 115
2704 1 111 113 123 118
2705 1 111 113 123 126
2706 1 116 113 123 118
2707 1 116 113 123 126
2708 1 117 108 111 110
2709 1 117 108 111 113
2710 1 180 108 111 110
2711 1 180 108 111 113
2712 1 111 108 117 118
2713 1 111 108 117 190
2714 1 180 108 117 118
2715 1 180 108 117 190
2716 1 111 108 180 177
2717 1 111 108 180 179
2718 1 117 108 180 177
2719 1 117 108 180 179
2720 1 175 177 180 108
2721 1 175 177 180 179
2722 1 187 177 180 108
2723 1 187 177 180 179
2724 1 175 177 187 182
2725 1 175 177 187 190
2726 1 180 177 187 182
2727 1 180 177 187 190
2728 8 1075 1076 1086 1087
2729 8 1075 1076 1086 1088
2730 9 1085 1076 1086 1087
2731 9 1085 1076 1086 1088
2732 1 41 64 185 183
2733 1 41 64 185 186
2734 1 61 64 185 183
2735 1 61 64 185 186
2736 1 162 186 189 188
2737 1 162 186 189 192
2738 1 185 186 189 188
2739 1 185 186 189 192
2740 1 55 57 58 34
2741 1 55 57 58 61
2742 1 128 57 58 34
2743 1 128 57 58 61
2744 1 55 57 128 105
2745 1 55 57 128 125
2746 1 58 57 128 105
2747 1 58 57 128 125
2748 1 56 55 57 58
2749 1 56 55 57 128
2750 1 127 55 57 58
2751 1 127 55 57 128
2752 1 57 55 56 54
2753 1 57 55 56 60
2754 1 127 55 56 54
2755 1 127 55 56 60
2756 1 57 55 127 124
2757 1 57 55 127 126
2758 1 56 55 127 124
2759 1 56 55 127 126
2760 1 44 53 54 56
2761 1 44 53 54 59
2762 1 126 53 54 56
2763 1 126 53 54 59
2764 1 44 53 126 123
2765 1 44 53 126 127
2766 1 54 53 126 123
2767 1 54 53 126 127
2768 1 34 58 61 60
2769 1 34 58 61 64
2770 1 57 58 61 60
2771 1 57 58 61 64
2772 1 53 54 56 55
2773 1 53 54 56 60
2774 1 59 54 56 55
2775 1 59 54 56 60
2776 1 53 54 59 49
2777 1 53 54 59 62
2778 1 56 54 59 49
2779 1 56 54 59 62
2780 1 54 56 60 61
2781 1 54 56 60 63
2782 1 55 56 60 61
2783 1 55 56 60 63
2784 1 58 61 64 41
2785 1 58 61 64 185
2786 1 60 61 64 41
2787 1 60 61 64 185
2788 1 56 60 61 58
2789 1 56 60 61 64
2790 1 63 60 61 58
2791 1 63 60 61 64
2792 1 56 60 63 62
2793 1 56 60 63 183
2794 1 61 60 63 62
2795 1 61 60 63 183
2796 1 49 59 62 63
2797 1 49 59 62 181
2798 1 54 59 62 63
2799 1 54 59 62 181
2800 1 63 183 185 64
2801 1 63 183 185 186
2802 1 184 183 185 64
2803 1 184 183 185 186
2804 1 63 183 184 182
2805 1 63 183 184 188
2806 1 185 183 184 182
2807 1 185 183 184 188
2808 1 64 185 186 162
2809 1 64 185 186 189
2810 1 183 185 186 162
2811 1 183 185 186 189
2812 1 59 62 63 60
2813 1 59 62 63 183
2814 1 181 62 63 60
2815 1 181 62 63 183
2816 1 59 62 181 172
2817 1 59 62 181 182
2818 1 63 62 181 172
2819 1 63 62 181 182
2820 1 62 181 182 184
2821 1 62 181 182 187
2822 1 172 181 182 184
2823 1 172 181 182 187
2824 1 181 182 184 183
2825 1 181 182 184 188
2826 1 187 182 184 183
2827 1 187 182 184 188
2828 1 181 182 187 177
2829 1 181 182 187 190
2830 1 184 182 187 177
2831 1 184 182 187 190
2832 1 60 63 183 185
2833 1 60 63 183 184
2834 1 62 63 183 185
2835 1 62 63 183 184
2836 1 182 184 188 189
2837 1 182 184 188 191
2838 1 183 184 188 189
2839 1 183 184 188 191
2840 1 53 44 47 46
2841 1 53 44 47 49
2842 1 116 44 47 46
2843 1 116 44 47 49
2844 1 47 44 53 54
2845 1 47 44 53 126
2846 1 116 44 53 54
2847 1 116 44 53 126
2848 1 47 44 116 113
2849 1 47 44 116 115
2850 1 53 44 116 113
2851 1 53 44 116 115
2852 1 52 172 175 174
2853 1 52 172 175 177
2854 1 181 172 175 174
2855 1 181 172 175 177
2856 1 52 172 181 62
2857 1 52 172 181 182
2858 1 175 172 181 62
2859 1 175 172 181 182
2860 1 47 49 52 51
2861 1 47 49 52 172
2862 1 59 49 52 51
2863 1 59 49 52 172
2864 1 47 49 59 54
2865 1 47 49 59 62
2866 1 52 49 59 54
2867 1 52 49 59 62
2868 1 108 111 113 116
2869 1 108 111 113 123
2870 1 110 111 113 116
2871 1 110 111 113 123
2872 3 2137 2139 2129 2130
2873 3 2129 2139 2137 2138
2874 1 110 114 115 45
2875 1 110 114 115 116
2876 1 112 114 115 45
2877 1 112 114 115 116
2878 1 45 115 116 44
2879 1 45 115 116 113
2880 1 114 115 116 44
2881 1 114 115 116 113
2882 1 109 110 111 108
2883 1 109 110 111 113
2884 1 114 110 111 108
2885 1 114 110 111 113
2886 1 109 110 114 112
2887 1 109 110 114 115
2888 1 111 110 114 112
2889 1 111 110 114 115
2890 1 107 109 110 111
2891 1 107 109 110 114
2892 1 179 109 110 111
2893 1 179 109 110 114
2894 1 107 109 179 178
2895 1 107 109 179 180
2896 1 110 109 179 178
2897 1 110 109 179 180
2898 1 109 179 180 108
2899 1 109 179 180 177
2900 1 178 179 180 108
2901 1 178 179 180 177
2902 1 174 178 179 109
2903 1 174 178 179 180
2904 1 176 178 179 109
2905 1 176 178 179 180
2906 20 2130 2129 2131 2132
2907 21 2139 2129 2131 2132
2908 1 2139 2129 2131 2133
2909 5 2130 2129 2139 2140
2910 1 2131 2129 2139 2137
2911 3 2131 2129 2139 2140
2912 8 2723 2724 2734 2735
2913 8 2723 2724 2734 2736
2914 9 2733 2724 2734 2735
2915 9 2733 2724 2734 2736
2916 20 2722 2721 2723 2724
2917 21 2731 2721 2723 2724
2918 1 2731 2721 2723 2725
2919 5 2722 2721 2731 2732
2920 1 2723 2721 2731 2729
2921 3 2723 2721 2731 2732
2922 3 2725 2723 2721 2722
2923 6 2721 2723 2724 2733
2924 7 2721 2723 2724 2734
2925 6 2725 2723 2724 2733
2926 7 2725 2723 2724 2734
2927 3 2721 2723 2725 2726
2928 1 2721 2723 2725 2727
2929 1 44 47 49 52
2930 1 44 47 49 59
2931 1 46 47 49 52
2932 1 46 47 49 59
2933 3 2731 2729 2727 2728
2934 1 2727 2729 2731 2721
2935 3 2727 2729 2731 2732
2936 5 2730 2729 2731 2732
2937 1 49 52 172 175
2938 1 49 52 172 181
2939 1 51 52 172 175
2940 1 51 52 172 181
2941 1 172 175 177 180
2942 1 172 175 177 187
2943 1 174 175 177 180
2944 1 174 175 177 187
2945 3 2729 2731 2721 2722
2946 3 2721 2731 2729 2730
2947 3 2729 2727 2725 2726
2948 3 2725 2727 2729 2730
2949 1 2725 2727 2729 2731
2950 5 2728 2727 2729 2730
2951 20 2726 2725 2723 2724
2952 21 2727 2725 2723 2724
2953 3 2723 2725 2727 2728
2954 1 2723 2725 2727 2729
2955 5 2726 2725 2727 2728
2956 1 43 45 46 47
2957 1 43 45 46 50
2958 1 115 45 46 47
2959 1 115 45 46 50
2960 1 43 45 115 114
2961 1 43 45 115 116
2962 1 46 45 115 114
2963 1 46 45 115 116
2964 1 45 46 47 44
2965 1 45 46 47 49
2966 1 50 46 47 44
2967 1 50 46 47 49
2968 1 45 46 50 48
2969 1 45 46 50 51
2970 1 47 46 50 48
2971 1 47 46 50 51
2972 1 46 50 51 52
2973 1 46 50 51 173
2974 1 48 50 51 52
2975 1 48 50 51 173
2976 1 173 174 175 172
2977 1 173 174 175 177
2978 1 178 174 175 172
2979 1 178 174 175 177
2980 1 173 174 178 176
2981 1 173 174 178 179
2982 1 175 174 178 176
2983 1 175 174 178 179
2984 1 50 51 52 49
2985 1 50 51 52 172
2986 1 173 51 52 49
2987 1 173 51 52 172
2988 1 50 51 173 171
2989 1 50 51 173 174
2990 1 52 51 173 171
2991 1 52 51 173 174
2992 1 51 173 174 175
2993 1 51 173 174 178
2994 1 171 173 174 175
2995 1 171 173 174 178
2996 20 786 785 787 788
2997 21 795 785 787 788
2998 1 795 785 787 789
2999 5 786 785 795 796
3000 1 787 785 795 793
3001 3 787 785 795 796
3002 3 2267 2265 2263 2264
3003 1 2263 2265 2267 2257
3004 3 2263 2265 2267 2268
3005 5 2266 2265 2267 2268
3006 3 2265 2263 2261 2262
3007 3 2261 2263 2265 2266
3008 1 2261 2263 2265 2267
3009 5 2264 2263 2265 2266
3010 3 3205 3203 3201 3202
3011 6 3201 3203 3204 3213
3012 7 3201 3203 3204 3214
3013 6 3205 3203 3204 3213
3014 7 3205 3203 3204 3214
3015 3 3201 3203 3205 3206
3016 1 3201 3203 3205 3207
3017 8 3203 3204 3214 3215
3018 8 3203 3204 3214 3216
3019 9 3213 3204 3214 3215
3020 9 3213 3204 3214 3216
3021 20 2262 2261 2259 2260
3022 21 2263 2261 2259 2260
3023 3 2259 2261 2263 2264
3024 1 2259 2261 2263 2265
3025 5 2262 2261 2263 2264
3026 8 787 788 798 799
3027 8 787 788 798 800
3028 9 797 788 798 799
3029 9 797 788 798 800
3030 3 2873 2875 2865 2866
3031 3 2865 2875 2873 2874
3032 3 2875 2873 2871 2872
3033 1 2871 2873 2875 2865
3034 3 2871 2873 2875 2876
3035 5 2874 2873 2875 2876
3036 20 2866 2865 2867 2868
3037 21 2875 2865 2867 2868
3038 1 2875 2865 2867 2869
3039 5 2866 2865 2875 2876
3040 1 2867 2865 2875 2873
3041 3 2867 2865 2875 2876
3042 20 2870 2869 2867 2868
3043 21 2871 2869 2867 2868
3044 3 2867 2869 2871 2872
3045 1 2867 2869 2871 2873
3046 5 2870 2869 2871 2872
3047 3 2869 2867 2865 2866
3048 6 2865 2867 2868 2877
3049 7 2865 2867 2868 2878
3050 6 2869 2867 2868 2877
3051 7 2869 2867 2868 2878
3052 3 2865 2867 2869 2870
3053 1 2865 2867 2869 2871
3054 3 2873 2871 2869 2870
3055 3 2869 2871 2873 2874
3056 1 2869 2871 2873 2875
3057 5 2872 2871 2873 2874
3058 8 2867 2868 2878 2879
3059 8 2867 2868 2878 2880
3060 9 2877 2868 2878 2879
3061 9 2877 2868 2878 2880
3062 20 790 789 787 788
3063 21 791 789 787 788
3064 3 787 789 791 792
3065 1 787 789 791 793
3066 5 790 789 791 792
3067 3 789 787 785 786
3068 6 785 787 788 797
3069 7 785 787 788 798
3070 6 789 787 788 797
3071 7 789 787 788 798
3072 3 785 787 789 790
3073 1 785 787 789 791
3074 20 2390 2389 2387 2388
3075 21 2391 2389 2387 2388
3076 3 2387 2389 2391 2392
3077 1 2387 2389 2391 2393
3078 5 2390 2389 2391 2392
3079 3 2393 2391 2389 2390
3080 3 2389 2391 2393 2394
3081 1 2389 2391 2393 2395
3082 5 2392 2391 2393 2394
3083 3 2393 2395 2385 2386
3084 3 2385 2395 2393 2394
3085 8 2387 2388 2398 2399
3086 8 2387 2388 2398 2400
3087 9 2397 2388 2398 2399
3088 9 2397 2388 2398 2400
3089 20 2386 2385 2387 2388
3090 21 2395 2385 2387 2388
3091 1 2395 2385 2387 2389
3092 5 2386 2385 2395 2396
3093 1 2387 2385 2395 2393
3094 3 2387 2385 2395 2396
3095 3 2389 2387 2385 2386
3096 6 2385 2387 2388 2397
3097 7 2385 2387 2388 2398
3098 6 2389 2387 2388 2397
3099 7 2389 2387 2388 2398
3100 3 2385 2387 2389 2390
3101 1 2385 2387 2389 2391
3102 3 953 955 945 946
3103 3 945 955 953 954
3104 3 955 953 951 952
3105 1 951 953 955 945
3106 3 951 953 955 956
3107 5 954 953 955 956
3108 3 953 951 949 950
3109 3 949 951 953 954
3110 1 949 951 953 955
3111 5 952 951 953 954
3112 20 946 945 947 948
3113 21 955 945 947 948
3114 1 955 945 947 949
3115 5 946 945 955 956
3116 1 947 945 955 953
3117 3 947 945 955 956
3118 3 2395 2393 2391 2392
3119 1 2391 2393 2395 2385
3120 3 2391 2393 2395 2396
3121 5 2394 2393 2395 2396
3122 3 3355 3353 3351 3352
3123 1 3351 3353 3355 3345
3124 3 3351 3353 3355 3356
3125 5 3354 3353 3355 3356
3126 3 3353 3351 3349 3350
3127 3 3349 3351 3353 3354
3128 1 3349 3351 3353 3355
3129 5 3352 3351 3353 3354
3130 20 1298 1297 1299 1300
3131 21 1307 1297 1299 1300
3132 1 1307 1297 1299 1301
3133 5 1298 1297 1307 1308
3134 1 1299 1297 1307 1305
3135 3 1299 1297 1307 1308
3136 3 1307 1305 1303 1304
3137 1 1303 1305 1307 1297
3138 3 1303 1305 1307 1308
3139 5 1306 1305 1307 1308
3140 3 1305 1307 1297 1298
3141 3 1297 1307 1305 1306
3142 8 2931 2932 2942 2943
3143 8 2931 2932 2942 2944
3144 9 2941 2932 2942 2943
3145 9 2941 2932 2942 2944
3146 3 3353 3355 3345 3346
3147 3 3345 3355 3353 3354
3148 20 3122 3121 3123 3124
3149 21 3131 3121 3123 3124
3150 1 3131 3121 3123 3125
3151 5 3122 3121 3131 3132
3152 1 3123 3121 3131 3129
3153 3 3123 3121 3131 3132
3154 3 3129 3131 3121 3122
3155 3 3121 3131 3129 3130
3156 3 857 859 849 850
3157 3 849 859 857 858
3158 20 850 849 851 852
3159 21 859 849 851 852
3160 1 859 849 851 853
3161 5 850 849 859 860
3162 1 851 849 859 857
3163 3 851 849 859 860
3164 3 2277 2275 2273 2274
3165 6 2273 2275 2276 2285
3166 7 2273 2275 2276 2286
3167 6 2277 2275 2276 2285
3168 7 2277 2275 2276 2286
3169 3 2273 2275 2277 2278
3170 1 2273 2275 2277 2279
3171 3 2281 2279 2277 2278
3172 3 2277 2279 2281 2282
3173 1 2277 2279 2281 2283
3174 5 2280 2279 2281 2282
3175 20 2278 2277 2275 2276
3176 21 2279 2277 2275 2276
3177 3 2275 2277 2279 2280
3178 1 2275 2277 2279 2281
3179 5 2278 2277 2279 2280
3180 3 2283 2281 2279 2280
3181 1 2279 2281 2283 2273
3182 3 2279 2281 2283 2284
3183 5 2282 2281 2283 2284
3184 8 2275 2276 2286 2287
3185 8 2275 2276 2286 2288
3186 9 2285 2276 2286 2287
3187 9 2285 2276 2286 2288
3188 20 2274 2273 2275 2276
3189 21 2283 2273 2275 2276
3190 1 2283 2273 2275 2277
3191 5 2274 2273 2283 2284
3192 1 2275 2273 2283 2281
3193 3 2275 2273 2283 2284
3194 3 2281 2283 2273 2274
3195 3 2273 2283 2281 2282
3196 8 851 852 862 863
3197 8 851 852 862 864
3198 9 861 852 862 863
3199 9 861 852 862 864
3200 3 859 857 855 856
3201 1 855 857 859 849
3202 3 855 857 859 860
3203 5 858 857 859 860
3204 3 857 855 853 854
3205 3 853 855 857 858
3206 1 853 855 857 859
3207 5 856 855 857 858
3208 20 854 853 851 852
3209 21 855 853 851 852
3210 3 851 853 855 856
3211 1 851 853 855 857
3212 5 854 853 855 856
3213 3 853 851 849 850
3214 6 849 851 852 861
3215 7 849 851 852 862
3216 6 853 851 852 861
3217 7 853 851 852 862
3218 3 849 851 853 854
3219 1 849 851 853 855
3220 3 2933 2931 2929 2930
3221 6 2929 2931 2932 2941
3222 7 2929 2931 2932 2942
3223 6 2933 2931 2932 2941
3224 7 2933 2931 2932 2942
3225 3 2929 2931 2933 2934
3226 1 2929 2931 2933 2935
3227 20 2934 2933 2931 2932
3228 21 2935 2933 2931 2932
3229 3 2931 2933 2935 2936
3230 1 2931 2933 2935 2937
3231 5 2934 2933 2935 2936
3232 20 2930 2929 2931 2932
3233 21 2939 2929 2931 2932
3234 1 2939 2929 2931 2933
3235 5 2930 2929 2939 2940
3236 1 2931 2929 2939 2937
3237 3 2931 2929 2939 2940
3238 3 2937 2935 2933 2934
3239 3 2933 2935 2937 2938
3240 1 2933 2935 2937 2939
3241 5 2936 2935 2937 2938
3242 3 2937 2939 2929 2930
3243 3 2929 2939 2937 2938
3244 3 2939 2937 2935 2936
3245 1 2935 2937 2939 2929
3246 3 2935 2937 2939 2940
3247 5 2938 2937 2939 2940
3248 20 902 901 899 900
3249 21 903 901 899 900
3250 3 899 901 903 904
3251 1 899 901 903 905
3252 5 902 901 903 904
3253 3 905 903 901 902
3254 3 901 903 905 906
3255 1 901 903 905 907
3256 5 904 903 905 906
3257 8 899 900 910 911
3258 8 899 900 910 912
3259 9 909 900 910 911
3260 9 909 900 910 912
3261 3 901 899 897 898
3262 6 897 899 900 909
3263 7 897 899 900 910
3264 6 901 899 900 909
3265 7 901 899 900 910
3266 3 897 899 901 902
3267 1 897 899 901 903
3268 3 907 905 903 904
3269 1 903 905 907 897
3270 3 903 905 907 908
3271 5 906 905 907 908
3272 20 898 897 899 900
3273 21 907 897 899 900
3274 1 907 897 899 901
3275 5 898 897 907 908
3276 1 899 897 907 905
3277 3 899 897 907 908
3278 3 905 907 897 898
3279 3 897 907 905 906
3280 8 515 516 526 527
3281 8 515 516 526 528
3282 9 525 516 526 527
3283 9 525 516 526 528
3284 8 2419 2420 2430 2431
3285 8 2419 2420 2430 2432
3286 9 2429 2420 2430 2431
3287 9 2429 2420 2430 2432
3288 3 2421 2419 2417 2418
3289 6 2417 2419 2420 2429
3290 7 2417 2419 2420 2430
3291 6 2421 2419 2420 2429
3292 7 2421 2419 2420 2430
3293 3 2417 2419 2421 2422
3294 1 2417 2419 2421 2423
3295 20 2422 2421 2419 2420
3296 21 2423 2421 2419 2420
3297 3 2419 2421 2423 2424
3298 1 2419 2421 2423 2425
3299 5 2422 2421 2423 2424
3300 20 2246 2245 2243 2244
3301 21 2247 2245 2243 2244
3302 3 2243 2245 2247 2248
3303 1 2243 2245 2247 2249
3304 5 2246 2245 2247 2248
3305 20 2418 2417 2419 2420
3306 21 2427 2417 2419 2420
3307 1 2427 2417 2419 2421
3308 5 2418 2417 2427 2428
3309 1 2419 2417 2427 2425
3310 3 2419 2417 2427 2428
3311 3 2425 2427 2417 2418
3312 3 2417 2427 2425 2426
3313 3 2427 2425 2423 2424
3314 1 2423 2425 2427 2417
3315 3 2423 2425 2427 2428
3316 5 2426 2425 2427 2428
3317 3 2425 2423 2421 2422
3318 3 2421 2423 2425 2426
3319 1 2421 2423 2425 2427
3320 5 2424 2423 2425 2426
3321 3 517 515 513 514
3322 6 513 515 516 525
3323 7 513 515 516 526
3324 6 517 515 516 525
3325 7 517 515 516 526
3326 3 513 515 517 518
3327 1 513 515 517 519
3328 3 2249 2247 2245 2246
3329 3 2245 2247 2249 2250
3330 1 2245 2247 2249 2251
3331 5 2248 2247 2249 2250
3332 20 518 517 515 516
3333 21 519 517 515 516
3334 3 515 517 519 520
3335 1 515 517 519 521
3336 5 518 517 519 520
3337 3 2251 2249 2247 2248
3338 1 2247 2249 2251 2241
3339 3 2247 2249 2251 2252
3340 5 2250 2249 2251 2252
3341 3 491 489 487 488
3342 1 487 489 491 481
3343 3 487 489 491 492
3344 5 490 489 491 492
3345 3 489 491 481 482
3346 3 481 491 489 490
3347 3 3157 3155 3153 3154
3348 6 3153 3155 3156 3165
3349 7 3153 3155 3156 3166
3350 6 3157 3155 3156 3165
3351 7 3157 3155 3156 3166
3352 3 3153 3155 3157 3158
3353 1 3153 3155 3157 3159
3354 20 3154 3153 3155 3156
3355 21 3163 3153 3155 3156
3356 1 3163 3153 3155 3157
3357 5 3154 3153 3163 3164
3358 1 3155 3153 3163 3161
3359 3 3155 3153 3163 3164
3360 20 3158 3157 3155 3156
3361 21 3159 3157 3155 3156
3362 3 3155 3157 3159 3160
3363 1 3155 3157 3159 3161
3364 5 3158 3157 3159 3160
3365 20 482 481 483 484
3366 21 491 481 483 484
3367 1 491 481 483 485
3368 5 482 481 491 492
3369 1 483 481 491 489
3370 3 483 481 491 492
3371 3 3161 3163 3153 3154
3372 3 3153 3163 3161 3162
3373 3 3163 3161 3159 3160
3374 1 3159 3161 3163 3153
3375 3 3159 3161 3163 3164
3376 5 3162 3161 3163 3164
3377 3 489 487 485 486
3378 3 485 487 489 490
3379 1 485 487 489 491
3380 5 488 487 489 490
3381 20 486 485 483 484
3382 21 487 485 483 484
3383 3 483 485 487 488
3384 1 483 485 487 489
3385 5 486 485 487 488
3386 8 3155 3156 3166 3167
3387 8 3155 3156 3166 3168
3388 9 3165 3156 3166 3167
3389 9 3165 3156 3166 3168
3390 3 485 483 481 482
3391 6 481 483 484 493
3392 7 481 483 484 494
3393 6 485 483 484 493
3394 7 485 483 484 494
3395 3 481 483 485 486
3396 1 481 483 485 487
3397 3 2089 2091 2081 2082
3398 3 2081 2091 2089 2090
3399 3 2091 2089 2087 2088
3400 1 2087 2089 2091 2081
3401 3 2087 2089 2091 2092
3402 5 2090 2089 2091 2092
3403 20 2082 2081 2083 2084
3404 21 2091 2081 2083 2084
3405 1 2091 2081 2083 2085
3406 5 2082 2081 2091 2092
3407 1 2083 2081 2091 2089
3408 3 2083 2081 2091 2092
3409 3 2089 2087 2085 2086
3410 3 2085 2087 2089 2090
3411 1 2085 2087 2089 2091
3412 5 2088 2087 2089 2090
3413 20 1890 1889 1891 1892
3414 21 1899 1889 1891 1892
3415 1 1899 1889 1891 1893
3416 5 1890 1889 1899 1900
3417 1 1891 1889 1899 1897
3418 3 1891 1889 1899 1900
3419 20 1894 1893 1891 1892
3420 21 1895 1893 1891 1892
3421 3 1891 1893 1895 1896
3422 1 1891 1893 1895 1897
3423 5 1894 1893 1895 1896
3424 3 1893 1891 1889 1890
3425 6 1889 1891 1892 1901
3426 7 1889 1891 1892 1902
3427 6 1893 1891 1892 1901
3428 7 1893 1891 1892 1902
3429 3 1889 1891 1893 1894
3430 1 1889 1891 1893 1895
3431 3 1897 1899 1889 1890
3432 3 1889 1899 1897 1898
3433 3 1851 1849 1847 1848
3434 1 1847 1849 1851 1841
3435 3 1847 1849 1851 1852
3436 5 1850 1849 1851 1852
3437 3 1849 1847 1845 1846
3438 3 1845 1847 1849 1850
3439 1 1845 1847 1849 1851
3440 5 1848 1847 1849 1850
3441 3 1897 1895 1893 1894
3442 3 1893 1895 1897 1898
3443 1 1893 1895 1897 1899
3444 5 1896 1895 1897 1898
3445 3 1899 1897 1895 1896
3446 1 1895 1897 1899 1889
3447 3 1895 1897 1899 1900
3448 5 1898 1897 1899 1900
3449 3 3189 3187 3185 3186
3450 6 3185 3187 3188 3197
3451 7 3185 3187 3188 3198
3452 6 3189 3187 3188 3197
3453 7 3189 3187 3188 3198
3454 3 3185 3187 3189 3190
3455 1 3185 3187 3189 3191
3456 8 483 484 494 495
3457 8 483 484 494 496
3458 9 493 484 494 495
3459 9 493 484 494 496
3460 20 418 417 419 420
3461 21 427 417 419 420
3462 1 427 417 419 421
3463 5 418 417 427 428
3464 1 419 417 427 425
3465 3 419 417 427 428
3466 3 425 427 417 418
3467 3 417 427 425 426
3468 8 1843 1844 1854 1855
3469 8 1843 1844 1854 1856
3470 9 1853 1844 1854 1855
3471 9 1853 1844 1854 1856
3472 3 1845 1843 1841 1842
3473 6 1841 1843 1844 1853
3474 7 1841 1843 1844 1854
3475 6 1845 1843 1844 1853
3476 7 1845 1843 1844 1854
3477 3 1841 1843 1845 1846
3478 1 1841 1843 1845 1847
3479 20 1846 1845 1843 1844
3480 21 1847 1845 1843 1844
3481 3 1843 1845 1847 1848
3482 1 1843 1845 1847 1849
3483 5 1846 1845 1847 1848
3484 20 2946 2945 2947 2948
3485 21 2955 2945 2947 2948
3486 1 2955 2945 2947 2949
3487 5 2946 2945 2955 2956
3488 1 2947 2945 2955 2953
3489 3 2947 2945 2955 2956
3490 3 2953 2955 2945 2946
3491 3 2945 2955 2953 2954
3492 3 421 419 417 418
3493 6 417 419 420 429
3494 7 417 419 420 430
3495 6 421 419 420 429
3496 7 421 419 420 430
3497 3 417 419 421 422
3498 1 417 419 421 423
3499 8 3187 3188 3198 3199
3500 8 3187 3188 3198 3200
3501 9 3197 3188 3198 3199
3502 9 3197 3188 3198 3200
3503 1 98 101 102 97
3504 1 98 101 102 104
3505 1 105 101 102 97
3506 1 105 101 102 104
3507 1 98 101 105 31
3508 1 98 101 105 128
3509 1 102 101 105 31
3510 1 102 101 105 128
3511 1 31 105 128 57
3512 1 31 105 128 125
3513 1 101 105 128 57
3514 1 101 105 128 125
3515 1 95 98 122 121
3516 1 95 98 122 125
3517 1 101 98 122 121
3518 1 101 98 122 125
3519 1 95 98 101 102
3520 1 95 98 101 105
3521 1 122 98 101 102
3522 1 122 98 101 105
3523 1 98 95 96 97
3524 1 98 95 96 168
3525 1 169 95 96 97
3526 1 169 95 96 168
3527 1 96 95 98 122
3528 1 96 95 98 101
3529 1 169 95 98 122
3530 1 169 95 98 101
3531 1 96 95 169 165
3532 1 96 95 169 192
3533 1 98 95 169 165
3534 1 98 95 169 192
3535 1 95 169 192 121
3536 1 95 169 192 189
3537 1 165 169 192 121
3538 1 165 169 192 189
3539 1 162 165 166 161
3540 1 162 165 166 168
3541 1 169 165 166 161
3542 1 169 165 166 168
3543 1 162 165 169 95
3544 1 162 165 169 192
3545 1 166 165 169 95
3546 1 166 165 169 192
3547 1 97 102 104 32
3548 1 97 102 104 106
3549 1 101 102 104 32
3550 1 101 102 104 106
3551 1 32 104 106 35
3552 1 32 104 106 103
3553 1 102 104 106 35
3554 1 102 104 106 103
3555 1 96 97 102 101
3556 1 96 97 102 104
3557 1 100 97 102 101
3558 1 100 97 102 104
3559 1 96 97 100 99
3560 1 96 97 100 103
3561 1 102 97 100 99
3562 1 102 97 100 103
3563 1 95 96 97 102
3564 1 95 96 97 100
3565 1 168 96 97 102
3566 1 168 96 97 100
3567 1 95 96 168 166
3568 1 95 96 168 170
3569 1 97 96 168 166
3570 1 97 96 168 170
3571 1 78 103 106 35
3572 1 78 103 106 104
3573 1 100 103 106 35
3574 1 100 103 106 104
3575 1 97 100 103 78
3576 1 97 100 103 106
3577 1 99 100 103 78
3578 1 99 100 103 106
3579 1 74 99 170 167
3580 1 74 99 170 168
3581 1 100 99 170 167
3582 1 100 99 170 168
3583 1 74 99 100 97
3584 1 74 99 100 103
3585 1 170 99 100 97
3586 1 170 99 100 103
3587 1 96 168 170 99
3588 1 96 168 170 167
3589 1 166 168 170 99
3590 1 166 168 170 167
3591 1 161 166 168 96
3592 1 161 166 168 170
3593 1 165 166 168 96
3594 1 165 166 168 170
3595 1 142 167 170 99
3596 1 142 167 170 168
3597 1 164 167 170 99
3598 1 164 167 170 168
3599 20 3190 3189 3187 3188
3600 21 3191 3189 3187 3188
3601 3 3187 3189 3191 3192
3602 1 3187 3189 3191 3193
3603 5 3190 3189 3191 3192
3604 3 2949 2947 2945 2946
3605 6 2945 2947 2948 2957
3606 7 2945 2947 2948 2958
3607 6 2949 2947 2948 2957
3608 7 2949 2947 2948 2958
3609 3 2945 2947 2949 2950
3610 1 2945 2947 2949 2951
3611 3 2953 2951 2949 2950
3612 3 2949 2951 2953 2954
3613 1 2949 2951 2953 2955
3614 5 2952 2951 2953 2954
3615 3 427 425 423 424
3616 1 423 425 427 417
3617 3 423 425 427 428
3618 5 426 425 427 428
3619 1 34 31 32 33
3620 1 34 31 32 104
3621 1 105 31 32 33
3622 1 105 31 32 104
3623 1 32 31 34 58
3624 1 32 31 34 37
3625 1 105 31 34 58
3626 1 105 31 34 37
3627 1 32 31 105 101
3628 1 32 31 105 128
3629 1 34 31 105 101
3630 1 34 31 105 128
3631 1 31 34 58 57
3632 1 31 34 58 61
3633 1 37 34 58 57
3634 1 37 34 58 61
3635 1 31 34 37 38
3636 1 31 34 37 41
3637 1 58 34 37 38
3638 1 58 34 37 41
3639 1 34 37 38 33
3640 1 34 37 38 40
3641 1 41 37 38 33
3642 1 41 37 38 40
3643 1 34 37 41 64
3644 1 34 37 41 159
3645 1 38 37 41 64
3646 1 38 37 41 159
3647 1 37 41 64 61
3648 1 37 41 64 185
3649 1 159 41 64 61
3650 1 159 41 64 185
3651 1 37 41 159 160
3652 1 37 41 159 162
3653 1 64 41 159 160
3654 1 64 41 159 162
3655 1 41 159 160 40
3656 1 41 159 160 161
3657 1 162 159 160 40
3658 1 162 159 160 161
3659 1 41 159 162 186
3660 1 41 159 162 165
3661 1 160 159 162 186
3662 1 160 159 162 165
3663 1 159 162 186 185
3664 1 159 162 186 189
3665 1 165 162 186 185
3666 1 165 162 186 189
3667 1 159 162 165 166
3668 1 159 162 165 169
3669 1 186 162 165 166
3670 1 186 162 165 169
3671 3 2955 2953 2951 2952
3672 1 2951 2953 2955 2945
3673 3 2951 2953 2955 2956
3674 5 2954 2953 2955 2956
3675 1 31 32 33 38
3676 1 31 32 33 36
3677 1 104 32 33 38
3678 1 104 32 33 36
3679 1 31 32 104 102
3680 1 31 32 104 106
3681 1 33 32 104 102
3682 1 33 32 104 106
3683 1 10 35 106 103
3684 1 10 35 106 104
3685 1 36 35 106 103
3686 1 36 35 106 104
3687 1 10 35 36 33
3688 1 10 35 36 39
3689 1 106 35 36 33
3690 1 106 35 36 39
3691 1 32 33 38 37
3692 1 32 33 38 40
3693 1 36 33 38 37
3694 1 36 33 38 40
3695 1 32 33 36 35
3696 1 32 33 36 39
3697 1 38 33 36 35
3698 1 38 33 36 39
3699 1 33 36 39 14
3700 1 33 36 39 42
3701 1 35 36 39 14
3702 1 35 36 39 42
3703 1 33 38 40 42
3704 1 33 38 40 160
3705 1 37 38 40 42
3706 1 37 38 40 160
3707 1 40 160 161 166
3708 1 40 160 161 164
3709 1 159 160 161 166
3710 1 159 160 161 164
3711 1 38 40 42 39
3712 1 38 40 42 163
3713 1 160 40 42 39
3714 1 160 40 42 163
3715 1 38 40 160 159
3716 1 38 40 160 161
3717 1 42 40 160 159
3718 1 42 40 160 161
3719 1 160 161 166 165
3720 1 160 161 166 168
3721 1 164 161 166 165
3722 1 164 161 166 168
3723 1 160 161 164 163
3724 1 160 161 164 167
3725 1 166 161 164 163
3726 1 166 161 164 167
3727 1 14 39 42 40
3728 1 14 39 42 163
3729 1 36 39 42 40
3730 1 36 39 42 163
3731 1 39 42 163 138
3732 1 39 42 163 164
3733 1 40 42 163 138
3734 1 40 42 163 164
3735 1 42 163 164 161
3736 1 42 163 164 167
3737 1 138 163 164 161
3738 1 138 163 164 167
3739 1 161 164 167 142
3740 1 161 164 167 170
3741 1 163 164 167 142
3742 1 163 164 167 170
3743 1 87 112 114 110
3744 1 87 112 114 115
3745 1 94 112 114 110
3746 1 94 112 114 115
3747 1 87 107 109 110
3748 1 87 107 109 179
3749 1 158 107 109 110
3750 1 158 107 109 179
3751 1 87 107 158 156
3752 1 87 107 158 176
3753 1 109 107 158 156
3754 1 109 107 158 176
3755 1 20 92 94 43
3756 1 20 92 94 112
3757 1 90 92 94 43
3758 1 90 92 94 112
3759 1 43 94 112 87
3760 1 43 94 112 114
3761 1 92 94 112 87
3762 1 92 94 112 114
3763 1 85 90 92 20
3764 1 85 90 92 94
3765 1 88 90 92 20
3766 1 88 90 92 94
3767 1 85 87 112 94
3768 1 85 87 112 114
3769 1 107 87 112 94
3770 1 107 87 112 114
3771 1 85 87 107 109
3772 1 85 87 107 158
3773 1 112 87 107 109
3774 1 112 87 107 158
3775 1 84 85 87 112
3776 1 84 85 87 107
3777 1 90 85 87 112
3778 1 90 85 87 107
3779 1 84 85 90 88
3780 1 84 85 90 92
3781 1 87 85 90 88
3782 1 87 85 90 92
3783 1 81 84 85 87
3784 1 81 84 85 90
3785 1 156 84 85 87
3786 1 156 84 85 90
3787 1 81 84 156 154
3788 1 81 84 156 158
3789 1 85 84 156 154
3790 1 85 84 156 158
3791 1 84 156 158 107
3792 1 84 156 158 176
3793 1 154 156 158 107
3794 1 154 156 158 176
3795 1 107 158 176 151
3796 1 107 158 176 178
3797 1 156 158 176 151
3798 1 156 158 176 178
3799 1 151 176 178 174
3800 1 151 176 178 179
3801 1 158 176 178 174
3802 1 158 176 178 179
3803 1 149 154 156 84
3804 1 149 154 156 158
3805 1 152 154 156 84
3806 1 152 154 156 158
3807 1 81 86 88 93
3808 1 81 86 88 90
3809 1 83 86 88 93
3810 1 83 86 88 90
3811 1 86 88 93 17
3812 1 86 88 93 91
3813 1 90 88 93 17
3814 1 90 88 93 91
3815 1 86 88 90 85
3816 1 86 88 90 92
3817 1 93 88 90 85
3818 1 93 88 90 92
3819 1 84 81 86 83
3820 1 84 81 86 88
3821 1 157 81 86 83
3822 1 157 81 86 88
3823 1 86 81 84 85
3824 1 86 81 84 156
3825 1 157 81 84 85
3826 1 157 81 84 156
3827 1 86 81 157 152
3828 1 86 81 157 155
3829 1 84 81 157 152
3830 1 84 81 157 155
3831 20 2054 2053 2051 2052
3832 21 2055 2053 2051 2052
3833 3 2051 2053 2055 2056
3834 1 2051 2053 2055 2057
3835 5 2054 2053 2055 2056
3836 1 150 152 157 81
3837 1 150 152 157 155
3838 1 154 152 157 81
3839 1 154 152 157 155
3840 1 150 152 154 149
3841 1 150 152 154 156
3842 1 157 152 154 149
3843 1 157 152 154 156
3844 3 2057 2055 2053 2054
3845 3 2053 2055 2057 2058
3846 1 2053 2055 2057 2059
3847 5 2056 2055 2057 2058
3848 3 2059 2057 2055 2056
3849 1 2055 2057 2059 2049
3850 3 2055 2057 2059 2060
3851 5 2058 2057 2059 2060
3852 3 2057 2059 2049 2050
3853 3 2049 2059 2057 2058
3854 20 2050 2049 2051 2052
3855 21 2059 2049 2051 2052
3856 1 2059 2049 2051 2053
3857 5 2050 2049 2059 2060
3858 1 2051 2049 2059 2057
3859 3 2051 2049 2059 2060
3860 3 2053 2051 2049 2050
3861 6 2049 2051 2052 2061
3862 7 2049 2051 2052 2062
3863 6 2053 2051 2052 2061
3864 7 2053 2051 2052 2062
3865 3 2049 2051 2053 2054
3866 1 2049 2051 2053 2055
3867 8 2051 2052 2062 2063
3868 8 2051 2052 2062 2064
3869 9 2061 2052 2062 2063
3870 9 2061 2052 2062 2064
3871 1 23 43 45 46
3872 1 23 43 45 115
3873 1 94 43 45 46
3874 1 94 43 45 115
3875 1 23 43 94 92
3876 1 23 43 94 112
3877 1 45 43 94 92
3878 1 45 43 94 112
3879 1 17 20 21 23
3880 1 17 20 21 26
3881 1 92 20 21 23
3882 1 92 20 21 26
3883 1 17 20 92 90
3884 1 17 20 92 94
3885 1 21 20 92 90
3886 1 21 20 92 94
3887 1 21 23 48 30
3888 1 21 23 48 50
3889 1 43 23 48 30
3890 1 43 23 48 50
3891 1 21 23 43 45
3892 1 21 23 43 94
3893 1 48 23 43 45
3894 1 48 23 43 94
3895 1 20 21 23 48
3896 1 20 21 23 43
3897 1 26 21 23 48
3898 1 26 21 23 43
3899 1 20 21 26 24
3900 1 20 21 26 28
3901 1 23 21 26 24
3902 1 23 21 26 28
3903 1 23 48 50 46
3904 1 23 48 50 51
3905 1 30 48 50 46
3906 1 30 48 50 51
3907 1 30 171 173 51
3908 1 30 171 173 174
3909 1 151 171 173 51
3910 1 151 171 173 174
3911 1 21 26 28 30
3912 1 21 26 28 148
3913 1 24 26 28 30
3914 1 24 26 28 148
3915 1 26 28 30 48
3916 1 26 28 30 171
3917 1 148 28 30 48
3918 1 148 28 30 171
3919 1 26 28 148 145
3920 1 26 28 148 149
3921 1 30 28 148 145
3922 1 30 28 148 149
3923 1 28 30 48 23
3924 1 28 30 48 50
3925 1 171 30 48 23
3926 1 171 30 48 50
3927 1 28 30 171 151
3928 1 28 30 171 173
3929 1 48 30 171 151
3930 1 48 30 171 173
3931 1 149 151 176 158
3932 1 149 151 176 178
3933 1 171 151 176 158
3934 1 171 151 176 178
3935 1 149 151 171 30
3936 1 149 151 171 173
3937 1 176 151 171 30
3938 1 176 151 171 173
3939 1 28 148 149 151
3940 1 28 148 149 154
3941 1 145 148 149 151
3942 1 145 148 149 154
3943 1 148 149 151 176
3944 1 148 149 151 171
3945 1 154 149 151 176
3946 1 154 149 151 171
3947 1 148 149 154 152
3948 1 148 149 154 156
3949 1 151 149 154 152
3950 1 151 149 154 156
3951 1 20 17 22 19
3952 1 20 17 22 24
3953 1 93 17 22 19
3954 1 93 17 22 24
3955 1 22 17 20 21
3956 1 22 17 20 92
3957 1 93 17 20 21
3958 1 93 17 20 92
3959 1 22 17 93 88
3960 1 22 17 93 91
3961 1 20 17 93 88
3962 1 20 17 93 91
3963 1 17 22 24 29
3964 1 17 22 24 26
3965 1 19 22 24 29
3966 1 19 22 24 26
3967 1 22 24 29 27
3968 1 22 24 29 145
3969 1 26 24 29 27
3970 1 26 24 29 145
3971 1 22 24 26 21
3972 1 22 24 26 28
3973 1 29 24 26 21
3974 1 29 24 26 28
3975 1 24 29 145 150
3976 1 24 29 145 148
3977 1 27 29 145 150
3978 1 27 29 145 148
3979 1 145 150 152 157
3980 1 145 150 152 154
3981 1 147 150 152 157
3982 1 147 150 152 154
3983 1 29 145 150 147
3984 1 29 145 150 152
3985 1 148 145 150 147
3986 1 148 145 150 152
3987 1 29 145 148 28
3988 1 29 145 148 149
3989 1 150 145 148 28
3990 1 150 145 148 149
3991 20 3202 3201 3203 3204
3992 21 3211 3201 3203 3204
3993 1 3211 3201 3203 3205
3994 5 3202 3201 3211 3212
3995 1 3203 3201 3211 3209
3996 3 3203 3201 3211 3212
3997 3 3209 3211 3201 3202
3998 3 3201 3211 3209 3210
3999 8 2755 2756 2766 2767
4000 8 2755 2756 2766 2768
4001 9 2765 2756 2766 2767
4002 9 2765 2756 2766 2768
4003 3 555 553 551 552
4004 1 551 553 555 545
4005 3 551 553 555 556
4006 5 554 553 555 556
4007 20 3206 3205 3203 3204
4008 21 3207 3205 3203 3204
4009 3 3203 3205 3207 3208
4010 1 3203 3205 3207 3209
4011 5 3206 3205 3207 3208
4012 3 3209 3207 3205 3206
4013 3 3205 3207 3209 3210
4014 1 3205 3207 3209 3211
4015 5 3208 3207 3209 3210
4016 3 3211 3209 3207 3208
4017 1 3207 3209 3211 3201
4018 3 3207 3209 3211 3212
4019 5 3210 3209 3211 3212
4020 3 2457 2455 2453 2454
4021 3 2453 2455 2457 2458
4022 1 2453 2455 2457 2459
4023 5 2456 2455 2457 2458
4024 3 2459 2457 2455 2456
4025 1 2455 2457 2459 2449
4026 3 2455 2457 2459 2460
4027 5 2458 2457 2459 2460
4028 20 2454 2453 2451 2452
4029 21 2455 2453 2451 2452
4030 3 2451 2453 2455 2456
4031 1 2451 2453 2455 2457
4032 5 2454 2453 2455 2456
4033 3 795 793 791 792
4034 1 791 793 795 785
4035 3 791 793 795 796
4036 5 794 793 795 796
4037 3 793 791 789 790
4038 3 789 791 793 794
4039 1 789 791 793 795
4040 5 792 791 793 794
4041 3 793 795 785 786
4042 3 785 795 793 794
4043 8 275 276 286 287
4044 8 275 276 286 288
4045 9 285 276 286 287
4046 9 285 276 286 288
4047 8 3123 3124 3134 3135
4048 8 3123 3124 3134 3136
4049 9 3133 3124 3134 3135
4050 9 3133 3124 3134 3136
4051 3 3125 3123 3121 3122
4052 6 3121 3123 3124 3133
4053 7 3121 3123 3124 3134
4054 6 3125 3123 3124 3133
4055 7 3125 3123 3124 3134
4056 3 3121 3123 3125 3126
4057 1 3121 3123 3125 3127
4058 3 553 555 545 546
4059 3 545 555 553 554
4060 3 2853 2851 2849 2850
4061 6 2849 2851 2852 2861
4062 7 2849 2851 2852 2862
4063 6 2853 2851 2852 2861
4064 7 2853 2851 2852 2862
4065 3 2849 2851 2853 2854
4066 1 2849 2851 2853 2855
4067 20 2850 2849 2851 2852
4068 21 2859 2849 2851 2852
4069 1 2859 2849 2851 2853
4070 5 2850 2849 2859 2860
4071 1 2851 2849 2859 2857
4072 3 2851 2849 2859 2860
4073 3 2857 2855 2853 2854
4074 3 2853 2855 2857 2858
4075 1 2853 2855 2857 2859
4076 5 2856 2855 2857 2858
4077 3 2859 2857 2855 2856
4078 1 2855 2857 2859 2849
4079 3 2855 2857 2859 2860
4080 5 2858 2857 2859 2860
4081 3 2857 2859 2849 2850
4082 3 2849 2859 2857 2858
4083 20 546 545 547 548
4084 21 555 545 547 548
4085 1 555 545 547 549
4086 5 546 545 555 556
4087 1 547 545 555 553
4088 3 547 545 555 556
4089 20 950 949 947 948
4090 21 951 949 947 948
4091 3 947 949 951 952
4092 1 947 949 951 953
4093 5 950 949 951 952
4094 3 949 947 945 946
4095 6 945 947 948 957
4096 7 945 947 948 958
4097 6 949 947 948 957
4098 7 949 947 948 958
4099 3 945 947 949 950
4100 1 945 947 949 951
4101 8 947 948 958 959
4102 8 947 948 958 960
4103 9 957 948 958 959
4104 9 957 948 958 960
4105 3 281 279 277 278
4106 3 277 279 281 282
4107 1 277 279 281 283
4108 5 280 279 281 282
4109 3 283 281 279 280
4110 1 279 281 283 273
4111 3 279 281 283 284
4112 5 282 281 283 284
4113 20 278 277 275 276
4114 21 279 277 275 276
4115 3 275 277 279 280
4116 1 275 277 279 281
4117 5 278 277 279 280
4118 3 277 275 273 274
4119 6 273 275 276 285
4120 7 273 275 276 286
4121 6 277 275 276 285
4122 7 277 275 276 286
4123 3 273 275 277 278
4124 1 273 275 277 279
4125 20 3350 3349 3347 3348
4126 21 3351 3349 3347 3348
4127 3 3347 3349 3351 3352
4128 1 3347 3349 3351 3353
4129 5 3350 3349 3351 3352
4130 8 2611 2612 2622 2623
4131 8 2611 2612 2622 2624
4132 9 2621 2612 2622 2623
4133 9 2621 2612 2622 2624
4134 20 3126 3125 3123 3124
4135 21 3127 3125 3123 3124
4136 3 3123 3125 3127 3128
4137 1 3123 3125 3127 3129
4138 5 3126 3125 3127 3128
4139 20 274 273 275 276
4140 21 283 273 275 276
4141 1 283 273 275 277
4142 5 274 273 283 284
4143 1 275 273 283 281
4144 3 275 273 283 284
4145 3 3131 3129 3127 3128
4146 1 3127 3129 3131 3121
4147 3 3127 3129 3131 3132
4148 5 3130 3129 3131 3132
4149 3 3129 3127 3125 3126
4150 3 3125 3127 3129 3130
4151 1 3125 3127 3129 3131
4152 5 3128 3127 3129 3130
4153 3 281 283 273 274
4154 3 273 283 281 282
4155 3 2075 2073 2071 2072
4156 1 2071 2073 2075 2065
4157 3 2071 2073 2075 2076
4158 5 2074 2073 2075 2076
4159 3 2073 2071 2069 2070
4160 3 2069 2071 2073 2074
4161 1 2069 2071 2073 2075
4162 5 2072 2071 2073 2074
4163 20 2070 2069 2067 2068
4164 21 2071 2069 2067 2068
4165 3 2067 2069 2071 2072
4166 1 2067 2069 2071 2073
4167 5 2070 2069 2071 2072
4168 20 3346 3345 3347 3348
4169 21 3355 3345 3347 3348
4170 1 3355 3345 3347 3349
4171 5 3346 3345 3355 3356
4172 1 3347 3345 3355 3353
4173 3 3347 3345 3355 3356
4174 3 3349 3347 3345 3346
4175 6 3345 3347 3348 3357
4176 7 3345 3347 3348 3358
4177 6 3349 3347 3348 3357
4178 7 3349 3347 3348 3358
4179 3 3345 3347 3349 3350
4180 1 3345 3347 3349 3351
4181 3 2073 2075 2065 2066
4182 3 2065 2075 2073 2074
4183 3 997 995 993 994
4184 6 993 995 996 1005
4185 7 993 995 996 1006
4186 6 997 995 996 1005
4187 7 997 995 996 1006
4188 3 993 995 997 998
4189 1 993 995 997 999
4190 3 2617 2615 2613 2614
4191 3 2613 2615 2617 2618
4192 1 2613 2615 2617 2619
4193 5 2616 2615 2617 2618
4194 3 2619 2617 2615 2616
4195 1 2615 2617 2619 2609
4196 3 2615 2617 2619 2620
4197 5 2618 2617 2619 2620
4198 20 998 997 995 996
4199 21 999 997 995 996
4200 3 995 997 999 1000
4201 1 995 997 999 1001
4202 5 998 997 999 1000
4203 3 1001 999 997 998
4204 3 997 999 1001 1002
4205 1 997 999 1001 1003
4206 5 1000 999 1001 1002
4207 20 2614 2613 2611 2612
4208 21 2615 2613 2611 2612
4209 3 2611 2613 2615 2616
4210 1 2611 2613 2615 2617
4211 5 2614 2613 2615 2616
4212 3 2617 2619 2609 2610
4213 3 2609 2619 2617 2618
4214 3 2613 2611 2609 2610
4215 6 2609 2611 2612 2621
4216 7 2609 2611 2612 2622
4217 6 2613 2611 2612 2621
4218 7 2613 2611 2612 2622
4219 3 2609 2611 2613 2614
4220 1 2609 2611 2613 2615
4221 20 2610 2609 2611 2612
4222 21 2619 2609 2611 2612
4223 1 2619 2609 2611 2613
4224 5 2610 2609 2619 2620
4225 1 2611 2609 2619 2617
4226 3 2611 2609 2619 2620
4227 8 1523 1524 1534 1535
4228 8 1523 1524 1534 1536
4229 9 1533 1524 1534 1535
4230 9 1533 1524 1534 1536
4231 8 995 996 1006 1007
4232 8 995 996 1006 1008
4233 9 1005 996 1006 1007
4234 9 1005 996 1006 1008
4235 20 1522 1521 1523 1524
4236 21 1531 1521 1523 1524
4237 1 1531 1521 1523 1525
4238 5 1522 1521 1531 1532
4239 1 1523 1521 1531 1529
4240 3 1523 1521 1531 1532
4241 3 1529 1531 1521 1522
4242 3 1521 1531 1529 1530
4243 8 3347 3348 3358 3359
4244 8 3347 3348 3358 3360
4245 9 3357 3348 3358 3359
4246 9 3357 3348 3358 3360
4247 20 994 993 995 996
4248 21 1003 993 995 996
4249 1 1003 993 995 997
4250 5 994 993 1003 1004
4251 1 995 993 1003 1001
4252 3 995 993 1003 1004
4253 3 1525 1523 1521 1522
4254 6 1521 1523 1524 1533
4255 7 1521 1523 1524 1534
4256 6 1525 1523 1524 1533
4257 7 1525 1523 1524 1534
4258 3 1521 1523 1525 1526
4259 1 1521 1523 1525 1527
4260 3 1529 1527 1525 1526
4261 3 1525 1527 1529 1530
4262 1 1525 1527 1529 1531
4263 5 1528 1527 1529 1530
4264 20 1526 1525 1523 1524
4265 21 1527 1525 1523 1524
4266 3 1523 1525 1527 1528
4267 1 1523 1525 1527 1529
4268 5 1526 1525 1527 1528
4269 3 1531 1529 1527 1528
4270 1 1527 1529 1531 1521
4271 3 1527 1529 1531 1532
4272 5 1530 1529 1531 1532
4273 3 2489 2487 2485 2486
4274 3 2485 2487 2489 2490
4275 1 2485 2487 2489 2491
4276 5 2488 2487 2489 2490
4277 3 1877 1875 1873 1874
4278 6 1873 1875 1876 1885
4279 7 1873 1875 1876 1886
4280 6 1877 1875 1876 1885
4281 7 1877 1875 1876 1886
4282 3 1873 1875 1877 1878
4283 1 1873 1875 1877 1879
4284 3 1883 1881 1879 1880
4285 1 1879 1881 1883 1873
4286 3 1879 1881 1883 1884
4287 5 1882 1881 1883 1884
4288 20 1874 1873 1875 1876
4289 21 1883 1873 1875 1876
4290 1 1883 1873 1875 1877
4291 5 1874 1873 1883 1884
4292 1 1875 1873 1883 1881
4293 3 1875 1873 1883 1884
4294 3 1881 1883 1873 1874
4295 3 1873 1883 1881 1882
4296 3 2491 2489 2487 2488
4297 1 2487 2489 2491 2481
4298 3 2487 2489 2491 2492
4299 5 2490 2489 2491 2492
4300 3 2489 2491 2481 2482
4301 3 2481 2491 2489 2490
4302 3 521 519 517 518
4303 3 517 519 521 522
4304 1 517 519 521 523
4305 5 520 519 521 522
4306 3 523 521 519 520
4307 1 519 521 523 513
4308 3 519 521 523 524
4309 5 522 521 523 524
4310 20 1878 1877 1875 1876
4311 21 1879 1877 1875 1876
4312 3 1875 1877 1879 1880
4313 1 1875 1877 1879 1881
4314 5 1878 1877 1879 1880
4315 3 1881 1879 1877 1878
4316 3 1877 1879 1881 1882
4317 1 1877 1879 1881 1883
4318 5 1880 1879 1881 1882
4319 3 1317 1315 1313 1314
4320 6 1313 1315 1316 1325
4321 7 1313 1315 1316 1326
4322 6 1317 1315 1316 1325
4323 7 1317 1315 1316 1326
4324 3 1313 1315 1317 1318
4325 1 1313 1315 1317 1319
4326 20 1318 1317 1315 1316
4327 21 1319 1317 1315 1316
4328 3 1315 1317 1319 1320
4329 1 1315 1317 1319 1321
4330 5 1318 1317 1319 1320
4331 20 1314 1313 1315 1316
4332 21 1323 1313 1315 1316
4333 1 1323 1313 1315 1317
4334 5 1314 1313 1323 1324
4335 1 1315 1313 1323 1321
4336 3 1315 1313 1323 1324
4337 3 1323 1321 1319 1320
4338 1 1319 1321 1323 1313
4339 3 1319 1321 1323 1324
4340 5 1322 1321 1323 1324
4341 3 1321 1323 1313 1314
4342 3 1313 1323 1321 1322
4343 3 1321 1319 1317 1318
4344 3 1317 1319 1321 1322
4345 1 1317 1319 1321 1323
4346 5 1320 1319 1321 1322
4347 8 1875 1876 1886 1887
4348 8 1875 1876 1886 1888
4349 9 1885 1876 1886 1887
4350 9 1885 1876 1886 1888
4351 3 3161 3159 3157 3158
4352 3 3157 3159 3161 3162
4353 1 3157 3159 3161 3163
4354 5 3160 3159 3161 3162
4355 3 885 883 881 882
4356 6 881 883 884 893
4357 7 881 883 884 894
4358 6 885 883 884 893
4359 7 885 883 884 894
4360 3 881 883 885 886
4361 1 881 883 885 887
4362 20 886 885 883 884
4363 21 887 885 883 884
4364 3 883 885 887 888
4365 1 883 885 887 889
4366 5 886 885 887 888
4367 8 883 884 894 895
4368 8 883 884 894 896
4369 9 893 884 894 895
4370 9 893 884 894 896
4371 20 1622 1621 1619 1620
4372 21 1623 1621 1619 1620
4373 3 1619 1621 1623 1624
4374 1 1619 1621 1623 1625
4375 5 1622 1621 1623 1624
4376 3 889 887 885 886
4377 3 885 887 889 890
4378 1 885 887 889 891
4379 5 888 887 889 890
4380 20 882 881 883 884
4381 21 891 881 883 884
4382 1 891 881 883 885
4383 5 882 881 891 892
4384 1 883 881 891 889
4385 3 883 881 891 892
4386 3 891 889 887 888
4387 1 887 889 891 881
4388 3 887 889 891 892
4389 5 890 889 891 892
4390 3 521 523 513 514
4391 3 513 523 521 522
4392 20 514 513 515 516
4393 21 523 513 515 516
4394 1 523 513 515 517
4395 5 514 513 523 524
4396 1 515 513 523 521
4397 3 515 513 523 524
4398 3 1625 1623 1621 1622
4399 3 1621 1623 1625 1626
4400 1 1621 1623 1625 1627
4401 5 1624 1623 1625 1626
4402 8 2083 2084 2094 2095
4403 8 2083 2084 2094 2096
4404 9 2093 2084 2094 2095
4405 9 2093 2084 2094 2096
4406 3 2085 2083 2081 2082
4407 6 2081 2083 2084 2093
4408 7 2081 2083 2084 2094
4409 6 2085 2083 2084 2093
4410 7 2085 2083 2084 2094
4411 3 2081 2083 2085 2086
4412 1 2081 2083 2085 2087
4413 20 2086 2085 2083 2084
4414 21 2087 2085 2083 2084
4415 3 2083 2085 2087 2088
4416 1 2083 2085 2087 2089
4417 5 2086 2085 2087 2088
4418 3 889 891 881 882
4419 3 881 891 889 890
4420 3 1627 1625 1623 1624
4421 1 1623 1625 1627 1617
4422 3 1623 1625 1627 1628
4423 5 1626 1625 1627 1628
4424 8 1619 1620 1630 1631
4425 8 1619 1620 1630 1632
4426 9 1629 1620 1630 1631
4427 9 1629 1620 1630 1632
4428 3 1413 1411 1409 1410
4429 6 1409 1411 1412 1421
4430 7 1409 1411 1412 1422
4431 6 1413 1411 1412 1421
4432 7 1413 1411 1412 1422
4433 3 1409 1411 1413 1414
4434 1 1409 1411 1413 1415
4435 20 3186 3185 3187 3188
4436 21 3195 3185 3187 3188
4437 1 3195 3185 3187 3189
4438 5 3186 3185 3195 3196
4439 1 3187 3185 3195 3193
4440 3 3187 3185 3195 3196
4441 20 1414 1413 1411 1412
4442 21 1415 1413 1411 1412
4443 3 1411 1413 1415 1416
4444 1 1411 1413 1415 1417
4445 5 1414 1413 1415 1416
4446 8 1411 1412 1422 1423
4447 8 1411 1412 1422 1424
4448 9 1421 1412 1422 1423
4449 9 1421 1412 1422 1424
4450 20 422 421 419 420
4451 21 423 421 419 420
4452 3 419 421 423 424
4453 1 419 421 423 425
4454 5 422 421 423 424
4455 8 419 420 430 431
4456 8 419 420 430 432
4457 9 429 420 430 431
4458 9 429 420 430 432
4459 3 1621 1619 1617 1618
4460 6 1617 1619 1620 1629
4461 7 1617 1619 1620 1630
4462 6 1621 1619 1620 1629
4463 7 1621 1619 1620 1630
4464 3 1617 1619 1621 1622
4465 1 1617 1619 1621 1623
4466 20 1618 1617 1619 1620
4467 21 1627 1617 1619 1620
4468 1 1627 1617 1619 1621
4469 5 1618 1617 1627 1628
4470 1 1619 1617 1627 1625
4471 3 1619 1617 1627 1628
4472 3 2597 2595 2593 2594
4473 6 2593 2595 2596 2605
4474 7 2593 2595 2596 2606
4475 6 2597 2595 2596 2605
4476 7 2597 2595 2596 2606
4477 3 2593 2595 2597 2598
4478 1 2593 2595 2597 2599
4479 20 2598 2597 2595 2596
4480 21 2599 2597 2595 2596
4481 3 2595 2597 2599 2600
4482 1 2595 2597 2599 2601
4483 5 2598 2597 2599 2600
4484 20 2594 2593 2595 2596
4485 21 2603 2593 2595 2596
4486 1 2603 2593 2595 2597
4487 5 2594 2593 2603 2604
4488 1 2595 2593 2603 2601
4489 3 2595 2593 2603 2604
4490 3 2601 2599 2597 2598
4491 3 2597 2599 2601 2602
4492 1 2597 2599 2601 2603
4493 5 2600 2599 2601 2602
4494 3 2601 2603 2593 2594
4495 3 2593 2603 2601 2602
4496 3 2603 2601 2599 2600
4497 1 2599 2601 2603 2593
4498 3 2599 2601 2603 2604
4499 5 2602 2601 2603 2604
4500 3 1625 1627 1617 1618
4501 3 1617 1627 1625 1626
4502 20 1410 1409 1411 1412
4503 21 1419 1409 1411 1412
4504 1 1419 1409 1411 1413
4505 5 1410 1409 1419 1420
4506 1 1411 1409 1419 1417
4507 3 1411 1409 1419 1420
4508 3 3193 3195 3185 3186
4509 3 3185 3195 3193 3194
4510 3 3195 3193 3191 3192
4511 1 3191 3193 3195 3185
4512 3 3191 3193 3195 3196
4513 5 3194 3193 3195 3196
4514 1 75 78 103 100
4515 1 75 78 103 106
4516 1 79 78 103 100
4517 1 79 78 103 106
4518 1 75 78 79 10
4519 1 75 78 79 80
4520 1 103 78 79 10
4521 1 103 78 79 80
4522 1 10 79 80 9
4523 1 10 79 80 77
4524 1 78 79 80 9
4525 1 78 79 80 77
4526 1 74 75 78 103
4527 1 74 75 78 79
4528 1 76 75 78 103
4529 1 76 75 78 79
4530 1 74 75 76 73
4531 1 74 75 76 77
4532 1 78 75 76 73
4533 1 78 75 76 77
4534 1 75 74 99 170
4535 1 75 74 99 100
4536 1 143 74 99 170
4537 1 143 74 99 100
4538 1 99 74 75 78
4539 1 99 74 75 76
4540 1 143 74 75 78
4541 1 143 74 75 76
4542 1 99 74 143 142
4543 1 99 74 143 144
4544 1 75 74 143 142
4545 1 75 74 143 144
4546 1 74 143 144 73
4547 1 74 143 144 141
4548 1 142 143 144 73
4549 1 142 143 144 141
4550 1 139 142 167 164
4551 1 139 142 167 170
4552 1 143 142 167 164
4553 1 143 142 167 170
4554 1 139 142 143 74
4555 1 139 142 143 144
4556 1 167 142 143 74
4557 1 167 142 143 144
4558 3 3193 3191 3189 3190
4559 3 3189 3191 3193 3194
4560 1 3189 3191 3193 3195
4561 5 3192 3191 3193 3194
4562 3 1417 1419 1409 1410
4563 3 1409 1419 1417 1418
4564 3 1417 1415 1413 1414
4565 3 1413 1415 1417 1418
4566 1 1413 1415 1417 1419
4567 5 1416 1415 1417 1418
4568 3 1419 1417 1415 1416
4569 1 1415 1417 1419 1409
4570 3 1415 1417 1419 1420
4571 5 1418 1417 1419 1420
4572 1 73 76 77 69
4573 1 73 76 77 80
4574 1 75 76 77 69
4575 1 75 76 77 80
4576 3 2969 2967 2965 2966
4577 3 2965 2967 2969 2970
4578 1 2965 2967 2969 2971
4579 5 2968 2967 2969 2970
4580 3 425 423 421 422
4581 3 421 423 425 426
4582 1 421 423 425 427
4583 5 424 423 425 426
4584 1 11 10 35 106
4585 1 11 10 35 36
4586 1 79 10 35 106
4587 1 79 10 35 36
4588 1 35 10 11 14
4589 1 35 10 11 12
4590 1 79 10 11 14
4591 1 79 10 11 12
4592 1 35 10 79 78
4593 1 35 10 79 80
4594 1 11 10 79 78
4595 1 11 10 79 80
4596 1 10 11 14 39
4597 1 10 11 14 15
4598 1 12 11 14 39
4599 1 12 11 14 15
4600 1 10 11 12 9
4601 1 10 11 12 13
4602 1 14 11 12 9
4603 1 14 11 12 13
4604 1 11 14 39 36
4605 1 11 14 39 42
4606 1 15 14 39 36
4607 1 15 14 39 42
4608 1 11 14 15 138
4609 1 11 14 15 16
4610 1 39 14 15 138
4611 1 39 14 15 16
4612 1 14 15 138 163
4613 1 14 15 138 139
4614 1 16 15 138 163
4615 1 16 15 138 139
4616 1 14 15 16 13
4617 1 14 15 16 137
4618 1 138 15 16 13
4619 1 138 15 16 137
4620 1 15 138 163 42
4621 1 15 138 163 164
4622 1 139 138 163 42
4623 1 139 138 163 164
4624 1 15 138 139 142
4625 1 15 138 139 140
4626 1 163 138 139 142
4627 1 163 138 139 140
4628 1 138 139 142 167
4629 1 138 139 142 143
4630 1 140 139 142 167
4631 1 140 139 142 143
4632 1 138 139 140 137
4633 1 138 139 140 141
4634 1 142 139 140 137
4635 1 142 139 140 141
4636 3 1179 1177 1175 1176
4637 1 1175 1177 1179 1169
4638 3 1175 1177 1179 1180
4639 5 1178 1177 1179 1180
4640 3 1177 1175 1173 1174
4641 3 1173 1175 1177 1178
4642 1 1173 1175 1177 1179
4643 5 1176 1175 1177 1178
4644 3 1177 1179 1169 1170
4645 3 1169 1179 1177 1178
4646 1 9 12 13 5
4647 1 9 12 13 16
4648 1 11 12 13 5
4649 1 11 12 13 16
4650 3 1173 1171 1169 1170
4651 6 1169 1171 1172 1181
4652 7 1169 1171 1172 1182
4653 6 1173 1171 1172 1181
4654 7 1173 1171 1172 1182
4655 3 1169 1171 1173 1174
4656 1 1169 1171 1173 1175
4657 1 13 16 137 129
4658 1 13 16 137 140
4659 1 15 16 137 129
4660 1 15 16 137 140
4661 1 137 140 141 133
4662 1 137 140 141 144
4663 1 139 140 141 133
4664 1 139 140 141 144
4665 20 1170 1169 1171 1172
4666 21 1179 1169 1171 1172
4667 1 1179 1169 1171 1173
4668 5 1170 1169 1179 1180
4669 1 1171 1169 1179 1177
4670 3 1171 1169 1179 1180
4671 1 69 77 80 9
4672 1 69 77 80 79
4673 1 76 77 80 9
4674 1 76 77 80 79
4675 1 65 73 76 75
4676 1 65 73 76 77
4677 1 144 73 76 75
4678 1 144 73 76 77
4679 1 65 73 144 141
4680 1 65 73 144 143
4681 1 76 73 144 141
4682 1 76 73 144 143
4683 1 133 141 144 73
4684 1 133 141 144 143
4685 1 140 141 144 73
4686 1 140 141 144 143
4687 1 66 69 71 1
4688 1 66 69 71 72
4689 1 77 69 71 1
4690 1 77 69 71 72
4691 1 66 69 77 76
4692 1 66 69 77 80
4693 1 71 69 77 76
4694 1 71 69 77 80
4695 1 73 65 66 69
4696 1 73 65 66 68
4697 1 135 65 66 69
4698 1 135 65 66 68
4699 1 66 65 73 76
4700 1 66 65 73 144
4701 1 135 65 73 76
4702 1 135 65 73 144
4703 1 66 65 135 133
4704 1 66 65 135 136
4705 1 73 65 135 133
4706 1 73 65 135 136
4707 1 18 91 93 17
4708 1 18 91 93 88
4709 1 89 91 93 17
4710 1 89 91 93 88
4711 1 82 83 86 81
4712 1 82 83 86 88
4713 1 89 83 86 81
4714 1 89 83 86 88
4715 1 82 83 89 70
4716 1 82 83 89 91
4717 1 86 83 89 70
4718 1 86 83 89 91
4719 1 1 71 72 3
4720 1 1 71 72 70
4721 1 69 71 72 3
4722 1 69 71 72 70
4723 1 65 66 69 71
4724 1 65 66 69 77
4725 1 68 66 69 71
4726 1 68 66 69 77
4727 1 65 66 68 67
4728 1 65 66 68 70
4729 1 69 66 68 67
4730 1 69 66 68 70
4731 1 66 68 70 89
4732 1 66 68 70 72
4733 1 67 68 70 89
4734 1 67 68 70 72
4735 1 68 70 89 83
4736 1 68 70 89 91
4737 1 72 70 89 83
4738 1 72 70 89 91
4739 1 68 70 72 3
4740 1 68 70 72 71
4741 1 89 70 72 3
4742 1 89 70 72 71
4743 1 70 89 91 18
4744 1 70 89 91 93
4745 1 83 89 91 18
4746 1 83 89 91 93
4747 1 68 67 82 83
4748 1 68 67 82 155
4749 1 136 67 82 83
4750 1 136 67 82 155
4751 1 82 67 68 66
4752 1 82 67 68 70
4753 1 136 67 68 66
4754 1 136 67 68 70
4755 1 82 67 136 134
4756 1 82 67 136 135
4757 1 68 67 136 134
4758 1 68 67 136 135
4759 1 67 82 83 86
4760 1 67 82 83 89
4761 1 155 82 83 86
4762 1 155 82 83 89
4763 1 67 82 155 153
4764 1 67 82 155 157
4765 1 83 82 155 153
4766 1 83 82 155 157
4767 1 82 155 157 81
4768 1 82 155 157 152
4769 1 153 155 157 81
4770 1 153 155 157 152
4771 1 65 135 136 67
4772 1 65 135 136 134
4773 1 133 135 136 67
4774 1 133 135 136 134
4775 1 130 133 135 65
4776 1 130 133 135 136
4777 1 141 133 135 65
4778 1 141 133 135 136
4779 1 130 133 141 140
4780 1 130 133 141 144
4781 1 135 133 141 140
4782 1 135 133 141 144
4783 1 132 134 153 147
4784 1 132 134 153 155
4785 1 136 134 153 147
4786 1 136 134 153 155
4787 1 132 134 136 67
4788 1 132 134 136 135
4789 1 153 134 136 67
4790 1 153 134 136 135
4791 1 134 153 155 82
4792 1 134 153 155 157
4793 1 147 153 155 82
4794 1 147 153 155 157
4795 8 3139 3140 3150 3151
4796 8 3139 3140 3150 3152
4797 9 3149 3140 3150 3151
4798 9 3149 3140 3150 3152
4799 8 819 820 830 831
4800 8 819 820 830 832
4801 9 829 820 830 831
4802 9 829 820 830 832
4803 1 1 9 12 11
4804 1 1 9 12 13
4805 1 80 9 12 11
4806 1 80 9 12 13
4807 1 1 9 80 77
4808 1 1 9 80 79
4809 1 12 9 80 77
4810 1 12 9 80 79
4811 1 5 13 16 15
4812 1 5 13 16 137
4813 1 12 13 16 15
4814 1 12 13 16 137
4815 1 16 137 140 139
4816 1 16 137 140 141
4817 1 129 137 140 139
4818 1 129 137 140 141
4819 1 9 1 2 5
4820 1 9 1 2 4
4821 1 71 1 2 5
4822 1 71 1 2 4
4823 1 2 1 9 12
4824 1 2 1 9 80
4825 1 71 1 9 12
4826 1 71 1 9 80
4827 1 2 1 71 69
4828 1 2 1 71 72
4829 1 9 1 71 69
4830 1 9 1 71 72
4831 1 4 3 18 19
4832 1 4 3 18 91
4833 1 72 3 18 19
4834 1 72 3 18 91
4835 1 18 3 4 2
4836 1 18 3 4 6
4837 1 72 3 4 2
4838 1 72 3 4 6
4839 1 18 3 72 70
4840 1 18 3 72 71
4841 1 4 3 72 70
4842 1 4 3 72 71
4843 1 3 18 19 25
4844 1 3 18 19 22
4845 1 91 18 19 25
4846 1 91 18 19 22
4847 1 3 18 91 89
4848 1 3 18 91 93
4849 1 19 18 91 89
4850 1 19 18 91 93
4851 1 18 19 25 6
4852 1 18 19 25 27
4853 1 22 19 25 6
4854 1 22 19 25 27
4855 1 18 19 22 17
4856 1 18 19 22 24
4857 1 25 19 22 17
4858 1 25 19 22 24
4859 1 1 2 5 7
4860 1 1 2 5 13
4861 1 4 2 5 7
4862 1 4 2 5 13
4863 1 1 2 4 3
4864 1 1 2 4 6
4865 1 5 2 4 3
4866 1 5 2 4 6
4867 1 2 4 6 25
4868 1 2 4 6 8
4869 1 3 4 6 25
4870 1 3 4 6 8
4871 1 2 5 7 129
4872 1 2 5 7 8
4873 1 13 5 7 129
4874 1 13 5 7 8
4875 1 2 5 13 12
4876 1 2 5 13 16
4877 1 7 5 13 12
4878 1 7 5 13 16
4879 1 7 129 130 133
4880 1 7 129 130 132
4881 1 137 129 130 133
4882 1 137 129 130 132
4883 1 7 129 137 16
4884 1 7 129 137 140
4885 1 130 129 137 16
4886 1 130 129 137 140
4887 1 4 6 25 19
4888 1 4 6 25 27
4889 1 8 6 25 19
4890 1 8 6 25 27
4891 1 4 6 8 7
4892 1 4 6 8 131
4893 1 25 6 8 7
4894 1 25 6 8 131
4895 1 6 25 27 29
4896 1 6 25 27 146
4897 1 19 25 27 29
4898 1 19 25 27 146
4899 1 25 27 29 24
4900 1 25 27 29 145
4901 1 146 27 29 24
4902 1 146 27 29 145
4903 1 25 27 146 131
4904 1 25 27 146 147
4905 1 29 27 146 131
4906 1 29 27 146 147
4907 1 146 147 150 145
4908 1 146 147 150 152
4909 1 153 147 150 145
4910 1 153 147 150 152
4911 1 146 147 153 134
4912 1 146 147 153 155
4913 1 150 147 153 134
4914 1 150 147 153 155
4915 1 6 8 131 146
4916 1 6 8 131 132
4917 1 7 8 131 146
4918 1 7 8 131 132
4919 1 5 7 129 130
4920 1 5 7 129 137
4921 1 8 7 129 130
4922 1 8 7 129 137
4923 1 5 7 8 6
4924 1 5 7 8 131
4925 1 129 7 8 6
4926 1 129 7 8 131
4927 1 129 130 133 135
4928 1 129 130 133 141
4929 1 132 130 133 135
4930 1 132 130 133 141
4931 1 129 130 132 131
4932 1 129 130 132 134
4933 1 133 130 132 131
4934 1 133 130 132 134
4935 1 130 132 134 153
4936 1 130 132 134 136
4937 1 131 132 134 153
4938 1 131 132 134 136
4939 1 8 131 146 27
4940 1 8 131 146 147
4941 1 132 131 146 27
4942 1 132 131 146 147
4943 1 8 131 132 130
4944 1 8 131 132 134
4945 1 146 131 132 130
4946 1 146 131 132 134
4947 1 27 146 147 150
4948 1 27 146 147 153
4949 1 131 146 147 150
4950 1 131 146 147 153
4951 3 1275 1273 1271 1272
4952 1 1271 1273 1275 1265
4953 3 1271 1273 1275 1276
4954 5 1274 1273 1275 1276
4955 3 3145 3147 3137 3138
4956 3 3137 3147 3145 3146
4957 20 3138 3137 3139 3140
4958 21 3147 3137 3139 3140
4959 1 3147 3137 3139 3141
4960 5 3138 3137 3147 3148
4961 1 3139 3137 3147 3145
4962 3 3139 3137 3147 3148
4963 3 821 819 817 818
4964 6 817 819 820 829
4965 7 817 819 820 830
4966 6 821 819 820 829
4967 7 821 819 820 830
4968 3 817 819 821 822
4969 1 817 819 821 823
4970 3 2569 2567 2565 2566
4971 3 2565 2567 2569 2570
4972 1 2565 2567 2569 2571
4973 5 2568 2567 2569 2570
4974 20 2566 2565 2563 2564
4975 21 2567 2565 2563 2564
4976 3 2563 2565 2567 2568
4977 1 2563 2565 2567 2569
4978 5 2566 2565 2567 2568
4979 3 2571 2569 2567 2568
4980 1 2567 2569 2571 2561
4981 3 2567 2569 2571 2572
4982 5 2570 2569 2571 2572
4983 3 2569 2571 2561 2562
4984 3 2561 2571 2569 2570
4985 3 2565 2563 2561 2562
4986 6 2561 2563 2564 2573
4987 7 2561 2563 2564 2574
4988 6 2565 2563 2564 2573
4989 7 2565 2563 2564 2574
4990 3 2561 2563 2565 2566
4991 1 2561 2563 2565 2567
4992 20 2562 2561 2563 2564
4993 21 2571 2561 2563 2564
4994 1 2571 2561 2563 2565
4995 5 2562 2561 2571 2572
4996 1 2563 2561 2571 2569
4997 3 2563 2561 2571 2572
4998 20 3142 3141 3139 3140
4999 21 3143 3141 3139 3140
5000 3 3139 3141 3143 3144
5001 1 3139 3141 3143 3145
5002 5 3142 3141 3143 3144
5003 3 3141 3139 3137 3138
5004 6 3137 3139 3140 3149
5005 7 3137 3139 3140 3150
5006 6 3141 3139 3140 3149
5007 7 3141 3139 3140 3150
5008 3 3137 3139 3141 3142
5009 1 3137 3139 3141 3143
5010 20 822 821 819 820
5011 21 823 821 819 820
5012 3 819 821 823 824
5013 1 819 821 823 825
5014 5 822 821 823 824
5015 3 825 823 821 822
5016 3 821 823 825 826
5017 1 821 823 825 827
5018 5 824 823 825 826
5019 3 827 825 823 824
5020 1 823 825 827 817
5021 3 823 825 827 828
5022 5 826 825 827 828
5023 3 2757 2755 2753 2754
5024 6 2753 2755 2756 2765
5025 7 2753 2755 2756 2766
5026 6 2757 2755 2756 2765
5027 7 2757 2755 2756 2766
5028 3 2753 2755 2757 2758
5029 1 2753 2755 2757 2759
5030 20 2754 2753 2755 2756
5031 21 2763 2753 2755 2756
5032 1 2763 2753 2755 2757
5033 5 2754 2753 2763 2764
5034 1 2755 2753 2763 2761
5035 3 2755 2753 2763 2764
5036 3 3147 3145 3143 3144
5037 1 3143 3145 3147 3137
5038 3 3143 3145 3147 3148
5039 5 3146 3145 3147 3148
5040 3 3145 3143 3141 3142
5041 3 3141 3143 3145 3146
5042 1 3141 3143 3145 3147
5043 5 3144 3143 3145 3146
5044 3 2761 2759 2757 2758
5045 3 2757 2759 2761 2762
5046 1 2757 2759 2761 2763
5047 5 2760 2759 2761 2762
5048 3 2763 2761 2759 2760
5049 1 2759 2761 2763 2753
5050 3 2759 2761 2763 2764
5051 5 2762 2761 2763 2764
5052 3 2761 2763 2753 2754
5053 3 2753 2763 2761 2762
5054 3 553 551 549 550
5055 3 549 551 553 554
5056 1 549 551 553 555
5057 5 552 551 553 554
5058 8 2451 2452 2462 2463
5059 8 2451 2452 2462 2464
5060 9 2461 2452 2462 2463
5061 9 2461 2452 2462 2464
5062 3 2453 2451 2449 2450
5063 6 2449 2451 2452 2461
5064 7 2449 2451 2452 2462
5065 6 2453 2451 2452 2461
5066 7 2453 2451 2452 2462
5067 3 2449 2451 2453 2454
5068 1 2449 2451 2453 2455
5069 20 2450 2449 2451 2452
5070 21 2459 2449 2451 2452
5071 1 2459 2449 2451 2453
5072 5 2450 2449 2459 2460
5073 1 2451 2449 2459 2457
5074 3 2451 2449 2459 2460
5075 3 2457 2459 2449 2450
5076 3 2449 2459 2457 2458
5077 20 2758 2757 2755 2756
5078 21 2759 2757 2755 2756
5079 3 2755 2757 2759 2760
5080 1 2755 2757 2759 2761
5081 5 2758 2757 2759 2760
5082 20 2854 2853 2851 2852
5083 21 2855 2853 2851 2852
5084 3 2851 2853 2855 2856
5085 1 2851 2853 2855 2857
5086 5 2854 2853 2855 2856
5087 8 2851 2852 2862 2863
5088 8 2851 2852 2862 2864
5089 9 2861 2852 2862 2863
5090 9 2861 2852 2862 2864
5091 20 550 549 547 548
5092 21 551 549 547 548
5093 3 547 549 551 552
5094 1 547 549 551 553
5095 5 550 549 551 552
5096 3 549 547 545 546
5097 6 545 547 548 557
5098 7 545 547 548 558
5099 6 549 547 548 557
5100 7 549 547 548 558
5101 3 545 547 549 550
5102 1 545 547 549 551
5103 8 547 548 558 559
5104 8 547 548 558 560
5105 9 557 548 558 559
5106 9 557 548 558 560
5107 20 322 321 323 324
5108 21 331 321 323 324
5109 1 331 321 323 325
5110 5 322 321 331 332
5111 1 323 321 331 329
5112 3 323 321 331 332
5113 3 325 323 321 322
5114 6 321 323 324 333
5115 7 321 323 324 334
5116 6 325 323 324 333
5117 7 325 323 324 334
5118 3 321 323 325 326
5119 1 321 323 325 327
5120 8 323 324 334 335
5121 8 323 324 334 336
5122 9 333 324 334 335
5123 9 333 324 334 336
5124 3 329 331 321 322
5125 3 321 331 329 330
5126 3 921 919 917 918
5127 3 917 919 921 922
5128 1 917 919 921 923
5129 5 920 919 921 922
5130 3 1387 1385 1383 1384
5131 1 1383 1385 1387 1377
5132 3 1383 1385 1387 1388
5133 5 1386 1385 1387 1388
5134 3 1385 1383 1381 1382
5135 3 1381 1383 1385 1386
5136 1 1381 1383 1385 1387
5137 5 1384 1383 1385 1386
5138 8 227 228 238 239
5139 8 227 228 238 240
5140 9 237 228 238 239
5141 9 237 228 238 240
5142 20 230 229 227 228
5143 21 231 229 227 228
5144 3 227 229 231 232
5145 1 227 229 231 233
5146 5 230 229 231 232
5147 3 1381 1379 1377 1378
5148 6 1377 1379 1380 1389
5149 7 1377 1379 1380 1390
5150 6 1381 1379 1380 1389
5151 7 1381 1379 1380 1390
5152 3 1377 1379 1381 1382
5153 1 1377 1379 1381 1383
5154 20 1378 1377 1379 1380
5155 21 1387 1377 1379 1380
5156 1 1387 1377 1379 1381
5157 5 1378 1377 1387 1388
5158 1 1379 1377 1387 1385
5159 3 1379 1377 1387 1388
5160 3 1385 1387 1377 1378
5161 3 1377 1387 1385 1386
5162 8 2067 2068 2078 2079
5163 8 2067 2068 2078 2080
5164 9 2077 2068 2078 2079
5165 9 2077 2068 2078 2080
5166 3 2069 2067 2065 2066
5167 6 2065 2067 2068 2077
5168 7 2065 2067 2068 2078
5169 6 2069 2067 2068 2077
5170 7 2069 2067 2068 2078
5171 3 2065 2067 2069 2070
5172 1 2065 2067 2069 2071
5173 3 229 227 225 226
5174 6 225 227 228 237
5175 7 225 227 228 238
5176 6 229 227 228 237
5177 7 229 227 228 238
5178 3 225 227 229 230
5179 1 225 227 229 231
5180 20 226 225 227 228
5181 21 235 225 227 228
5182 1 235 225 227 229
5183 5 226 225 235 236
5184 1 227 225 235 233
5185 3 227 225 235 236
5186 20 2066 2065 2067 2068
5187 21 2075 2065 2067 2068
5188 1 2075 2065 2067 2069
5189 5 2066 2065 2075 2076
5190 1 2067 2065 2075 2073
5191 3 2067 2065 2075 2076
5192 3 233 235 225 226
5193 3 225 235 233 234
5194 3 233 231 229 230
5195 3 229 231 233 234
5196 1 229 231 233 235
5197 5 232 231 233 234
5198 3 235 233 231 232
5199 1 231 233 235 225
5200 3 231 233 235 236
5201 5 234 233 235 236
5202 3 1977 1979 1969 1970
5203 3 1969 1979 1977 1978
5204 3 1977 1975 1973 1974
5205 3 1973 1975 1977 1978
5206 1 1973 1975 1977 1979
5207 5 1976 1975 1977 1978
5208 3 1979 1977 1975 1976
5209 1 1975 1977 1979 1969
5210 3 1975 1977 1979 1980
5211 5 1978 1977 1979 1980
5212 3 1003 1001 999 1000
5213 1 999 1001 1003 993
5214 3 999 1001 1003 1004
5215 5 1002 1001 1003 1004
5216 3 1001 1003 993 994
5217 3 993 1003 1001 1002
5218 20 1382 1381 1379 1380
5219 21 1383 1381 1379 1380
5220 3 1379 1381 1383 1384
5221 1 1379 1381 1383 1385
5222 5 1382 1381 1383 1384
5223 8 1379 1380 1390 1391
5224 8 1379 1380 1390 1392
5225 9 1389 1380 1390 1391
5226 9 1389 1380 1390 1392
5227 20 2482 2481 2483 2484
5228 21 2491 2481 2483 2484
5229 1 2491 2481 2483 2485
5230 5 2482 2481 2491 2492
5231 1 2483 2481 2491 2489
5232 3 2483 2481 2491 2492
5233 3 2485 2483 2481 2482
5234 6 2481 2483 2484 2493
5235 7 2481 2483 2484 2494
5236 6 2485 2483 2484 2493
5237 7 2485 2483 2484 2494
5238 3 2481 2483 2485 2486
5239 1 2481 2483 2485 2487
5240 20 2486 2485 2483 2484
5241 21 2487 2485 2483 2484
5242 3 2483 2485 2487 2488
5243 1 2483 2485 2487 2489
5244 5 2486 2485 2487 2488
5245 8 2483 2484 2494 2495
5246 8 2483 2484 2494 2496
5247 9 2493 2484 2494 2495
5248 9 2493 2484 2494 2496
5249 3 1673 1675 1665 1666
5250 3 1665 1675 1673 1674
5251 20 1666 1665 1667 1668
5252 21 1675 1665 1667 1668
5253 1 1675 1665 1667 1669
5254 5 1666 1665 1675 1676
5255 1 1667 1665 1675 1673
5256 3 1667 1665 1675 1676
5257 8 1315 1316 1326 1327
5258 8 1315 1316 1326 1328
5259 9 1325 1316 1326 1327
5260 9 1325 1316 1326 1328
5261 8 1667 1668 1678 1679
5262 8 1667 1668 1678 1680
5263 9 1677 1668 1678 1679
5264 9 1677 1668 1678 1680
5265 3 1669 1667 1665 1666
5266 6 1665 1667 1668 1677
5267 7 1665 1667 1668 1678
5268 6 1669 1667 1668 1677
5269 7 1669 1667 1668 1678
5270 3 1665 1667 1669 1670
5271 1 1665 1667 1669 1671
5272 3 1675 1673 1671 1672
5273 1 1671 1673 1675 1665
5274 3 1671 1673 1675 1676
5275 5 1674 1673 1675 1676
5276 3 1673 1671 1669 1670
5277 3 1669 1671 1673 1674
5278 1 1669 1671 1673 1675
5279 5 1672 1671 1673 1674
5280 20 1670 1669 1667 1668
5281 21 1671 1669 1667 1668
5282 3 1667 1669 1671 1672
5283 1 1667 1669 1671 1673
5284 5 1670 1669 1671 1672
5285 20 1286 1285 1283 1284
5286 21 1287 1285 1283 1284
5287 3 1283 1285 1287 1288
5288 1 1283 1285 1287 1289
5289 5 1286 1285 1287 1288
5290 3 1289 1287 1285 1286
5291 3 1285 1287 1289 1290
5292 1 1285 1287 1289 1291
5293 5 1288 1287 1289 1290
5294 3 1285 1283 1281 1282
5295 6 1281 1283 1284 1293
5296 7 1281 1283 1284 1294
5297 6 1285 1283 1284 1293
5298 7 1285 1283 1284 1294
5299 3 1281 1283 1285 1286
5300 1 1281 1283 1285 1287
5301 8 1283 1284 1294 1295
5302 8 1283 1284 1294 1296
5303 9 1293 1284 1294 1295
5304 9 1293 1284 1294 1296
5305 3 1291 1289 1287 1288
5306 1 1287 1289 1291 1281
5307 3 1287 1289 1291 1292
5308 5 1290 1289 1291 1292
5309 8 1059 1060 1070 1071
5310 8 1059 1060 1070 1072
5311 9 1069 1060 1070 1071
5312 9 1069 1060 1070 1072
5313 3 1061 1059 1057 1058
5314 6 1057 1059 1060 1069
5315 7 1057 1059 1060 1070
5316 6 1061 1059 1060 1069
5317 7 1061 1059 1060 1070
5318 3 1057 1059 1061 1062
5319 1 1057 1059 1061 1063
5320 20 1282 1281 1283 1284
5321 21 1291 1281 1283 1284
5322 1 1291 1281 1283 1285
5323 5 1282 1281 1291 1292
5324 1 1283 1281 1291 1289
5325 3 1283 1281 1291 1292
5326 3 1289 1291 1281 1282
5327 3 1281 1291 1289 1290
5328 3 2165 2163 2161 2162
5329 6 2161 2163 2164 2173
5330 7 2161 2163 2164 2174
5331 6 2165 2163 2164 2173
5332 7 2165 2163 2164 2174
5333 3 2161 2163 2165 2166
5334 1 2161 2163 2165 2167
5335 20 2162 2161 2163 2164
5336 21 2171 2161 2163 2164
5337 1 2171 2161 2163 2165
5338 5 2162 2161 2171 2172
5339 1 2163 2161 2171 2169
5340 3 2163 2161 2171 2172
5341 3 2169 2171 2161 2162
5342 3 2161 2171 2169 2170
5343 20 1810 1809 1811 1812
5344 21 1819 1809 1811 1812
5345 1 1819 1809 1811 1813
5346 5 1810 1809 1819 1820
5347 1 1811 1809 1819 1817
5348 3 1811 1809 1819 1820
5349 3 1813 1811 1809 1810
5350 6 1809 1811 1812 1821
5351 7 1809 1811 1812 1822
5352 6 1813 1811 1812 1821
5353 7 1813 1811 1812 1822
5354 3 1809 1811 1813 1814
5355 1 1809 1811 1813 1815
5356 8 1811 1812 1822 1823
5357 8 1811 1812 1822 1824
5358 9 1821 1812 1822 1823
5359 9 1821 1812 1822 1824
5360 20 1058 1057 1059 1060
5361 21 1067 1057 1059 1060
5362 1 1067 1057 1059 1061
5363 5 1058 1057 1067 1068
5364 1 1059 1057 1067 1065
5365 3 1059 1057 1067 1068
5366 3 1817 1819 1809 1810
5367 3 1809 1819 1817 1818
5368 3 2169 2167 2165 2166
5369 3 2165 2167 2169 2170
5370 1 2165 2167 2169 2171
5371 5 2168 2167 2169 2170
5372 3 2171 2169 2167 2168
5373 1 2167 2169 2171 2161
5374 3 2167 2169 2171 2172
5375 5 2170 2169 2171 2172
5376 20 2710 2709 2707 2708
5377 21 2711 2709 2707 2708
5378 3 2707 2709 2711 2712
5379 1 2707 2709 2711 2713
5380 5 2710 2709 2711 2712
5381 3 2713 2711 2709 2710
5382 3 2709 2711 2713 2714
5383 1 2709 2711 2713 2715
5384 5 2712 2711 2713 2714
5385 3 2715 2713 2711 2712
5386 1 2711 2713 2715 2705
5387 3 2711 2713 2715 2716
5388 5 2714 2713 2715 2716
5389 3 2709 2707 2705 2706
5390 6 2705 2707 2708 2717
5391 7 2705 2707 2708 2718
5392 6 2709 2707 2708 2717
5393 7 2709 2707 2708 2718
5394 3 2705 2707 2709 2710
5395 1 2705 2707 2709 2711
5396 3 2713 2715 2705 2706
5397 3 2705 2715 2713 2714
5398 3 2553 2555 2545 2546
5399 3 2545 2555 2553 2554
5400 3 2555 2553 2551 2552
5401 1 2551 2553 2555 2545
5402 3 2551 2553 2555 2556
5403 5 2554 2553 2555 2556
5404 3 1065 1063 1061 1062
5405 3 1061 1063 1065 1066
5406 1 1061 1063 1065 1067
5407 5 1064 1063 1065 1066
5408 20 1062 1061 1059 1060
5409 21 1063 1061 1059 1060
5410 3 1059 1061 1063 1064
5411 1 1059 1061 1063 1065
5412 5 1062 1061 1063 1064
5413 8 2707 2708 2718 2719
5414 8 2707 2708 2718 2720
5415 9 2717 2708 2718 2719
5416 9 2717 2708 2718 2720
5417 20 2706 2705 2707 2708
5418 21 2715 2705 2707 2708
5419 1 2715 2705 2707 2709
5420 5 2706 2705 2715 2716
5421 1 2707 2705 2715 2713
5422 3 2707 2705 2715 2716
5423 3 1067 1065 1063 1064
5424 1 1063 1065 1067 1057
5425 3 1063 1065 1067 1068
5426 5 1066 1065 1067 1068
5427 3 1065 1067 1057 1058
5428 3 1057 1067 1065 1066
5429 20 2546 2545 2547 2548
5430 21 2555 2545 2547 2548
5431 1 2555 2545 2547 2549
5432 5 2546 2545 2555 2556
5433 1 2547 2545 2555 2553
5434 3 2547 2545 2555 2556
5435 8 2547 2548 2558 2559
5436 8 2547 2548 2558 2560
5437 9 2557 2548 2558 2559
5438 9 2557 2548 2558 2560
5439 3 2549 2547 2545 2546
5440 6 2545 2547 2548 2557
5441 7 2545 2547 2548 2558
5442 6 2549 2547 2548 2557
5443 7 2549 2547 2548 2558
5444 3 2545 2547 2549 2550
5445 1 2545 2547 2549 2551
5446 8 835 836 846 847
5447 8 835 836 846 848
5448 9 845 836 846 847
5449 9 845 836 846 848
5450 3 837 835 833 834
5451 6 833 835 836 845
5452 7 833 835 836 846
5453 6 837 835 836 845
5454 7 837 835 836 846
5455 3 833 835 837 838
5456 1 833 835 837 839
5457 20 834 833 835 836
5458 21 843 833 835 836
5459 1 843 833 835 837
5460 5 834 833 843 844
5461 1 835 833 843 841
5462 3 835 833 843 844
5463 20 838 837 835 836
5464 21 839 837 835 836
5465 3 835 837 839 840
5466 1 835 837 839 841
5467 5 838 837 839 840
5468 20 2550 2549 2547 2548
5469 21 2551 2549 2547 2548
5470 3 2547 2549 2551 2552
5471 1 2547 2549 2551 2553
5472 5 2550 2549 2551 2552
5473 3 2553 2551 2549 2550
5474 3 2549 2551 2553 2554
5475 1 2549 2551 2553 2555
5476 5 2552 2551 2553 2554
5477 8 3283 3284 3294 3295
5478 8 3283 3284 3294 3296
5479 9 3293 3284 3294 3295
5480 9 3293 3284 3294 3296
5481 3 3285 3283 3281 3282
5482 6 3281 3283 3284 3293
5483 7 3281 3283 3284 3294
5484 6 3285 3283 3284 3293
5485 7 3285 3283 3284 3294
5486 3 3281 3283 3285 3286
5487 1 3281 3283 3285 3287
5488 3 2117 2115 2113 2114
5489 6 2113 2115 2116 2125
5490 7 2113 2115 2116 2126
5491 6 2117 2115 2116 2125
5492 7 2117 2115 2116 2126
5493 3 2113 2115 2117 2118
5494 1 2113 2115 2117 2119
5495 8 2115 2116 2126 2127
5496 8 2115 2116 2126 2128
5497 9 2125 2116 2126 2127
5498 9 2125 2116 2126 2128
5499 20 2118 2117 2115 2116
5500 21 2119 2117 2115 2116
5501 3 2115 2117 2119 2120
5502 1 2115 2117 2119 2121
5503 5 2118 2117 2119 2120
5504 8 2595 2596 2606 2607
5505 8 2595 2596 2606 2608
5506 9 2605 2596 2606 2607
5507 9 2605 2596 2606 2608
5508 3 841 843 833 834
5509 3 833 843 841 842
5510 20 2114 2113 2115 2116
5511 21 2123 2113 2115 2116
5512 1 2123 2113 2115 2117
5513 5 2114 2113 2123 2124
5514 1 2115 2113 2123 2121
5515 3 2115 2113 2123 2124
5516 3 2121 2123 2113 2114
5517 3 2113 2123 2121 2122
5518 3 843 841 839 840
5519 1 839 841 843 833
5520 3 839 841 843 844
5521 5 842 841 843 844
5522 3 841 839 837 838
5523 3 837 839 841 842
5524 1 837 839 841 843
5525 5 840 839 841 842
5526 8 499 500 510 511
5527 8 499 500 510 512
5528 9 509 500 510 511
5529 9 509 500 510 512
5530 3 501 499 497 498
5531 6 497 499 500 509
5532 7 497 499 500 510
5533 6 501 499 500 509
5534 7 501 499 500 510
5535 3 497 499 501 502
5536 1 497 499 501 503
5537 20 498 497 499 500
5538 21 507 497 499 500
5539 1 507 497 499 501
5540 5 498 497 507 508
5541 1 499 497 507 505
5542 3 499 497 507 508
5543 3 505 507 497 498
5544 3 497 507 505 506
5545 3 2121 2119 2117 2118
5546 3 2117 2119 2121 2122
5547 1 2117 2119 2121 2123
5548 5 2120 2119 2121 2122
5549 3 507 505 503 504
5550 1 503 505 507 497
5551 3 503 505 507 508
5552 5 506 505 507 508
5553 20 2962 2961 2963 2964
5554 21 2971 2961 2963 2964
5555 1 2971 2961 2963 2965
5556 5 2962 2961 2971 2972
5557 1 2963 2961 2971 2969
5558 3 2963 2961 2971 2972
5559 3 2969 2971 2961 2962
5560 3 2961 2971 2969 2970
5561 3 2971 2969 2967 2968
5562 1 2967 2969 2971 2961
5563 3 2967 2969 2971 2972
5564 5 2970 2969 2971 2972
5565 3 505 503 501 502
5566 3 501 503 505 506
5567 1 501 503 505 507
5568 5 504 503 505 506
5569 3 2965 2963 2961 2962
5570 6 2961 2963 2964 2973
5571 7 2961 2963 2964 2974
5572 6 2965 2963 2964 2973
5573 7 2965 2963 2964 2974
5574 3 2961 2963 2965 2966
5575 1 2961 2963 2965 2967
5576 3 1963 1961 1959 1960
5577 1 1959 1961 1963 1953
5578 3 1959 1961 1963 1964
5579 5 1962 1961 1963 1964
5580 20 1174 1173 1171 1172
5581 21 1175 1173 1171 1172
5582 3 1171 1173 1175 1176
5583 1 1171 1173 1175 1177
5584 5 1174 1173 1175 1176
5585 3 2123 2121 2119 2120
5586 1 2119 2121 2123 2113
5587 3 2119 2121 2123 2124
5588 5 2122 2121 2123 2124
5589 20 502 501 499 500
5590 21 503 501 499 500
5591 3 499 501 503 504
5592 1 499 501 503 505
5593 5 502 501 503 504
5594 3 2649 2647 2645 2646
5595 3 2645 2647 2649 2650
5596 1 2645 2647 2649 2651
5597 5 2648 2647 2649 2650
5598 8 1171 1172 1182 1183
5599 8 1171 1172 1182 1184
5600 9 1181 1172 1182 1183
5601 9 1181 1172 1182 1184
5602 20 2646 2645 2643 2644
5603 21 2647 2645 2643 2644
5604 3 2643 2645 2647 2648
5605 1 2643 2645 2647 2649
5606 5 2646 2645 2647 2648
5607 8 2643 2644 2654 2655
5608 8 2643 2644 2654 2656
5609 9 2653 2644 2654 2655
5610 9 2653 2644 2654 2656
5611 3 2651 2649 2647 2648
5612 1 2647 2649 2651 2641
5613 3 2647 2649 2651 2652
5614 5 2650 2649 2651 2652
5615 3 2649 2651 2641 2642
5616 3 2641 2651 2649 2650
5617 3 2645 2643 2641 2642
5618 6 2641 2643 2644 2653
5619 7 2641 2643 2644 2654
5620 6 2645 2643 2644 2653
5621 7 2645 2643 2644 2654
5622 3 2641 2643 2645 2646
5623 1 2641 2643 2645 2647
5624 20 2642 2641 2643 2644
5625 21 2651 2641 2643 2644
5626 1 2651 2641 2643 2645
5627 5 2642 2641 2651 2652
5628 1 2643 2641 2651 2649
5629 3 2643 2641 2651 2652
5630 20 2966 2965 2963 2964
5631 21 2967 2965 2963 2964
5632 3 2963 2965 2967 2968
5633 1 2963 2965 2967 2969
5634 5 2966 2965 2967 2968
5635 8 2963 2964 2974 2975
5636 8 2963 2964 2974 2976
5637 9 2973 2964 2974 2975
5638 9 2973 2964 2974 2976
5639 3 2217 2215 2213 2214
5640 3 2213 2215 2217 2218
5641 1 2213 2215 2217 2219
5642 5 2216 2215 2217 2218
5643 3 1961 1963 1953 1954
5644 3 1953 1963 1961 1962
5645 20 2210 2209 2211 2212
5646 21 2219 2209 2211 2212
5647 1 2219 2209 2211 2213
5648 5 2210 2209 2219 2220
5649 1 2211 2209 2219 2217
5650 3 2211 2209 2219 2220
5651 20 1954 1953 1955 1956
5652 21 1963 1953 1955 1956
5653 1 1963 1953 1955 1957
5654 5 1954 1953 1963 1964
5655 1 1955 1953 1963 1961
5656 3 1955 1953 1963 1964
5657 3 2213 2211 2209 2210
5658 6 2209 2211 2212 2221
5659 7 2209 2211 2212 2222
5660 6 2213 2211 2212 2221
5661 7 2213 2211 2212 2222
5662 3 2209 2211 2213 2214
5663 1 2209 2211 2213 2215
5664 3 1957 1955 1953 1954
5665 6 1953 1955 1956 1965
5666 7 1953 1955 1956 1966
5667 6 1957 1955 1956 1965
5668 7 1957 1955 1956 1966
5669 3 1953 1955 1957 1958
5670 1 1953 1955 1957 1959
5671 8 1955 1956 1966 1967
5672 8 1955 1956 1966 1968
5673 9 1965 1956 1966 1967
5674 9 1965 1956 1966 1968
5675 20 2214 2213 2211 2212
5676 21 2215 2213 2211 2212
5677 3 2211 2213 2215 2216
5678 1 2211 2213 2215 2217
5679 5 2214 2213 2215 2216
5680 8 2211 2212 2222 2223
5681 8 2211 2212 2222 2224
5682 9 2221 2212 2222 2223
5683 9 2221 2212 2222 2224
5684 20 1270 1269 1267 1268
5685 21 1271 1269 1267 1268
5686 3 1267 1269 1271 1272
5687 1 1267 1269 1271 1273
5688 5 1270 1269 1271 1272
5689 3 1273 1271 1269 1270
5690 3 1269 1271 1273 1274
5691 1 1269 1271 1273 1275
5692 5 1272 1271 1273 1274
5693 3 2219 2217 2215 2216
5694 1 2215 2217 2219 2209
5695 3 2215 2217 2219 2220
5696 5 2218 2217 2219 2220
5697 3 2217 2219 2209 2210
5698 3 2209 2219 2217 2218
5699 3 1269 1267 1265 1266
5700 6 1265 1267 1268 1277
5701 7 1265 1267 1268 1278
5702 6 1269 1267 1268 1277
5703 7 1269 1267 1268 1278
5704 3 1265 1267 1269 1270
5705 1 1265 1267 1269 1271
5706 3 1273 1275 1265 1266
5707 3 1265 1275 1273 1274
5708 20 1266 1265 1267 1268
5709 21 1275 1265 1267 1268
5710 1 1275 1265 1267 1269
5711 5 1266 1265 1275 1276
5712 1 1267 1265 1275 1273
5713 3 1267 1265 1275 1276
5714 8 1267 1268 1278 1279
5715 8 1267 1268 1278 1280
5716 9 1277 1268 1278 1279
5717 9 1277 1268 1278 1280
5718 20 758 757 755 756
5719 21 759 757 755 756
5720 3 755 757 759 760
5721 1 755 757 759 761
5722 5 758 757 759 760
5723 3 757 755 753 754
5724 6 753 755 756 765
5725 7 753 755 756 766
5726 6 757 755 756 765
5727 7 757 755 756 766
5728 3 753 755 757 758
5729 1 753 755 757 759
5730 20 818 817 819 820
5731 21 827 817 819 820
5732 1 827 817 819 821
5733 5 818 817 827 828
5734 1 819 817 827 825
5735 3 819 817 827 828
5736 3 1829 1827 1825 1826
5737 6 1825 1827 1828 1837
5738 7 1825 1827 1828 1838
5739 6 1829 1827 1828 1837
5740 7 1829 1827 1828 1838
5741 3 1825 1827 1829 1830
5742 1 1825 1827 1829 1831
5743 8 1827 1828 1838 1839
5744 8 1827 1828 1838 1840
5745 9 1837 1828 1838 1839
5746 9 1837 1828 1838 1840
5747 3 2201 2203 2193 2194
5748 3 2193 2203 2201 2202
5749 20 1826 1825 1827 1828
5750 21 1835 1825 1827 1828
5751 1 1835 1825 1827 1829
5752 5 1826 1825 1835 1836
5753 1 1827 1825 1835 1833
5754 3 1827 1825 1835 1836
5755 20 2194 2193 2195 2196
5756 21 2203 2193 2195 2196
5757 1 2203 2193 2195 2197
5758 5 2194 2193 2203 2204
5759 1 2195 2193 2203 2201
5760 3 2195 2193 2203 2204
5761 3 2203 2201 2199 2200
5762 1 2199 2201 2203 2193
5763 3 2199 2201 2203 2204
5764 5 2202 2201 2203 2204
5765 3 825 827 817 818
5766 3 817 827 825 826
5767 20 1830 1829 1827 1828
5768 21 1831 1829 1827 1828
5769 3 1827 1829 1831 1832
5770 1 1827 1829 1831 1833
5771 5 1830 1829 1831 1832
5772 3 761 759 757 758
5773 3 757 759 761 762
5774 1 757 759 761 763
5775 5 760 759 761 762
5776 3 763 761 759 760
5777 1 759 761 763 753
5778 3 759 761 763 764
5779 5 762 761 763 764
5780 20 2198 2197 2195 2196
5781 21 2199 2197 2195 2196
5782 3 2195 2197 2199 2200
5783 1 2195 2197 2199 2201
5784 5 2198 2197 2199 2200
5785 3 2201 2199 2197 2198
5786 3 2197 2199 2201 2202
5787 1 2197 2199 2201 2203
5788 5 2200 2199 2201 2202
5789 3 2197 2195 2193 2194
5790 6 2193 2195 2196 2205
5791 7 2193 2195 2196 2206
5792 6 2197 2195 2196 2205
5793 7 2197 2195 2196 2206
5794 3 2193 2195 2197 2198
5795 1 2193 2195 2197 2199
5796 8 2195 2196 2206 2207
5797 8 2195 2196 2206 2208
5798 9 2205 2196 2206 2207
5799 9 2205 2196 2206 2208
5800 3 761 763 753 754
5801 3 753 763 761 762
5802 8 1331 1332 1342 1343
5803 8 1331 1332 1342 1344
5804 9 1341 1332 1342 1343
5805 9 1341 1332 1342 1344
5806 3 1833 1835 1825 1826
5807 3 1825 1835 1833 1834
5808 3 745 743 741 742
5809 3 741 743 745 746
5810 1 741 743 745 747
5811 5 744 743 745 746
5812 3 747 745 743 744
5813 1 743 745 747 737
5814 3 743 745 747 748
5815 5 746 745 747 748
5816 8 2563 2564 2574 2575
5817 8 2563 2564 2574 2576
5818 9 2573 2564 2574 2575
5819 9 2573 2564 2574 2576
5820 3 745 747 737 738
5821 3 737 747 745 746
5822 20 738 737 739 740
5823 21 747 737 739 740
5824 1 747 737 739 741
5825 5 738 737 747 748
5826 1 739 737 747 745
5827 3 739 737 747 748
5828 20 742 741 739 740
5829 21 743 741 739 740
5830 3 739 741 743 744
5831 1 739 741 743 745
5832 5 742 741 743 744
5833 3 741 739 737 738
5834 6 737 739 740 749
5835 7 737 739 740 750
5836 6 741 739 740 749
5837 7 741 739 740 750
5838 3 737 739 741 742
5839 1 737 739 741 743
5840 8 739 740 750 751
5841 8 739 740 750 752
5842 9 749 740 750 751
5843 9 749 740 750 752
5844 20 1330 1329 1331 1332
5845 21 1339 1329 1331 1332
5846 1 1339 1329 1331 1333
5847 5 1330 1329 1339 1340
5848 1 1331 1329 1339 1337
5849 3 1331 1329 1339 1340
5850 3 331 329 327 328
5851 1 327 329 331 321
5852 3 327 329 331 332
5853 5 330 329 331 332
5854 3 1833 1831 1829 1830
5855 3 1829 1831 1833 1834
5856 1 1829 1831 1833 1835
5857 5 1832 1831 1833 1834
5858 3 923 921 919 920
5859 1 919 921 923 913
5860 3 919 921 923 924
5861 5 922 921 923 924
5862 3 1835 1833 1831 1832
5863 1 1831 1833 1835 1825
5864 3 1831 1833 1835 1836
5865 5 1834 1833 1835 1836
5866 3 921 923 913 914
5867 3 913 923 921 922
5868 20 326 325 323 324
5869 21 327 325 323 324
5870 3 323 325 327 328
5871 1 323 325 327 329
5872 5 326 325 327 328
5873 20 914 913 915 916
5874 21 923 913 915 916
5875 1 923 913 915 917
5876 5 914 913 923 924
5877 1 915 913 923 921
5878 3 915 913 923 924
5879 3 917 915 913 914
5880 6 913 915 916 925
5881 7 913 915 916 926
5882 6 917 915 916 925
5883 7 917 915 916 926
5884 3 913 915 917 918
5885 1 913 915 917 919
5886 8 915 916 926 927
5887 8 915 916 926 928
5888 9 925 916 926 927
5889 9 925 916 926 928
5890 20 918 917 915 916
5891 21 919 917 915 916
5892 3 915 917 919 920
5893 1 915 917 919 921
5894 5 918 917 919 920
5895 3 329 327 325 326
5896 3 325 327 329 330
5897 1 325 327 329 331
5898 5 328 327 329 330
5899 20 1334 1333 1331 1332
5900 21 1335 1333 1331 1332
5901 3 1331 1333 1335 1336
5902 1 1331 1333 1335 1337
5903 5 1334 1333 1335 1336
5904 3 1333 1331 1329 1330
5905 6 1329 1331 1332 1341
5906 7 1329 1331 1332 1342
5907 6 1333 1331 1332 1341
5908 7 1333 1331 1332 1342
5909 3 1329 1331 1333 1334
5910 1 1329 1331 1333 1335
5911 3 1337 1335 1333 1334
5912 3 1333 1335 1337 1338
5913 1 1333 1335 1337 1339
5914 5 1336 1335 1337 1338
5915 3 1339 1337 1335 1336
5916 1 1335 1337 1339 1329
5917 3 1335 1337 1339 1340
5918 5 1338 1337 1339 1340
5919 3 1337 1339 1329 1330
5920 3 1329 1339 1337 1338
5921 3 201 203 193 194
5922 3 193 203 201 202
5923 3 203 201 199 200
5924 1 199 201 203 193
5925 3 199 201 203 204
5926 5 202 201 203 204
5927 20 1974 1973 1971 1972
5928 21 1975 1973 1971 1972
5929 3 1971 1973 1975 1976
5930 1 1971 1973 1975 1977
5931 5 1974 1973 1975 1976
5932 3 1867 1865 1863 1864
5933 1 1863 1865 1867 1857
5934 3 1863 1865 1867 1868
5935 5 1866 1865 1867 1868
5936 3 201 199 197 198
5937 3 197 199 201 202
5938 1 197 199 201 203
5939 5 200 199 201 202
5940 20 194 193 195 196
5941 21 203 193 195 196
5942 1 203 193 195 197
5943 5 194 193 203 204
5944 1 195 193 203 201
5945 3 195 193 203 204
5946 3 1973 1971 1969 1970
5947 6 1969 1971 1972 1981
5948 7 1969 1971 1972 1982
5949 6 1973 1971 1972 1981
5950 7 1973 1971 1972 1982
5951 3 1969 1971 1973 1974
5952 1 1969 1971 1973 1975
5953 20 1970 1969 1971 1972
5954 21 1979 1969 1971 1972
5955 1 1979 1969 1971 1973
5956 5 1970 1969 1979 1980
5957 1 1971 1969 1979 1977
5958 3 1971 1969 1979 1980
5959 8 1971 1972 1982 1983
5960 8 1971 1972 1982 1984
5961 9 1981 1972 1982 1983
5962 9 1981 1972 1982 1984
5963 20 1862 1861 1859 1860
5964 21 1863 1861 1859 1860
5965 3 1859 1861 1863 1864
5966 1 1859 1861 1863 1865
5967 5 1862 1861 1863 1864
5968 3 1865 1863 1861 1862
5969 3 1861 1863 1865 1866
5970 1 1861 1863 1865 1867
5971 5 1864 1863 1865 1866
5972 3 3323 3321 3319 3320
5973 1 3319 3321 3323 3313
5974 3 3319 3321 3323 3324
5975 5 3322 3321 3323 3324
5976 3 3321 3323 3313 3314
5977 3 3313 3323 3321 3322
5978 20 3314 3313 3315 3316
5979 21 3323 3313 3315 3316
5980 1 3323 3313 3315 3317
5981 5 3314 3313 3323 3324
5982 1 3315 3313 3323 3321
5983 3 3315 3313 3323 3324
5984 3 1861 1859 1857 1858
5985 6 1857 1859 1860 1869
5986 7 1857 1859 1860 1870
5987 6 1861 1859 1860 1869
5988 7 1861 1859 1860 1870
5989 3 1857 1859 1861 1862
5990 1 1857 1859 1861 1863
5991 3 3321 3319 3317 3318
5992 3 3317 3319 3321 3322
5993 1 3317 3319 3321 3323
5994 5 3320 3319 3321 3322
5995 20 3318 3317 3315 3316
5996 21 3319 3317 3315 3316
5997 3 3315 3317 3319 3320
5998 1 3315 3317 3319 3321
5999 5 3318 3317 3319 3320
6000 3 3317 3315 3313 3314
6001 6 3313 3315 3316 3325
6002 7 3313 3315 3316 3326
6003 6 3317 3315 3316 3325
6004 7 3317 3315 3316 3326
6005 3 3313 3315 3317 3318
6006 1 3313 3315 3317 3319
6007 3 373 371 369 370
6008 6 369 371 372 381
6009 7 369 371 372 382
6010 6 373 371 372 381
6011 7 373 371 372 382
6012 3 369 371 373 374
6013 1 369 371 373 375
6014 8 371 372 382 383
6015 8 371 372 382 384
6016 9 381 372 382 383
6017 9 381 372 382 384
6018 20 370 369 371 372
6019 21 379 369 371 372
6020 1 379 369 371 373
6021 5 370 369 379 380
6022 1 371 369 379 377
6023 3 371 369 379 380
6024 20 374 373 371 372
6025 21 375 373 371 372
6026 3 371 373 375 376
6027 1 371 373 375 377
6028 5 374 373 375 376
6029 3 379 377 375 376
6030 1 375 377 379 369
6031 3 375 377 379 380
6032 5 378 377 379 380
6033 3 377 375 373 374
6034 3 373 375 377 378
6035 1 373 375 377 379
6036 5 376 375 377 378
6037 3 377 379 369 370
6038 3 369 379 377 378
6039 20 1814 1813 1811 1812
6040 21 1815 1813 1811 1812
6041 3 1811 1813 1815 1816
6042 1 1811 1813 1815 1817
6043 5 1814 1813 1815 1816
6044 20 1858 1857 1859 1860
6045 21 1867 1857 1859 1860
6046 1 1867 1857 1859 1861
6047 5 1858 1857 1867 1868
6048 1 1859 1857 1867 1865
6049 3 1859 1857 1867 1868
6050 3 1865 1867 1857 1858
6051 3 1857 1867 1865 1866
6052 3 1819 1817 1815 1816
6053 1 1815 1817 1819 1809
6054 3 1815 1817 1819 1820
6055 5 1818 1817 1819 1820
6056 3 1817 1815 1813 1814
6057 3 1813 1815 1817 1818
6058 1 1813 1815 1817 1819
6059 5 1816 1815 1817 1818
6060 8 1859 1860 1870 1871
6061 8 1859 1860 1870 1872
6062 9 1869 1860 1870 1871
6063 9 1869 1860 1870 1872
6064 8 2163 2164 2174 2175
6065 8 2163 2164 2174 2176
6066 9 2173 2164 2174 2175
6067 9 2173 2164 2174 2176
6068 8 2499 2500 2510 2511
6069 8 2499 2500 2510 2512
6070 9 2509 2500 2510 2511
6071 9 2509 2500 2510 2512
6072 20 2166 2165 2163 2164
6073 21 2167 2165 2163 2164
6074 3 2163 2165 2167 2168
6075 1 2163 2165 2167 2169
6076 5 2166 2165 2167 2168
6077 20 530 529 531 532
6078 21 539 529 531 532
6079 1 539 529 531 533
6080 5 530 529 539 540
6081 1 531 529 539 537
6082 3 531 529 539 540
6083 3 539 537 535 536
6084 1 535 537 539 529
6085 3 535 537 539 540
6086 5 538 537 539 540
6087 3 537 539 529 530
6088 3 529 539 537 538
6089 3 533 531 529 530
6090 6 529 531 532 541
6091 7 529 531 532 542
6092 6 533 531 532 541
6093 7 533 531 532 542
6094 3 529 531 533 534
6095 1 529 531 533 535
6096 20 2982 2981 2979 2980
6097 21 2983 2981 2979 2980
6098 3 2979 2981 2983 2984
6099 1 2979 2981 2983 2985
6100 5 2982 2981 2983 2984
6101 3 2985 2983 2981 2982
6102 3 2981 2983 2985 2986
6103 1 2981 2983 2985 2987
6104 5 2984 2983 2985 2986
6105 8 1747 1748 1758 1759
6106 8 1747 1748 1758 1760
6107 9 1757 1748 1758 1759
6108 9 1757 1748 1758 1760
6109 20 1746 1745 1747 1748
6110 21 1755 1745 1747 1748
6111 1 1755 1745 1747 1749
6112 5 1746 1745 1755 1756
6113 1 1747 1745 1755 1753
6114 3 1747 1745 1755 1756
6115 3 1755 1753 1751 1752
6116 1 1751 1753 1755 1745
6117 3 1751 1753 1755 1756
6118 5 1754 1753 1755 1756
6119 3 1749 1747 1745 1746
6120 6 1745 1747 1748 1757
6121 7 1745 1747 1748 1758
6122 6 1749 1747 1748 1757
6123 7 1749 1747 1748 1758
6124 3 1745 1747 1749 1750
6125 1 1745 1747 1749 1751
6126 3 1753 1755 1745 1746
6127 3 1745 1755 1753 1754
6128 3 1753 1751 1749 1750
6129 3 1749 1751 1753 1754
6130 1 1749 1751 1753 1755
6131 5 1752 1751 1753 1754
6132 20 1750 1749 1747 1748
6133 21 1751 1749 1747 1748
6134 3 1747 1749 1751 1752
6135 1 1747 1749 1751 1753
6136 5 1750 1749 1751 1752
6137 3 2987 2985 2983 2984
6138 1 2983 2985 2987 2977
6139 3 2983 2985 2987 2988
6140 5 2986 2985 2987 2988
6141 3 2985 2987 2977 2978
6142 3 2977 2987 2985 2986
6143 3 1643 1641 1639 1640
6144 1 1639 1641 1643 1633
6145 3 1639 1641 1643 1644
6146 5 1642 1641 1643 1644
6147 3 1641 1643 1633 1634
6148 3 1633 1643 1641 1642
6149 20 1634 1633 1635 1636
6150 21 1643 1633 1635 1636
6151 1 1643 1633 1635 1637
6152 5 1634 1633 1643 1644
6153 1 1635 1633 1643 1641
6154 3 1635 1633 1643 1644
6155 20 2978 2977 2979 2980
6156 21 2987 2977 2979 2980
6157 1 2987 2977 2979 2981
6158 5 2978 2977 2987 2988
6159 1 2979 2977 2987 2985
6160 3 2979 2977 2987 2988
6161 3 2921 2919 2917 2918
6162 3 2917 2919 2921 2922
6163 1 2917 2919 2921 2923
6164 5 2920 2919 2921 2922
6165 3 2923 2921 2919 2920
6166 1 2919 2921 2923 2913
6167 3 2919 2921 2923 2924
6168 5 2922 2921 2923 2924
6169 3 217 219 209 210
6170 3 209 219 217 218
6171 20 210 209 211 212
6172 21 219 209 211 212
6173 1 219 209 211 213
6174 5 210 209 219 220
6175 1 211 209 219 217
6176 3 211 209 219 220
6177 8 2979 2980 2990 2991
6178 8 2979 2980 2990 2992
6179 9 2989 2980 2990 2991
6180 9 2989 2980 2990 2992
6181 3 1641 1639 1637 1638
6182 3 1637 1639 1641 1642
6183 1 1637 1639 1641 1643
6184 5 1640 1639 1641 1642
6185 3 1637 1635 1633 1634
6186 6 1633 1635 1636 1645
6187 7 1633 1635 1636 1646
6188 6 1637 1635 1636 1645
6189 7 1637 1635 1636 1646
6190 3 1633 1635 1637 1638
6191 1 1633 1635 1637 1639
6192 8 1635 1636 1646 1647
6193 8 1635 1636 1646 1648
6194 9 1645 1636 1646 1647
6195 9 1645 1636 1646 1648
6196 3 2981 2979 2977 2978
6197 6 2977 2979 2980 2989
6198 7 2977 2979 2980 2990
6199 6 2981 2979 2980 2989
6200 7 2981 2979 2980 2990
6201 3 2977 2979 2981 2982
6202 1 2977 2979 2981 2983
6203 20 1638 1637 1635 1636
6204 21 1639 1637 1635 1636
6205 3 1635 1637 1639 1640
6206 1 1635 1637 1639 1641
6207 5 1638 1637 1639 1640
6208 3 2357 2355 2353 2354
6209 6 2353 2355 2356 2365
6210 7 2353 2355 2356 2366
6211 6 2357 2355 2356 2365
6212 7 2357 2355 2356 2366
6213 3 2353 2355 2357 2358
6214 1 2353 2355 2357 2359
6215 8 2355 2356 2366 2367
6216 8 2355 2356 2366 2368
6217 9 2365 2356 2366 2367
6218 9 2365 2356 2366 2368
6219 20 3286 3285 3283 3284
6220 21 3287 3285 3283 3284
6221 3 3283 3285 3287 3288
6222 1 3283 3285 3287 3289
6223 5 3286 3285 3287 3288
6224 3 2917 2915 2913 2914
6225 6 2913 2915 2916 2925
6226 7 2913 2915 2916 2926
6227 6 2917 2915 2916 2925
6228 7 2917 2915 2916 2926
6229 3 2913 2915 2917 2918
6230 1 2913 2915 2917 2919
6231 20 2914 2913 2915 2916
6232 21 2923 2913 2915 2916
6233 1 2923 2913 2915 2917
6234 5 2914 2913 2923 2924
6235 1 2915 2913 2923 2921
6236 3 2915 2913 2923 2924
6237 3 2921 2923 2913 2914
6238 3 2913 2923 2921 2922
6239 8 2227 2228 2238 2239
6240 8 2227 2228 2238 2240
6241 9 2237 2228 2238 2239
6242 9 2237 2228 2238 2240
6243 3 1657 1659 1649 1650
6244 3 1649 1659 1657 1658
6245 20 2226 2225 2227 2228
6246 21 2235 2225 2227 2228
6247 1 2235 2225 2227 2229
6248 5 2226 2225 2235 2236
6249 1 2227 2225 2235 2233
6250 3 2227 2225 2235 2236
6251 3 3289 3287 3285 3286
6252 3 3285 3287 3289 3290
6253 1 3285 3287 3289 3291
6254 5 3288 3287 3289 3290
6255 20 2358 2357 2355 2356
6256 21 2359 2357 2355 2356
6257 3 2355 2357 2359 2360
6258 1 2355 2357 2359 2361
6259 5 2358 2357 2359 2360
6260 3 3291 3289 3287 3288
6261 1 3287 3289 3291 3281
6262 3 3287 3289 3291 3292
6263 5 3290 3289 3291 3292
6264 3 2361 2359 2357 2358
6265 3 2357 2359 2361 2362
6266 1 2357 2359 2361 2363
6267 5 2360 2359 2361 2362
6268 3 2363 2361 2359 2360
6269 1 2359 2361 2363 2353
6270 3 2359 2361 2363 2364
6271 5 2362 2361 2363 2364
6272 20 2918 2917 2915 2916
6273 21 2919 2917 2915 2916
6274 3 2915 2917 2919 2920
6275 1 2915 2917 2919 2921
6276 5 2918 2917 2919 2920
6277 8 2915 2916 2926 2927
6278 8 2915 2916 2926 2928
6279 9 2925 2916 2926 2927
6280 9 2925 2916 2926 2928
6281 20 3282 3281 3283 3284
6282 21 3291 3281 3283 3284
6283 1 3291 3281 3283 3285
6284 5 3282 3281 3291 3292
6285 1 3283 3281 3291 3289
6286 3 3283 3281 3291 3292
6287 3 3289 3291 3281 3282
6288 3 3281 3291 3289 3290
6289 20 1650 1649 1651 1652
6290 21 1659 1649 1651 1652
6291 1 1659 1649 1651 1653
6292 5 1650 1649 1659 1660
6293 1 1651 1649 1659 1657
6294 3 1651 1649 1659 1660
6295 8 2995 2996 3006 3007
6296 8 2995 2996 3006 3008
6297 9 3005 2996 3006 3007
6298 9 3005 2996 3006 3008
6299 3 1961 1959 1957 1958
6300 3 1957 1959 1961 1962
6301 1 1957 1959 1961 1963
6302 5 1960 1959 1961 1962
6303 3 2997 2995 2993 2994
6304 6 2993 2995 2996 3005
6305 7 2993 2995 2996 3006
6306 6 2997 2995 2996 3005
6307 7 2997 2995 2996 3006
6308 3 2993 2995 2997 2998
6309 1 2993 2995 2997 2999
6310 20 2994 2993 2995 2996
6311 21 3003 2993 2995 2996
6312 1 3003 2993 2995 2997
6313 5 2994 2993 3003 3004
6314 1 2995 2993 3003 3001
6315 3 2995 2993 3003 3004
6316 3 3001 3003 2993 2994
6317 3 2993 3003 3001 3002
6318 20 2998 2997 2995 2996
6319 21 2999 2997 2995 2996
6320 3 2995 2997 2999 3000
6321 1 2995 2997 2999 3001
6322 5 2998 2997 2999 3000
6323 3 3001 2999 2997 2998
6324 3 2997 2999 3001 3002
6325 1 2997 2999 3001 3003
6326 5 3000 2999 3001 3002
6327 3 3003 3001 2999 3000
6328 1 2999 3001 3003 2993
6329 3 2999 3001 3003 3004
6330 5 3002 3001 3003 3004
6331 3 2309 2307 2305 2306
6332 6 2305 2307 2308 2317
6333 7 2305 2307 2308 2318
6334 6 2309 2307 2308 2317
6335 7 2309 2307 2308 2318
6336 3 2305 2307 2309 2310
6337 1 2305 2307 2309 2311
6338 20 2310 2309 2307 2308
6339 21 2311 2309 2307 2308
6340 3 2307 2309 2311 2312
6341 1 2307 2309 2311 2313
6342 5 2310 2309 2311 2312
6343 3 2313 2311 2309 2310
6344 3 2309 2311 2313 2314
6345 1 2309 2311 2313 2315
6346 5 2312 2311 2313 2314
6347 8 2307 2308 2318 2319
6348 8 2307 2308 2318 2320
6349 9 2317 2308 2318 2319
6350 9 2317 2308 2318 2320
6351 8 2339 2340 2350 2351
6352 8 2339 2340 2350 2352
6353 9 2349 2340 2350 2351
6354 9 2349 2340 2350 2352
6355 3 457 455 453 454
6356 3 453 455 457 458
6357 1 453 455 457 459
6358 5 456 455 457 458
6359 3 459 457 455 456
6360 1 455 457 459 449
6361 3 455 457 459 460
6362 5 458 457 459 460
6363 3 457 459 449 450
6364 3 449 459 457 458
6365 20 450 449 451 452
6366 21 459 449 451 452
6367 1 459 449 451 453
6368 5 450 449 459 460
6369 1 451 449 459 457
6370 3 451 449 459 460
6371 20 2306 2305 2307 2308
6372 21 2315 2305 2307 2308
6373 1 2315 2305 2307 2309
6374 5 2306 2305 2315 2316
6375 1 2307 2305 2315 2313
6376 3 2307 2305 2315 2316
6377 3 2315 2313 2311 2312
6378 1 2311 2313 2315 2305
6379 3 2311 2313 2315 2316
6380 5 2314 2313 2315 2316
6381 20 454 453 451 452
6382 21 455 453 451 452
6383 3 451 453 455 456
6384 1 451 453 455 457
6385 5 454 453 455 456
6386 3 453 451 449 450
6387 6 449 451 452 461
6388 7 449 451 452 462
6389 6 453 451 452 461
6390 7 453 451 452 462
6391 3 449 451 453 454
6392 1 449 451 453 455
6393 8 451 452 462 463
6394 8 451 452 462 464
6395 9 461 452 462 463
6396 9 461 452 462 464
6397 3 2313 2315 2305 2306
6398 3 2305 2315 2313 2314
6399 20 1958 1957 1955 1956
6400 21 1959 1957 1955 1956
6401 3 1955 1957 1959 1960
6402 1 1955 1957 1959 1961
6403 5 1958 1957 1959 1960
6404 3 2345 2343 2341 2342
6405 3 2341 2343 2345 2346
6406 1 2341 2343 2345 2347
6407 5 2344 2343 2345 2346
6408 20 2342 2341 2339 2340
6409 21 2343 2341 2339 2340
6410 3 2339 2341 2343 2344
6411 1 2339 2341 2343 2345
6412 5 2342 2341 2343 2344
6413 3 2347 2345 2343 2344
6414 1 2343 2345 2347 2337
6415 3 2343 2345 2347 2348
6416 5 2346 2345 2347 2348
6417 3 2341 2339 2337 2338
6418 6 2337 2339 2340 2349
6419 7 2337 2339 2340 2350
6420 6 2341 2339 2340 2349
6421 7 2341 2339 2340 2350
6422 3 2337 2339 2341 2342
6423 1 2337 2339 2341 2343
6424 3 261 259 257 258
6425 6 257 259 260 269
6426 7 257 259 260 270
6427 6 261 259 260 269
6428 7 261 259 260 270
6429 3 257 259 261 262
6430 1 257 259 261 263
6431 8 259 260 270 271
6432 8 259 260 270 272
6433 9 269 260 270 271
6434 9 269 260 270 272
6435 3 473 471 469 470
6436 3 469 471 473 474
6437 1 469 471 473 475
6438 5 472 471 473 474
6439 3 475 473 471 472
6440 1 471 473 475 465
6441 3 471 473 475 476
6442 5 474 473 475 476
6443 3 265 267 257 258
6444 3 257 267 265 266
6445 20 258 257 259 260
6446 21 267 257 259 260
6447 1 267 257 259 261
6448 5 258 257 267 268
6449 1 259 257 267 265
6450 3 259 257 267 268
6451 8 755 756 766 767
6452 8 755 756 766 768
6453 9 765 756 766 767
6454 9 765 756 766 768
6455 20 1426 1425 1427 1428
6456 21 1435 1425 1427 1428
6457 1 1435 1425 1427 1429
6458 5 1426 1425 1435 1436
6459 1 1427 1425 1435 1433
6460 3 1427 1425 1435 1436
6461 3 1433 1435 1425 1426
6462 3 1425 1435 1433 1434
6463 3 1429 1427 1425 1426
6464 6 1425 1427 1428 1437
6465 7 1425 1427 1428 1438
6466 6 1429 1427 1428 1437
6467 7 1429 1427 1428 1438
6468 3 1425 1427 1429 1430
6469 1 1425 1427 1429 1431
6470 8 1427 1428 1438 1439
6471 8 1427 1428 1438 1440
6472 9 1437 1428 1438 1439
6473 9 1437 1428 1438 1440
6474 20 470 469 467 468
6475 21 471 469 467 468
6476 3 467 469 471 472
6477 1 467 469 471 473
6478 5 470 469 471 472
6479 3 469 467 465 466
6480 6 465 467 468 477
6481 7 465 467 468 478
6482 6 469 467 468 477
6483 7 469 467 468 478
6484 3 465 467 469 470
6485 1 465 467 469 471
6486 20 466 465 467 468
6487 21 475 465 467 468
6488 1 475 465 467 469
6489 5 466 465 475 476
6490 1 467 465 475 473
6491 3 467 465 475 476
6492 3 473 475 465 466
6493 3 465 475 473 474
6494 8 467 468 478 479
6495 8 467 468 478 480
6496 9 477 468 478 479
6497 9 477 468 478 480
6498 8 595 596 606 607
6499 8 595 596 606 608
6500 9 605 596 606 607
6501 9 605 596 606 608
6502 20 754 753 755 756
6503 21 763 753 755 756
6504 1 763 753 755 757
6505 5 754 753 763 764
6506 1 755 753 763 761
6507 3 755 753 763 764
6508 3 441 443 433 434
6509 3 433 443 441 442
6510 3 441 439 437 438
6511 3 437 439 441 442
6512 1 437 439 441 443
6513 5 440 439 441 442
6514 3 443 441 439 440
6515 1 439 441 443 433
6516 3 439 441 443 444
6517 5 442 441 443 444
6518 20 438 437 435 436
6519 21 439 437 435 436
6520 3 435 437 439 440
6521 1 435 437 439 441
6522 5 438 437 439 440
6523 3 1737 1735 1733 1734
6524 3 1733 1735 1737 1738
6525 1 1733 1735 1737 1739
6526 5 1736 1735 1737 1738
6527 20 1734 1733 1731 1732
6528 21 1735 1733 1731 1732
6529 3 1731 1733 1735 1736
6530 1 1731 1733 1735 1737
6531 5 1734 1733 1735 1736
6532 3 597 595 593 594
6533 6 593 595 596 605
6534 7 593 595 596 606
6535 6 597 595 596 605
6536 7 597 595 596 606
6537 3 593 595 597 598
6538 1 593 595 597 599
6539 3 601 599 597 598
6540 3 597 599 601 602
6541 1 597 599 601 603
6542 5 600 599 601 602
6543 20 598 597 595 596
6544 21 599 597 595 596
6545 3 595 597 599 600
6546 1 595 597 599 601
6547 5 598 597 599 600
6548 3 603 601 599 600
6549 1 599 601 603 593
6550 3 599 601 603 604
6551 5 602 601 603 604
6552 20 594 593 595 596
6553 21 603 593 595 596
6554 1 603 593 595 597
6555 5 594 593 603 604
6556 1 595 593 603 601
6557 3 595 593 603 604
6558 3 2153 2155 2145 2146
6559 3 2145 2155 2153 2154
6560 20 2146 2145 2147 2148
6561 21 2155 2145 2147 2148
6562 1 2155 2145 2147 2149
6563 5 2146 2145 2155 2156
6564 1 2147 2145 2155 2153
6565 3 2147 2145 2155 2156
6566 20 1602 1601 1603 1604
6567 21 1611 1601 1603 1604
6568 1 1611 1601 1603 1605
6569 5 1602 1601 1611 1612
6570 1 1603 1601 1611 1609
6571 3 1603 1601 1611 1612
6572 3 1609 1611 1601 1602
6573 3 1601 1611 1609 1610
6574 3 1605 1603 1601 1602
6575 6 1601 1603 1604 1613
6576 7 1601 1603 1604 1614
6577 6 1605 1603 1604 1613
6578 7 1605 1603 1604 1614
6579 3 1601 1603 1605 1606
6580 1 1601 1603 1605 1607
6581 3 601 603 593 594
6582 3 593 603 601 602
6583 3 779 777 775 776
6584 1 775 777 779 769
6585 3 775 777 779 780
6586 5 778 777 779 780
6587 3 777 775 773 774
6588 3 773 775 777 778
6589 1 773 775 777 779
6590 5 776 775 777 778
6591 20 1730 1729 1731 1732
6592 21 1739 1729 1731 1732
6593 1 1739 1729 1731 1733
6594 5 1730 1729 1739 1740
6595 1 1731 1729 1739 1737
6596 3 1731 1729 1739 1740
6597 3 1733 1731 1729 1730
6598 6 1729 1731 1732 1741
6599 7 1729 1731 1732 1742
6600 6 1733 1731 1732 1741
6601 7 1733 1731 1732 1742
6602 3 1729 1731 1733 1734
6603 1 1729 1731 1733 1735
6604 8 1731 1732 1742 1743
6605 8 1731 1732 1742 1744
6606 9 1741 1732 1742 1743
6607 9 1741 1732 1742 1744
6608 3 1739 1737 1735 1736
6609 1 1735 1737 1739 1729
6610 3 1735 1737 1739 1740
6611 5 1738 1737 1739 1740
6612 3 1737 1739 1729 1730
6613 3 1729 1739 1737 1738
6614 8 1603 1604 1614 1615
6615 8 1603 1604 1614 1616
6616 9 1613 1604 1614 1615
6617 9 1613 1604 1614 1616
6618 3 777 779 769 770
6619 3 769 779 777 778
6620 20 2150 2149 2147 2148
6621 21 2151 2149 2147 2148
6622 3 2147 2149 2151 2152
6623 1 2147 2149 2151 2153
6624 5 2150 2149 2151 2152
6625 3 2149 2147 2145 2146
6626 6 2145 2147 2148 2157
6627 7 2145 2147 2148 2158
6628 6 2149 2147 2148 2157
6629 7 2149 2147 2148 2158
6630 3 2145 2147 2149 2150
6631 1 2145 2147 2149 2151
6632 3 2155 2153 2151 2152
6633 1 2151 2153 2155 2145
6634 3 2151 2153 2155 2156
6635 5 2154 2153 2155 2156
6636 3 2153 2151 2149 2150
6637 3 2149 2151 2153 2154
6638 1 2149 2151 2153 2155
6639 5 2152 2151 2153 2154
6640 20 1778 1777 1779 1780
6641 21 1787 1777 1779 1780
6642 1 1787 1777 1779 1781
6643 5 1778 1777 1787 1788
6644 1 1779 1777 1787 1785
6645 3 1779 1777 1787 1788
6646 3 1785 1787 1777 1778
6647 3 1777 1787 1785 1786
6648 20 1606 1605 1603 1604
6649 21 1607 1605 1603 1604
6650 3 1603 1605 1607 1608
6651 1 1603 1605 1607 1609
6652 5 1606 1605 1607 1608
6653 3 197 195 193 194
6654 6 193 195 196 205
6655 7 193 195 196 206
6656 6 197 195 196 205
6657 7 197 195 196 206
6658 3 193 195 197 198
6659 1 193 195 197 199
6660 3 1609 1607 1605 1606
6661 3 1605 1607 1609 1610
6662 1 1605 1607 1609 1611
6663 5 1608 1607 1609 1610
6664 20 198 197 195 196
6665 21 199 197 195 196
6666 3 195 197 199 200
6667 1 195 197 199 201
6668 5 198 197 199 200
6669 3 1611 1609 1607 1608
6670 1 1607 1609 1611 1601
6671 3 1607 1609 1611 1612
6672 5 1610 1609 1611 1612
6673 3 3241 3243 3233 3234
6674 3 3233 3243 3241 3242
6675 8 2147 2148 2158 2159
6676 8 2147 2148 2158 2160
6677 9 2157 2148 2158 2159
6678 9 2157 2148 2158 2160
6679 8 195 196 206 207
6680 8 195 196 206 208
6681 9 205 196 206 207
6682 9 205 196 206 208
6683 8 3315 3316 3326 3327
6684 8 3315 3316 3326 3328
6685 9 3325 3316 3326 3327
6686 9 3325 3316 3326 3328
6687 3 3237 3235 3233 3234
6688 6 3233 3235 3236 3245
6689 7 3233 3235 3236 3246
6690 6 3237 3235 3236 3245
6691 7 3237 3235 3236 3246
6692 3 3233 3235 3237 3238
6693 1 3233 3235 3237 3239
6694 8 3235 3236 3246 3247
6695 8 3235 3236 3246 3248
6696 9 3245 3236 3246 3247
6697 9 3245 3236 3246 3248
6698 3 1781 1779 1777 1778
6699 6 1777 1779 1780 1789
6700 7 1777 1779 1780 1790
6701 6 1781 1779 1780 1789
6702 7 1781 1779 1780 1790
6703 3 1777 1779 1781 1782
6704 1 1777 1779 1781 1783
6705 8 1779 1780 1790 1791
6706 8 1779 1780 1790 1792
6707 9 1789 1780 1790 1791
6708 9 1789 1780 1790 1792
6709 20 3234 3233 3235 3236
6710 21 3243 3233 3235 3236
6711 1 3243 3233 3235 3237
6712 5 3234 3233 3243 3244
6713 1 3235 3233 3243 3241
6714 3 3235 3233 3243 3244
6715 3 1785 1783 1781 1782
6716 3 1781 1783 1785 1786
6717 1 1781 1783 1785 1787
6718 5 1784 1783 1785 1786
6719 3 1787 1785 1783 1784
6720 1 1783 1785 1787 1777
6721 3 1783 1785 1787 1788
6722 5 1786 1785 1787 1788
6723 3 2501 2499 2497 2498
6724 6 2497 2499 2500 2509
6725 7 2497 2499 2500 2510
6726 6 2501 2499 2500 2509
6727 7 2501 2499 2500 2510
6728 3 2497 2499 2501 2502
6729 1 2497 2499 2501 2503
6730 20 2498 2497 2499 2500
6731 21 2507 2497 2499 2500
6732 1 2507 2497 2499 2501
6733 5 2498 2497 2507 2508
6734 1 2499 2497 2507 2505
6735 3 2499 2497 2507 2508
6736 3 2505 2507 2497 2498
6737 3 2497 2507 2505 2506
6738 20 2502 2501 2499 2500
6739 21 2503 2501 2499 2500
6740 3 2499 2501 2503 2504
6741 1 2499 2501 2503 2505
6742 5 2502 2501 2503 2504
6743 3 2505 2503 2501 2502
6744 3 2501 2503 2505 2506
6745 1 2501 2503 2505 2507
6746 5 2504 2503 2505 2506
6747 3 2507 2505 2503 2504
6748 1 2503 2505 2507 2497
6749 3 2503 2505 2507 2508
6750 5 2506 2505 2507 2508
6751 20 1698 1697 1699 1700
6752 21 1707 1697 1699 1700
6753 1 1707 1697 1699 1701
6754 5 1698 1697 1707 1708
6755 1 1699 1697 1707 1705
6756 3 1699 1697 1707 1708
6757 8 1699 1700 1710 1711
6758 8 1699 1700 1710 1712
6759 9 1709 1700 1710 1711
6760 9 1709 1700 1710 1712
6761 3 1701 1699 1697 1698
6762 6 1697 1699 1700 1709
6763 7 1697 1699 1700 1710
6764 6 1701 1699 1700 1709
6765 7 1701 1699 1700 1710
6766 3 1697 1699 1701 1702
6767 1 1697 1699 1701 1703
6768 8 355 356 366 367
6769 8 355 356 366 368
6770 9 365 356 366 367
6771 9 365 356 366 368
6772 20 354 353 355 356
6773 21 363 353 355 356
6774 1 363 353 355 357
6775 5 354 353 363 364
6776 1 355 353 363 361
6777 3 355 353 363 364
6778 3 357 355 353 354
6779 6 353 355 356 365
6780 7 353 355 356 366
6781 6 357 355 356 365
6782 7 357 355 356 366
6783 3 353 355 357 358
6784 1 353 355 357 359
6785 3 361 363 353 354
6786 3 353 363 361 362
6787 20 358 357 355 356
6788 21 359 357 355 356
6789 3 355 357 359 360
6790 1 355 357 359 361
6791 5 358 357 359 360
6792 3 363 361 359 360
6793 1 359 361 363 353
6794 3 359 361 363 364
6795 5 362 361 363 364
6796 3 361 359 357 358
6797 3 357 359 361 362
6798 1 357 359 361 363
6799 5 360 359 361 362
6800 20 1782 1781 1779 1780
6801 21 1783 1781 1779 1780
6802 3 1779 1781 1783 1784
6803 1 1779 1781 1783 1785
6804 5 1782 1781 1783 1784
6805 3 1403 1401 1399 1400
6806 1 1399 1401 1403 1393
6807 3 1399 1401 1403 1404
6808 5 1402 1401 1403 1404
6809 3 1401 1399 1397 1398
6810 3 1397 1399 1401 1402
6811 1 1397 1399 1401 1403
6812 5 1400 1399 1401 1402
6813 20 1398 1397 1395 1396
6814 21 1399 1397 1395 1396
6815 3 1395 1397 1399 1400
6816 1 1395 1397 1399 1401
6817 5 1398 1397 1399 1400
6818 20 534 533 531 532
6819 21 535 533 531 532
6820 3 531 533 535 536
6821 1 531 533 535 537
6822 5 534 533 535 536
6823 3 537 535 533 534
6824 3 533 535 537 538
6825 1 533 535 537 539
6826 5 536 535 537 538
6827 8 531 532 542 543
6828 8 531 532 542 544
6829 9 541 532 542 543
6830 9 541 532 542 544
6831 3 1465 1463 1461 1462
6832 3 1461 1463 1465 1466
6833 1 1461 1463 1465 1467
6834 5 1464 1463 1465 1466
6835 3 1467 1465 1463 1464
6836 1 1463 1465 1467 1457
6837 3 1463 1465 1467 1468
6838 5 1466 1465 1467 1468
6839 3 969 971 961 962
6840 3 961 971 969 970
6841 20 962 961 963 964
6842 21 971 961 963 964
6843 1 971 961 963 965
6844 5 962 961 971 972
6845 1 963 961 971 969
6846 3 963 961 971 972
6847 3 965 963 961 962
6848 6 961 963 964 973
6849 7 961 963 964 974
6850 6 965 963 964 973
6851 7 965 963 964 974
6852 3 961 963 965 966
6853 1 961 963 965 967
6854 3 971 969 967 968
6855 1 967 969 971 961
6856 3 967 969 971 972
6857 5 970 969 971 972
6858 3 969 967 965 966
6859 3 965 967 969 970
6860 1 965 967 969 971
6861 5 968 967 969 970
6862 20 1458 1457 1459 1460
6863 21 1467 1457 1459 1460
6864 1 1467 1457 1459 1461
6865 5 1458 1457 1467 1468
6866 1 1459 1457 1467 1465
6867 3 1459 1457 1467 1468
6868 20 1462 1461 1459 1460
6869 21 1463 1461 1459 1460
6870 3 1459 1461 1463 1464
6871 1 1459 1461 1463 1465
6872 5 1462 1461 1463 1464
6873 8 1459 1460 1470 1471
6874 8 1459 1460 1470 1472
6875 9 1469 1460 1470 1471
6876 9 1469 1460 1470 1472
6877 3 1461 1459 1457 1458
6878 6 1457 1459 1460 1469
6879 7 1457 1459 1460 1470
6880 6 1461 1459 1460 1469
6881 7 1461 1459 1460 1470
6882 3 1457 1459 1461 1462
6883 1 1457 1459 1461 1463
6884 3 1465 1467 1457 1458
6885 3 1457 1467 1465 1466
6886 8 211 212 222 223
6887 8 211 212 222 224
6888 9 221 212 222 223
6889 9 221 212 222 224
6890 20 1094 1093 1091 1092
6891 21 1095 1093 1091 1092
6892 3 1091 1093 1095 1096
6893 1 1091 1093 1095 1097
6894 5 1094 1093 1095 1096
6895 3 219 217 215 216
6896 1 215 217 219 209
6897 3 215 217 219 220
6898 5 218 217 219 220
6899 3 1093 1091 1089 1090
6900 6 1089 1091 1092 1101
6901 7 1089 1091 1092 1102
6902 6 1093 1091 1092 1101
6903 7 1093 1091 1092 1102
6904 3 1089 1091 1093 1094
6905 1 1089 1091 1093 1095
6906 3 213 211 209 210
6907 6 209 211 212 221
6908 7 209 211 212 222
6909 6 213 211 212 221
6910 7 213 211 212 222
6911 3 209 211 213 214
6912 1 209 211 213 215
6913 20 214 213 211 212
6914 21 215 213 211 212
6915 3 211 213 215 216
6916 1 211 213 215 217
6917 5 214 213 215 216
6918 3 217 215 213 214
6919 3 213 215 217 218
6920 1 213 215 217 219
6921 5 216 215 217 218
6922 3 1097 1095 1093 1094
6923 3 1093 1095 1097 1098
6924 1 1093 1095 1097 1099
6925 5 1096 1095 1097 1098
6926 3 1099 1097 1095 1096
6927 1 1095 1097 1099 1089
6928 3 1095 1097 1099 1100
6929 5 1098 1097 1099 1100
6930 20 1090 1089 1091 1092
6931 21 1099 1089 1091 1092
6932 1 1099 1089 1091 1093
6933 5 1090 1089 1099 1100
6934 1 1091 1089 1099 1097
6935 3 1091 1089 1099 1100
6936 3 1097 1099 1089 1090
6937 3 1089 1099 1097 1098
6938 3 3369 3367 3365 3366
6939 3 3365 3367 3369 3370
6940 1 3365 3367 3369 3371
6941 5 3368 3367 3369 3370
6942 3 3369 3371 3361 3362
6943 3 3361 3371 3369 3370
6944 3 3371 3369 3367 3368
6945 1 3367 3369 3371 3361
6946 3 3367 3369 3371 3372
6947 5 3370 3369 3371 3372
6948 20 3366 3365 3363 3364
6949 21 3367 3365 3363 3364
6950 3 3363 3365 3367 3368
6951 1 3363 3365 3367 3369
6952 5 3366 3365 3367 3368
6953 20 3362 3361 3363 3364
6954 21 3371 3361 3363 3364
6955 1 3371 3361 3363 3365
6956 5 3362 3361 3371 3372
6957 1 3363 3361 3371 3369
6958 3 3363 3361 3371 3372
6959 8 3363 3364 3374 3375
6960 8 3363 3364 3374 3376
6961 9 3373 3364 3374 3375
6962 9 3373 3364 3374 3376
6963 3 3365 3363 3361 3362
6964 6 3361 3363 3364 3373
6965 7 3361 3363 3364 3374
6966 6 3365 3363 3364 3373
6967 7 3365 3363 3364 3374
6968 3 3361 3363 3365 3366
6969 1 3361 3363 3365 3367
6970 3 1659 1657 1655 1656
6971 1 1655 1657 1659 1649
6972 3 1655 1657 1659 1660
6973 5 1658 1657 1659 1660
6974 3 3307 3305 3303 3304
6975 1 3303 3305 3307 3297
6976 3 3303 3305 3307 3308
6977 5 3306 3305 3307 3308
6978 3 3305 3307 3297 3298
6979 3 3297 3307 3305 3306
6980 20 3302 3301 3299 3300
6981 21 3303 3301 3299 3300
6982 3 3299 3301 3303 3304
6983 1 3299 3301 3303 3305
6984 5 3302 3301 3303 3304
6985 3 3305 3303 3301 3302
6986 3 3301 3303 3305 3306
6987 1 3301 3303 3305 3307
6988 5 3304 3303 3305 3306
6989 3 2229 2227 2225 2226
6990 6 2225 2227 2228 2237
6991 7 2225 2227 2228 2238
6992 6 2229 2227 2228 2237
6993 7 2229 2227 2228 2238
6994 3 2225 2227 2229 2230
6995 1 2225 2227 2229 2231
6996 20 2230 2229 2227 2228
6997 21 2231 2229 2227 2228
6998 3 2227 2229 2231 2232
6999 1 2227 2229 2231 2233
7000 5 2230 2229 2231 2232
7001 3 3301 3299 3297 3298
7002 6 3297 3299 3300 3309
7003 7 3297 3299 3300 3310
7004 6 3301 3299 3300 3309
7005 7 3301 3299 3300 3310
7006 3 3297 3299 3301 3302
7007 1 3297 3299 3301 3303
7008 3 1369 1367 1365 1366
7009 3 1365 1367 1369 1370
7010 1 1365 1367 1369 1371
7011 5 1368 1367 1369 1370
7012 8 3299 3300 3310 3311
7013 8 3299 3300 3310 3312
7014 9 3309 3300 3310 3311
7015 9 3309 3300 3310 3312
7016 3 2235 2233 2231 2232
7017 1 2231 2233 2235 2225
7018 3 2231 2233 2235 2236
7019 5 2234 2233 2235 2236
7020 3 2233 2231 2229 2230
7021 3 2229 2231 2233 2234
7022 1 2229 2231 2233 2235
7023 5 2232 2231 2233 2234
7024 3 1371 1369 1367 1368
7025 1 1367 1369 1371 1361
7026 3 1367 1369 1371 1372
7027 5 1370 1369 1371 1372
7028 20 2354 2353 2355 2356
7029 21 2363 2353 2355 2356
7030 1 2363 2353 2355 2357
7031 5 2354 2353 2363 2364
7032 1 2355 2353 2363 2361
7033 3 2355 2353 2363 2364
7034 3 1657 1655 1653 1654
7035 3 1653 1655 1657 1658
7036 1 1653 1655 1657 1659
7037 5 1656 1655 1657 1658
7038 3 2361 2363 2353 2354
7039 3 2353 2363 2361 2362
7040 20 1654 1653 1651 1652
7041 21 1655 1653 1651 1652
7042 3 1651 1653 1655 1656
7043 1 1651 1653 1655 1657
7044 5 1654 1653 1655 1656
7045 20 1366 1365 1363 1364
7046 21 1367 1365 1363 1364
7047 3 1363 1365 1367 1368
7048 1 1363 1365 1367 1369
7049 5 1366 1365 1367 1368
7050 3 1365 1363 1361 1362
7051 6 1361 1363 1364 1373
7052 7 1361 1363 1364 1374
7053 6 1365 1363 1364 1373
7054 7 1365 1363 1364 1374
7055 3 1361 1363 1365 1366
7056 1 1361 1363 1365 1367
7057 8 1363 1364 1374 1375
7058 8 1363 1364 1374 1376
7059 9 1373 1364 1374 1375
7060 9 1373 1364 1374 1376
7061 3 1653 1651 1649 1650
7062 6 1649 1651 1652 1661
7063 7 1649 1651 1652 1662
7064 6 1653 1651 1652 1661
7065 7 1653 1651 1652 1662
7066 3 1649 1651 1653 1654
7067 1 1649 1651 1653 1655
7068 8 1651 1652 1662 1663
7069 8 1651 1652 1662 1664
7070 9 1661 1652 1662 1663
7071 9 1661 1652 1662 1664
7072 3 299 297 295 296
7073 1 295 297 299 289
7074 3 295 297 299 300
7075 5 298 297 299 300
7076 8 2771 2772 2782 2783
7077 8 2771 2772 2782 2784
7078 9 2781 2772 2782 2783
7079 9 2781 2772 2782 2784
7080 3 2773 2771 2769 2770
7081 6 2769 2771 2772 2781
7082 7 2769 2771 2772 2782
7083 6 2773 2771 2772 2781
7084 7 2773 2771 2772 2782
7085 3 2769 2771 2773 2774
7086 1 2769 2771 2773 2775
7087 3 2233 2235 2225 2226
7088 3 2225 2235 2233 2234
7089 3 297 295 293 294
7090 3 293 295 297 298
7091 1 293 295 297 299
7092 5 296 295 297 298
7093 20 294 293 291 292
7094 21 295 293 291 292
7095 3 291 293 295 296
7096 1 291 293 295 297
7097 5 294 293 295 296
7098 3 293 291 289 290
7099 6 289 291 292 301
7100 7 289 291 292 302
7101 6 293 291 292 301
7102 7 293 291 292 302
7103 3 289 291 293 294
7104 1 289 291 293 295
7105 20 290 289 291 292
7106 21 299 289 291 292
7107 1 299 289 291 293
7108 5 290 289 299 300
7109 1 291 289 299 297
7110 3 291 289 299 300
7111 3 297 299 289 290
7112 3 289 299 297 298
7113 3 725 723 721 722
7114 6 721 723 724 733
7115 7 721 723 724 734
7116 6 725 723 724 733
7117 7 725 723 724 734
7118 3 721 723 725 726
7119 1 721 723 725 727
7120 20 722 721 723 724
7121 21 731 721 723 724
7122 1 731 721 723 725
7123 5 722 721 731 732
7124 1 723 721 731 729
7125 3 723 721 731 732
7126 3 731 729 727 728
7127 1 727 729 731 721
7128 3 727 729 731 732
7129 5 730 729 731 732
7130 3 729 731 721 722
7131 3 721 731 729 730
7132 20 726 725 723 724
7133 21 727 725 723 724
7134 3 723 725 727 728
7135 1 723 725 727 729
7136 5 726 725 727 728
7137 3 729 727 725 726
7138 3 725 727 729 730
7139 1 725 727 729 731
7140 5 728 727 729 730
7141 8 723 724 734 735
7142 8 723 724 734 736
7143 9 733 724 734 735
7144 9 733 724 734 736
7145 3 1513 1515 1505 1506
7146 3 1505 1515 1513 1514
7147 3 2345 2347 2337 2338
7148 3 2337 2347 2345 2346
7149 20 262 261 259 260
7150 21 263 261 259 260
7151 3 259 261 263 264
7152 1 259 261 263 265
7153 5 262 261 263 264
7154 3 265 263 261 262
7155 3 261 263 265 266
7156 1 261 263 265 267
7157 5 264 263 265 266
7158 20 2338 2337 2339 2340
7159 21 2347 2337 2339 2340
7160 1 2347 2337 2339 2341
7161 5 2338 2337 2347 2348
7162 1 2339 2337 2347 2345
7163 3 2339 2337 2347 2348
7164 20 2774 2773 2771 2772
7165 21 2775 2773 2771 2772
7166 3 2771 2773 2775 2776
7167 1 2771 2773 2775 2777
7168 5 2774 2773 2775 2776
7169 3 267 265 263 264
7170 1 263 265 267 257
7171 3 263 265 267 268
7172 5 266 265 267 268
7173 3 1545 1547 1537 1538
7174 3 1537 1547 1545 1546
7175 3 1513 1511 1509 1510
7176 3 1509 1511 1513 1514
7177 1 1509 1511 1513 1515
7178 5 1512 1511 1513 1514
7179 3 1515 1513 1511 1512
7180 1 1511 1513 1515 1505
7181 3 1511 1513 1515 1516
7182 5 1514 1513 1515 1516
7183 3 1115 1113 1111 1112
7184 1 1111 1113 1115 1105
7185 3 1111 1113 1115 1116
7186 5 1114 1113 1115 1116
7187 3 1435 1433 1431 1432
7188 1 1431 1433 1435 1425
7189 3 1431 1433 1435 1436
7190 5 1434 1433 1435 1436
7191 3 1433 1431 1429 1430
7192 3 1429 1431 1433 1434
7193 1 1429 1431 1433 1435
7194 5 1432 1431 1433 1434
7195 20 1430 1429 1427 1428
7196 21 1431 1429 1427 1428
7197 3 1427 1429 1431 1432
7198 1 1427 1429 1431 1433
7199 5 1430 1429 1431 1432
7200 8 291 292 302 303
7201 8 291 292 302 304
7202 9 301 292 302 303
7203 9 301 292 302 304
7204 20 1538 1537 1539 1540
7205 21 1547 1537 1539 1540
7206 1 1547 1537 1539 1541
7207 5 1538 1537 1547 1548
7208 1 1539 1537 1547 1545
7209 3 1539 1537 1547 1548
7210 3 1541 1539 1537 1538
7211 6 1537 1539 1540 1549
7212 7 1537 1539 1540 1550
7213 6 1541 1539 1540 1549
7214 7 1541 1539 1540 1550
7215 3 1537 1539 1541 1542
7216 1 1537 1539 1541 1543
7217 8 1539 1540 1550 1551
7218 8 1539 1540 1550 1552
7219 9 1549 1540 1550 1551
7220 9 1549 1540 1550 1552
7221 20 1510 1509 1507 1508
7222 21 1511 1509 1507 1508
7223 3 1507 1509 1511 1512
7224 1 1507 1509 1511 1513
7225 5 1510 1509 1511 1512
7226 20 1506 1505 1507 1508
7227 21 1515 1505 1507 1508
7228 1 1515 1505 1507 1509
7229 5 1506 1505 1515 1516
7230 1 1507 1505 1515 1513
7231 3 1507 1505 1515 1516
7232 3 2789 2787 2785 2786
7233 6 2785 2787 2788 2797
7234 7 2785 2787 2788 2798
7235 6 2789 2787 2788 2797
7236 7 2789 2787 2788 2798
7237 3 2785 2787 2789 2790
7238 1 2785 2787 2789 2791
7239 20 2790 2789 2787 2788
7240 21 2791 2789 2787 2788
7241 3 2787 2789 2791 2792
7242 1 2787 2789 2791 2793
7243 5 2790 2789 2791 2792
7244 20 2786 2785 2787 2788
7245 21 2795 2785 2787 2788
7246 1 2795 2785 2787 2789
7247 5 2786 2785 2795 2796
7248 1 2787 2785 2795 2793
7249 3 2787 2785 2795 2796
7250 3 2793 2791 2789 2790
7251 3 2789 2791 2793 2794
7252 1 2789 2791 2793 2795
7253 5 2792 2791 2793 2794
7254 3 2793 2795 2785 2786
7255 3 2785 2795 2793 2794
7256 8 1507 1508 1518 1519
7257 8 1507 1508 1518 1520
7258 9 1517 1508 1518 1519
7259 9 1517 1508 1518 1520
7260 3 2795 2793 2791 2792
7261 1 2791 2793 2795 2785
7262 3 2791 2793 2795 2796
7263 5 2794 2793 2795 2796
7264 3 1509 1507 1505 1506
7265 6 1505 1507 1508 1517
7266 7 1505 1507 1508 1518
7267 6 1509 1507 1508 1517
7268 7 1509 1507 1508 1518
7269 3 1505 1507 1509 1510
7270 1 1505 1507 1509 1511
7271 8 2787 2788 2798 2799
7272 8 2787 2788 2798 2800
7273 9 2797 2788 2798 2799
7274 9 2797 2788 2798 2800
7275 20 434 433 435 436
7276 21 443 433 435 436
7277 1 443 433 435 437
7278 5 434 433 443 444
7279 1 435 433 443 441
7280 3 435 433 443 444
7281 3 437 435 433 434
7282 6 433 435 436 445
7283 7 433 435 436 446
7284 6 437 435 436 445
7285 7 437 435 436 446
7286 3 433 435 437 438
7287 1 433 435 437 439
7288 8 435 436 446 447
7289 8 435 436 446 448
7290 9 445 436 446 447
7291 9 445 436 446 448
7292 8 771 772 782 783
7293 8 771 772 782 784
7294 9 781 772 782 783
7295 9 781 772 782 784
7296 8 579 580 590 591
7297 8 579 580 590 592
7298 9 589 580 590 591
7299 9 589 580 590 592
7300 20 3106 3105 3107 3108
7301 21 3115 3105 3107 3108
7302 1 3115 3105 3107 3109
7303 5 3106 3105 3115 3116
7304 1 3107 3105 3115 3113
7305 3 3107 3105 3115 3116
7306 8 3107 3108 3118 3119
7307 8 3107 3108 3118 3120
7308 9 3117 3108 3118 3119
7309 9 3117 3108 3118 3120
7310 20 3110 3109 3107 3108
7311 21 3111 3109 3107 3108
7312 3 3107 3109 3111 3112
7313 1 3107 3109 3111 3113
7314 5 3110 3109 3111 3112
7315 3 3109 3107 3105 3106
7316 6 3105 3107 3108 3117
7317 7 3105 3107 3108 3118
7318 6 3109 3107 3108 3117
7319 7 3109 3107 3108 3118
7320 3 3105 3107 3109 3110
7321 1 3105 3107 3109 3111
7322 8 1475 1476 1486 1487
7323 8 1475 1476 1486 1488
7324 9 1485 1476 1486 1487
7325 9 1485 1476 1486 1488
7326 3 1477 1475 1473 1474
7327 6 1473 1475 1476 1485
7328 7 1473 1475 1476 1486
7329 6 1477 1475 1476 1485
7330 7 1477 1475 1476 1486
7331 3 1473 1475 1477 1478
7332 1 1473 1475 1477 1479
7333 3 2741 2739 2737 2738
7334 6 2737 2739 2740 2749
7335 7 2737 2739 2740 2750
7336 6 2741 2739 2740 2749
7337 7 2741 2739 2740 2750
7338 3 2737 2739 2741 2742
7339 1 2737 2739 2741 2743
7340 3 2745 2747 2737 2738
7341 3 2737 2747 2745 2746
7342 20 770 769 771 772
7343 21 779 769 771 772
7344 1 779 769 771 773
7345 5 770 769 779 780
7346 1 771 769 779 777
7347 3 771 769 779 780
7348 3 773 771 769 770
7349 6 769 771 772 781
7350 7 769 771 772 782
7351 6 773 771 772 781
7352 7 773 771 772 782
7353 3 769 771 773 774
7354 1 769 771 773 775
7355 8 2739 2740 2750 2751
7356 8 2739 2740 2750 2752
7357 9 2749 2740 2750 2751
7358 9 2749 2740 2750 2752
7359 20 2738 2737 2739 2740
7360 21 2747 2737 2739 2740
7361 1 2747 2737 2739 2741
7362 5 2738 2737 2747 2748
7363 1 2739 2737 2747 2745
7364 3 2739 2737 2747 2748
7365 20 774 773 771 772
7366 21 775 773 771 772
7367 3 771 773 775 776
7368 1 771 773 775 777
7369 5 774 773 775 776
7370 3 1481 1479 1477 1478
7371 3 1477 1479 1481 1482
7372 1 1477 1479 1481 1483
7373 5 1480 1479 1481 1482
7374 20 1474 1473 1475 1476
7375 21 1483 1473 1475 1476
7376 1 1483 1473 1475 1477
7377 5 1474 1473 1483 1484
7378 1 1475 1473 1483 1481
7379 3 1475 1473 1483 1484
7380 20 1478 1477 1475 1476
7381 21 1479 1477 1475 1476
7382 3 1475 1477 1479 1480
7383 1 1475 1477 1479 1481
7384 5 1478 1477 1479 1480
7385 3 3113 3115 3105 3106
7386 3 3105 3115 3113 3114
7387 3 3115 3113 3111 3112
7388 1 3111 3113 3115 3105
7389 3 3111 3113 3115 3116
7390 5 3114 3113 3115 3116
7391 3 3243 3241 3239 3240
7392 1 3239 3241 3243 3233
7393 3 3239 3241 3243 3244
7394 5 3242 3241 3243 3244
7395 20 342 341 339 340
7396 21 343 341 339 340
7397 3 339 341 343 344
7398 1 339 341 343 345
7399 5 342 341 343 344
7400 8 339 340 350 351
7401 8 339 340 350 352
7402 9 349 340 350 351
7403 9 349 340 350 352
7404 3 3113 3111 3109 3110
7405 3 3109 3111 3113 3114
7406 1 3109 3111 3113 3115
7407 5 3112 3111 3113 3114
7408 3 341 339 337 338
7409 6 337 339 340 349
7410 7 337 339 340 350
7411 6 341 339 340 349
7412 7 341 339 340 350
7413 3 337 339 341 342
7414 1 337 339 341 343
7415 3 345 343 341 342
7416 3 341 343 345 346
7417 1 341 343 345 347
7418 5 344 343 345 346
7419 3 2523 2521 2519 2520
7420 1 2519 2521 2523 2513
7421 3 2519 2521 2523 2524
7422 5 2522 2521 2523 2524
7423 3 2521 2523 2513 2514
7424 3 2513 2523 2521 2522
7425 3 3241 3239 3237 3238
7426 3 3237 3239 3241 3242
7427 1 3237 3239 3241 3243
7428 5 3240 3239 3241 3242
7429 20 3238 3237 3235 3236
7430 21 3239 3237 3235 3236
7431 3 3235 3237 3239 3240
7432 1 3235 3237 3239 3241
7433 5 3238 3237 3239 3240
7434 3 1483 1481 1479 1480
7435 1 1479 1481 1483 1473
7436 3 1479 1481 1483 1484
7437 5 1482 1481 1483 1484
7438 3 1481 1483 1473 1474
7439 3 1473 1483 1481 1482
7440 3 633 635 625 626
7441 3 625 635 633 634
7442 20 626 625 627 628
7443 21 635 625 627 628
7444 1 635 625 627 629
7445 5 626 625 635 636
7446 1 627 625 635 633
7447 3 627 625 635 636
7448 3 635 633 631 632
7449 1 631 633 635 625
7450 3 631 633 635 636
7451 5 634 633 635 636
7452 3 633 631 629 630
7453 3 629 631 633 634
7454 1 629 631 633 635
7455 5 632 631 633 634
7456 20 630 629 627 628
7457 21 631 629 627 628
7458 3 627 629 631 632
7459 1 627 629 631 633
7460 5 630 629 631 632
7461 3 629 627 625 626
7462 6 625 627 628 637
7463 7 625 627 628 638
7464 6 629 627 628 637
7465 7 629 627 628 638
7466 3 625 627 629 630
7467 1 625 627 629 631
7468 20 2514 2513 2515 2516
7469 21 2523 2513 2515 2516
7470 1 2523 2513 2515 2517
7471 5 2514 2513 2523 2524
7472 1 2515 2513 2523 2521
7473 3 2515 2513 2523 2524
7474 3 2517 2515 2513 2514
7475 6 2513 2515 2516 2525
7476 7 2513 2515 2516 2526
7477 6 2517 2515 2516 2525
7478 7 2517 2515 2516 2526
7479 3 2513 2515 2517 2518
7480 1 2513 2515 2517 2519
7481 8 627 628 638 639
7482 8 627 628 638 640
7483 9 637 628 638 639
7484 9 637 628 638 640
7485 3 1705 1707 1697 1698
7486 3 1697 1707 1705 1706
7487 20 1702 1701 1699 1700
7488 21 1703 1701 1699 1700
7489 3 1699 1701 1703 1704
7490 1 1699 1701 1703 1705
7491 5 1702 1701 1703 1704
7492 3 1705 1703 1701 1702
7493 3 1701 1703 1705 1706
7494 1 1701 1703 1705 1707
7495 5 1704 1703 1705 1706
7496 20 338 337 339 340
7497 21 347 337 339 340
7498 1 347 337 339 341
7499 5 338 337 347 348
7500 1 339 337 347 345
7501 3 339 337 347 348
7502 3 345 347 337 338
7503 3 337 347 345 346
7504 3 347 345 343 344
7505 1 343 345 347 337
7506 3 343 345 347 348
7507 5 346 345 347 348
7508 20 966 965 963 964
7509 21 967 965 963 964
7510 3 963 965 967 968
7511 1 963 965 967 969
7512 5 966 965 967 968
7513 3 1707 1705 1703 1704
7514 1 1703 1705 1707 1697
7515 3 1703 1705 1707 1708
7516 5 1706 1705 1707 1708
7517 3 2521 2519 2517 2518
7518 3 2517 2519 2521 2522
7519 1 2517 2519 2521 2523
7520 5 2520 2519 2521 2522
7521 3 1401 1403 1393 1394
7522 3 1393 1403 1401 1402
7523 3 1397 1395 1393 1394
7524 6 1393 1395 1396 1405
7525 7 1393 1395 1396 1406
7526 6 1397 1395 1396 1405
7527 7 1397 1395 1396 1406
7528 3 1393 1395 1397 1398
7529 1 1393 1395 1397 1399
7530 8 963 964 974 975
7531 8 963 964 974 976
7532 9 973 964 974 975
7533 9 973 964 974 976
7534 20 1394 1393 1395 1396
7535 21 1403 1393 1395 1396
7536 1 1403 1393 1395 1397
7537 5 1394 1393 1403 1404
7538 1 1395 1393 1403 1401
7539 3 1395 1393 1403 1404
7540 8 2515 2516 2526 2527
7541 8 2515 2516 2526 2528
7542 9 2525 2516 2526 2527
7543 9 2525 2516 2526 2528
7544 20 2518 2517 2515 2516
7545 21 2519 2517 2515 2516
7546 3 2515 2517 2519 2520
7547 1 2515 2517 2519 2521
7548 5 2518 2517 2519 2520
7549 8 1395 1396 1406 1407
7550 8 1395 1396 1406 1408
7551 9 1405 1396 1406 1407
7552 9 1405 1396 1406 1408

Impropers

1 2 1989 1991 1993 1992
2 2 1987 1989 1991 1990
3 9 1985 1987 1989 1988
4 5 3103 3102 3104 3092
5 2 2835 2837 2839 2838
6 5 1599 1598 1600 1588
7 2 2837 2839 2841 2840
8 4 1987 1988 1997 1998
9 9 2833 2835 2837 2836
10 2 2835 2833 2843 2834
11 9 3249 3251 3253 3252
12 2 3251 3249 3259 3250
13 2 3249 3259 3257 3260
14 2 3255 3257 3259 3258
15 2 3251 3253 3255 3254
16 2 3253 3255 3257 3256
17 2 2833 2843 2841 2844
18 2 2839 2841 2843 2842
19 2 1205 1207 1209 1208
20 2 1991 1993 1995 1994
21 2 1985 1995 1993 1996
22 2 1987 1985 1995 1986
23 2 1587 1589 1591 1590
24 2 1591 1593 1595 1594
25 2 1589 1591 1593 1592
26 2 1585 1595 1593 1596
27 2 1587 1585 1595 1586
28 9 1585 1587 1589 1588
29 2 663 665 667 666
30 4 3251 3252 3261 3262
31 5 1999 1998 2000 1988
32 5 2591 2590 2592 2580
33 2 659 661 663 662
34 5 3183 3182 3184 3172
35 4 659 660 669 670
36 9 657 659 661 660
37 5 671 670 672 660
38 2 659 657 667 658
39 2 657 667 665 668
40 4 1091 1092 1101 1102
41 5 1103 1102 1104 1092
42 2 2581 2583 2585 2584
43 2 2579 2581 2583 2582
44 2 3173 3175 3177 3176
45 2 3175 3177 3179 3178
46 2 3169 3179 3177 3180
47 2 2583 2585 2587 2586
48 2 2577 2587 2585 2588
49 2 3299 3297 3307 3298
50 2 1361 1371 1369 1372
51 4 2579 2580 2589 2590
52 9 2577 2579 2581 2580
53 2 3171 3173 3175 3174
54 9 3169 3171 3173 3172
55 2 3171 3169 3179 3170
56 2 243 241 251 242
57 2 241 251 249 252
58 2 2579 2577 2587 2578
59 4 3171 3172 3181 3182
60 2 1363 1361 1371 1362
61 9 865 867 869 868
62 4 867 868 877 878
63 5 879 878 880 868
64 2 867 865 875 866
65 2 2771 2769 2779 2770
66 2 2769 2779 2777 2780
67 2 869 871 873 872
68 2 867 869 871 870
69 2 865 875 873 876
70 2 871 873 875 874
71 9 241 243 245 244
72 4 243 244 253 254
73 5 255 254 256 244
74 2 247 249 251 250
75 2 243 245 247 246
76 2 245 247 249 248
77 2 1109 1111 1113 1112
78 2 1107 1109 1111 1110
79 4 1443 1444 1453 1454
80 2 1443 1441 1451 1442
81 2 3025 3035 3033 3036
82 5 1455 1454 1456 1444
83 2 2775 2777 2779 2778
84 9 1441 1443 1445 1444
85 2 1543 1545 1547 1546
86 2 2773 2775 2777 2776
87 2 1107 1105 1115 1106
88 5 1119 1118 1120 1108
89 4 1107 1108 1117 1118
90 9 1105 1107 1109 1108
91 2 1105 1115 1113 1116
92 2 1441 1451 1449 1452
93 2 1447 1449 1451 1450
94 2 1541 1543 1545 1544
95 2 1539 1541 1543 1542
96 2 3031 3033 3035 3034
97 2 3027 3025 3035 3026
98 2 3027 3029 3031 3030
99 2 3029 3031 3033 3032
100 4 3027 3028 3037 3038
101 5 3039 3038 3040 3028
102 9 3025 3027 3029 3028
103 2 581 583 585 584
104 2 579 581 583 582
105 2 577 587 585 588
106 2 583 585 587 586
107 2 579 577 587 578
108 9 577 579 581 580
109 5 2447 2446 2448 2436
110 4 2435 2436 2445 2446
111 2 1025 1035 1033 1036
112 2 1027 1025 1035 1026
113 2 1027 1029 1031 1030
114 2 1029 1031 1033 1032
115 2 1031 1033 1035 1034
116 9 1025 1027 1029 1028
117 4 1027 1028 1037 1038
118 5 1039 1038 1040 1028
119 4 1763 1764 1773 1774
120 2 1139 1137 1147 1138
121 9 1137 1139 1141 1140
122 2 1139 1141 1143 1142
123 5 1775 1774 1776 1764
124 2 1137 1147 1145 1148
125 5 1919 1918 1920 1908
126 2 1143 1145 1147 1146
127 2 1141 1143 1145 1144
128 5 1151 1150 1152 1140
129 4 1139 1140 1149 1150
130 2 2739 2741 2743 2742
131 2 2803 2801 2811 2802
132 2 2805 2807 2809 2808
133 2 2807 2809 2811 2810
134 2 2801 2811 2809 2812
135 4 2003 2004 2013 2014
136 2 2741 2743 2745 2744
137 2 2743 2745 2747 2746
138 2 2003 2001 2011 2002
139 9 2001 2003 2005 2004
140 4 1907 1908 1917 1918
141 9 1905 1907 1909 1908
142 2 2531 2529 2539 2530
143 2 1907 1909 1911 1910
144 2 2529 2539 2537 2540
145 2 1907 1905 1915 1906
146 2 1911 1913 1915 1914
147 2 1905 1915 1913 1916
148 2 1909 1911 1913 1912
149 2 2535 2537 2539 2538
150 5 2543 2542 2544 2532
151 9 2529 2531 2533 2532
152 2 2531 2533 2535 2534
153 2 2533 2535 2537 2536
154 4 2531 2532 2541 2542
155 2 977 987 985 988
156 2 1255 1257 1259 1258
157 2 1253 1255 1257 1256
158 2 1249 1259 1257 1260
159 9 1249 1251 1253 1252
160 2 1251 1253 1255 1254
161 2 981 983 985 984
162 2 983 985 987 986
163 2 979 977 987 978
164 5 2015 2014 2016 2004
165 2 2003 2005 2007 2006
166 2 1251 1249 1259 1250
167 4 3091 3092 3101 3102
168 2 3095 3097 3099 3098
169 2 3091 3089 3099 3090
170 2 3089 3099 3097 3100
171 2 3093 3095 3097 3096
172 2 3091 3093 3095 3094
173 9 3089 3091 3093 3092
174 5 2847 2846 2848 2836
175 4 1203 1204 1213 1214
176 4 979 980 989 990
177 2 979 981 983 982
178 5 991 990 992 980
179 9 977 979 981 980
180 9 1489 1491 1493 1492
181 2 1491 1489 1499 1490
182 4 2835 2836 2845 2846
183 2 1489 1499 1497 1500
184 2 1495 1497 1499 1498
185 2 1203 1201 1211 1202
186 2 1201 1211 1209 1212
187 9 1201 1203 1205 1204
188 2 1207 1209 1211 1210
189 2 1203 1205 1207 1206
190 4 1587 1588 1597 1598
191 2 2627 2629 2631 2630
192 2 2627 2625 2635 2626
193 9 2625 2627 2629 2628
194 5 2639 2638 2640 2628
195 4 2627 2628 2637 2638
196 9 2321 2323 2325 2324
197 4 2323 2324 2333 2334
198 5 2335 2334 2336 2324
199 2 2323 2321 2331 2322
200 2 2321 2331 2329 2332
201 2 2323 2325 2327 2326
202 2 2325 2327 2329 2328
203 2 2327 2329 2331 2330
204 4 3059 3060 3069 3070
205 9 3057 3059 3061 3060
206 2 3059 3057 3067 3058
207 5 1135 1134 1136 1124
208 4 1123 1124 1133 1134
209 9 1121 1123 1125 1124
210 2 1123 1125 1127 1126
211 2 1123 1121 1131 1122
212 2 1125 1127 1129 1128
213 2 1121 1131 1129 1132
214 2 1127 1129 1131 1130
215 2 661 663 665 664
216 5 3071 3070 3072 3060
217 2 673 683 681 684
218 2 677 679 681 680
219 2 679 681 683 682
220 5 575 574 576 564
221 2 675 677 679 678
222 9 561 563 565 564
223 2 563 565 567 566
224 2 565 567 569 568
225 2 561 571 569 572
226 2 567 569 571 570
227 2 563 561 571 562
228 4 563 564 573 574
229 2 1047 1049 1051 1050
230 2 1045 1047 1049 1048
231 2 1041 1051 1049 1052
232 2 1043 1045 1047 1046
233 9 1041 1043 1045 1044
234 2 1043 1041 1051 1042
235 2 675 673 683 674
236 9 673 675 677 676
237 2 1681 1691 1689 1692
238 2 1687 1689 1691 1690
239 2 1683 1685 1687 1686
240 2 1683 1681 1691 1682
241 9 1681 1683 1685 1684
242 5 1695 1694 1696 1684
243 4 1683 1684 1693 1694
244 2 2099 2097 2107 2098
245 2 2097 2107 2105 2108
246 4 1219 1220 1229 1230
247 5 1231 1230 1232 1220
248 2 1685 1687 1689 1688
249 2 2103 2105 2107 2106
250 4 1043 1044 1053 1054
251 5 1055 1054 1056 1044
252 2 1221 1223 1225 1224
253 2 1223 1225 1227 1226
254 2 1217 1227 1225 1228
255 2 1219 1221 1223 1222
256 9 1217 1219 1221 1220
257 2 1219 1217 1227 1218
258 5 2415 2414 2416 2404
259 4 2403 2404 2413 2414
260 2 1443 1445 1447 1446
261 2 1715 1717 1719 1718
262 9 1713 1715 1717 1716
263 4 1715 1716 1725 1726
264 5 1727 1726 1728 1716
265 2 1719 1721 1723 1722
266 2 1717 1719 1721 1720
267 2 2291 2289 2299 2290
268 2 2289 2299 2297 2300
269 4 1347 1348 1357 1358
270 5 1359 1358 1360 1348
271 2 1445 1447 1449 1448
272 2 1351 1353 1355 1354
273 2 1345 1355 1353 1356
274 2 1347 1349 1351 1350
275 2 1349 1351 1353 1352
276 9 2289 2291 2293 2292
277 2 2291 2293 2295 2294
278 2 2295 2297 2299 2298
279 2 2293 2295 2297 2296
280 2 2181 2183 2185 2184
281 2 1347 1345 1355 1346
282 9 1345 1347 1349 1348
283 2 2179 2181 2183 2182
284 2 1715 1713 1723 1714
285 2 1713 1723 1721 1724
286 2 1763 1765 1767 1766
287 9 1761 1763 1765 1764
288 2 1767 1769 1771 1770
289 2 1765 1767 1769 1768
290 2 1761 1771 1769 1772
291 2 1795 1793 1803 1794
292 2 1793 1803 1801 1804
293 2 1799 1801 1803 1802
294 2 2183 2185 2187 2186
295 9 2433 2435 2437 2436
296 2 2177 2187 2185 2188
297 2 2437 2439 2441 2440
298 2 2435 2437 2439 2438
299 2 2179 2177 2187 2178
300 2 1763 1761 1771 1762
301 2 2369 2379 2377 2380
302 2 2375 2377 2379 2378
303 2 2373 2375 2377 2376
304 2 2371 2373 2375 2374
305 5 1583 1582 1584 1572
306 4 1571 1572 1581 1582
307 2 2803 2805 2807 2806
308 2 2435 2433 2443 2434
309 2 2433 2443 2441 2444
310 2 2439 2441 2443 2442
311 9 2801 2803 2805 2804
312 4 2803 2804 2813 2814
313 5 2815 2814 2816 2804
314 2 2657 2667 2665 2668
315 2 2663 2665 2667 2666
316 2 2659 2657 2667 2658
317 2 2001 2011 2009 2012
318 2 2007 2009 2011 2010
319 9 2369 2371 2373 2372
320 2 2371 2369 2379 2370
321 5 2383 2382 2384 2372
322 4 2371 2372 2381 2382
323 2 2021 2023 2025 2024
324 2 2023 2025 2027 2026
325 5 3023 3022 3024 3012
326 2 2017 2027 2025 2028
327 4 2019 2020 2029 2030
328 9 2017 2019 2021 2020
329 2 2019 2021 2023 2022
330 2 2005 2007 2009 2008
331 4 1251 1252 1261 1262
332 2 2019 2017 2027 2018
333 5 1167 1166 1168 1156
334 4 1155 1156 1165 1166
335 5 1263 1262 1264 1252
336 9 1153 1155 1157 1156
337 2 1153 1163 1161 1164
338 2 1155 1153 1163 1154
339 2 2631 2633 2635 2634
340 2 2629 2631 2633 2632
341 2 2625 2635 2633 2636
342 4 3011 3012 3021 3022
343 2 3011 3013 3015 3014
344 9 3009 3011 3013 3012
345 2 3011 3009 3019 3010
346 2 3015 3017 3019 3018
347 2 3013 3015 3017 3016
348 2 3009 3019 3017 3020
349 5 1503 1502 1504 1492
350 4 1491 1492 1501 1502
351 2 1491 1493 1495 1494
352 2 1493 1495 1497 1496
353 2 1189 1191 1193 1192
354 2 1191 1193 1195 1194
355 2 1187 1189 1191 1190
356 2 1187 1185 1195 1186
357 9 1185 1187 1189 1188
358 5 1199 1198 1200 1188
359 4 1187 1188 1197 1198
360 2 1185 1195 1193 1196
361 2 2821 2823 2825 2824
362 2 2819 2821 2823 2822
363 2 2823 2825 2827 2826
364 2 2817 2827 2825 2828
365 2 2903 2905 2907 2906
366 2 2819 2817 2827 2818
367 2 3057 3067 3065 3068
368 4 3043 3044 3053 3054
369 2 2899 2901 2903 2902
370 2 2901 2903 2905 2904
371 5 2831 2830 2832 2820
372 9 2817 2819 2821 2820
373 2 3063 3065 3067 3066
374 2 3059 3061 3063 3062
375 2 3061 3063 3065 3064
376 4 2819 2820 2829 2830
377 4 803 804 813 814
378 2 3043 3041 3051 3042
379 5 3087 3086 3088 3076
380 2 803 801 811 802
381 2 705 715 713 716
382 2 707 705 715 706
383 2 2897 2907 2905 2908
384 5 1935 1934 1936 1924
385 4 1923 1924 1933 1934
386 9 1921 1923 1925 1924
387 2 2899 2897 2907 2898
388 2 711 713 715 714
389 2 803 805 807 806
390 2 709 711 713 712
391 2 707 709 711 710
392 9 705 707 709 708
393 9 801 803 805 804
394 5 815 814 816 804
395 2 801 811 809 812
396 2 2881 2891 2889 2892
397 2 1927 1929 1931 1930
398 2 1921 1931 1929 1932
399 2 3221 3223 3225 3224
400 2 3223 3225 3227 3226
401 2 1923 1921 1931 1922
402 2 1923 1925 1927 1926
403 2 1925 1927 1929 1928
404 2 1239 1241 1243 1242
405 2 1233 1243 1241 1244
406 2 1237 1239 1241 1240
407 2 3219 3221 3223 3222
408 5 399 398 400 388
409 4 2883 2884 2893 2894
410 5 2895 2894 2896 2884
411 9 2881 2883 2885 2884
412 2 3217 3227 3225 3228
413 4 675 676 685 686
414 5 687 686 688 676
415 2 3219 3217 3227 3218
416 5 719 718 720 708
417 4 707 708 717 718
418 4 3219 3220 3229 3230
419 5 1247 1246 1248 1236
420 4 1235 1236 1245 1246
421 2 1235 1237 1239 1238
422 9 1233 1235 1237 1236
423 2 1235 1233 1243 1234
424 9 3217 3219 3221 3220
425 2 2883 2881 2891 2882
426 5 2111 2110 2112 2100
427 4 2099 2100 2109 2110
428 9 2097 2099 2101 2100
429 2 2099 2101 2103 2102
430 2 1555 1553 1563 1554
431 2 1553 1563 1561 1564
432 2 1559 1561 1563 1562
433 2 1557 1559 1561 1560
434 9 1553 1555 1557 1556
435 5 3231 3230 3232 3220
436 2 2403 2405 2407 2406
437 2 2405 2407 2409 2408
438 2 2407 2409 2411 2410
439 9 2401 2403 2405 2404
440 2 2403 2401 2411 2402
441 2 2401 2411 2409 2412
442 2 1079 1081 1083 1082
443 2 1077 1079 1081 1080
444 2 2101 2103 2105 2104
445 2 1555 1557 1559 1558
446 2 1943 1945 1947 1946
447 2 1941 1943 1945 1944
448 2 2677 2679 2681 2680
449 2 2679 2681 2683 2682
450 2 2675 2677 2679 2678
451 2 1939 1941 1943 1942
452 2 2673 2683 2681 2684
453 9 2673 2675 2677 2676
454 2 1937 1947 1945 1948
455 2 1939 1937 1947 1938
456 9 1937 1939 1941 1940
457 4 2291 2292 2301 2302
458 5 2303 2302 2304 2292
459 9 2177 2179 2181 2180
460 2 2675 2673 2683 2674
461 2 1073 1083 1081 1084
462 9 1073 1075 1077 1076
463 2 1075 1077 1079 1078
464 4 2675 2676 2685 2686
465 5 2687 2686 2688 2676
466 2 1075 1073 1083 1074
467 5 2191 2190 2192 2180
468 4 2179 2180 2189 2190
469 5 1087 1086 1088 1076
470 9 1793 1795 1797 1796
471 5 319 318 320 308
472 4 307 308 317 318
473 2 1797 1799 1801 1800
474 2 1795 1797 1799 1798
475 2 2131 2133 2135 2134
476 2 2133 2135 2137 2136
477 2 2135 2137 2139 2138
478 9 2129 2131 2133 2132
479 5 1951 1950 1952 1940
480 4 1939 1940 1949 1950
481 4 1795 1796 1805 1806
482 5 1807 1806 1808 1796
483 9 305 307 309 308
484 2 307 305 315 306
485 2 307 309 311 310
486 2 305 315 313 316
487 2 311 313 315 314
488 2 309 311 313 312
489 5 2143 2142 2144 2132
490 4 2131 2132 2141 2142
491 2 1573 1575 1577 1576
492 2 1575 1577 1579 1578
493 2 1569 1579 1577 1580
494 2 1571 1569 1579 1570
495 2 1571 1573 1575 1574
496 9 1569 1571 1573 1572
497 2 2257 2267 2265 2268
498 5 1023 1022 1024 1012
499 2 2259 2257 2267 2258
500 5 2271 2270 2272 2260
501 9 2257 2259 2261 2260
502 4 2259 2260 2269 2270
503 4 3331 3332 3341 3342
504 4 1011 1012 1021 1022
505 2 2661 2663 2665 2664
506 2 1015 1017 1019 1018
507 2 1009 1019 1017 1020
508 2 1013 1015 1017 1016
509 9 2657 2659 2661 2660
510 4 2659 2660 2669 2670
511 2 2659 2661 2663 2662
512 5 2671 2670 2672 2660
513 2 1011 1009 1019 1010
514 9 1009 1011 1013 1012
515 2 1011 1013 1015 1014
516 4 643 644 653 654
517 5 655 654 656 644
518 2 645 647 649 648
519 2 643 645 647 646
520 2 643 641 651 642
521 9 641 643 645 644
522 2 647 649 651 650
523 2 641 651 649 652
524 5 3343 3342 3344 3332
525 5 2031 2030 2032 2020
526 2 1155 1157 1159 1158
527 9 3329 3331 3333 3332
528 2 3331 3329 3339 3330
529 2 3329 3339 3337 3340
530 2 1157 1159 1161 1160
531 2 1159 1161 1163 1162
532 4 1299 1300 1309 1310
533 9 1297 1299 1301 1300
534 2 1299 1301 1303 1302
535 5 1311 1310 1312 1300
536 2 3333 3335 3337 3336
537 2 3335 3337 3339 3338
538 2 3331 3333 3335 3334
539 2 1301 1303 1305 1304
540 2 2035 2037 2039 2038
541 2 2037 2039 2041 2040
542 5 623 622 624 612
543 2 2039 2041 2043 2042
544 9 2033 2035 2037 2036
545 4 2035 2036 2045 2046
546 2 2033 2043 2041 2044
547 2 2035 2033 2043 2034
548 4 611 612 621 622
549 9 609 611 613 612
550 5 3055 3054 3056 3044
551 2 611 609 619 610
552 2 611 613 615 614
553 2 613 615 617 616
554 5 2047 2046 2048 2036
555 2 609 619 617 620
556 2 3047 3049 3051 3050
557 2 3041 3051 3049 3052
558 9 3041 3043 3045 3044
559 2 3045 3047 3049 3048
560 2 3043 3045 3047 3046
561 2 615 617 619 618
562 4 2243 2244 2253 2254
563 5 2255 2254 2256 2244
564 2 407 409 411 410
565 2 405 407 409 408
566 2 401 411 409 412
567 2 403 401 411 402
568 2 403 405 407 406
569 5 415 414 416 404
570 9 401 403 405 404
571 4 403 404 413 414
572 5 2911 2910 2912 2900
573 9 2241 2243 2245 2244
574 2 3075 3077 3079 3078
575 2 3079 3081 3083 3082
576 2 3077 3079 3081 3080
577 2 2243 2241 2251 2242
578 4 3075 3076 3085 3086
579 9 3073 3075 3077 3076
580 2 3075 3073 3083 3074
581 2 3073 3083 3081 3084
582 5 2431 2430 2432 2420
583 2 2241 2251 2249 2252
584 5 863 862 864 852
585 9 2897 2899 2901 2900
586 4 2899 2900 2909 2910
587 2 2691 2693 2695 2694
588 2 2693 2695 2697 2696
589 5 2703 2702 2704 2692
590 9 2689 2691 2693 2692
591 2 2691 2689 2699 2690
592 2 2695 2697 2699 2698
593 2 2689 2699 2697 2700
594 2 2471 2473 2475 2474
595 2 2469 2471 2473 2472
596 2 2465 2475 2473 2476
597 5 3279 3278 3280 3268
598 2 3269 3271 3273 3272
599 2 3267 3269 3271 3270
600 2 3271 3273 3275 3274
601 9 3265 3267 3269 3268
602 2 3265 3275 3273 3276
603 2 3267 3265 3275 3266
604 2 807 809 811 810
605 4 3267 3268 3277 3278
606 2 805 807 809 808
607 2 2467 2465 2475 2466
608 9 2465 2467 2469 2468
609 5 2479 2478 2480 2468
610 2 2467 2469 2471 2470
611 4 2467 2468 2477 2478
612 4 387 388 397 398
613 4 2691 2692 2701 2702
614 9 385 387 389 388
615 2 387 389 391 390
616 2 391 393 395 394
617 2 389 391 393 392
618 2 2883 2885 2887 2886
619 2 1841 1851 1849 1852
620 2 387 385 395 386
621 2 385 395 393 396
622 4 1891 1892 1901 1902
623 5 1903 1902 1904 1892
624 5 3391 3390 3392 3380
625 4 3379 3380 3389 3390
626 2 2887 2889 2891 2890
627 2 3379 3377 3387 3378
628 2 3377 3387 3385 3388
629 2 3383 3385 3387 3386
630 2 3381 3383 3385 3384
631 2 2885 2887 2889 2888
632 9 3377 3379 3381 3380
633 2 3379 3381 3383 3382
634 2 1843 1841 1851 1842
635 5 703 702 704 692
636 4 691 692 701 702
637 2 693 695 697 696
638 2 691 693 695 694
639 2 695 697 699 698
640 9 689 691 693 692
641 2 689 699 697 700
642 2 691 689 699 690
643 2 935 937 939 938
644 2 933 935 937 936
645 5 2959 2958 2960 2948
646 2 929 939 937 940
647 2 931 933 935 934
648 4 931 932 941 942
649 9 929 931 933 932
650 2 2947 2949 2951 2950
651 4 2947 2948 2957 2958
652 2 931 929 939 930
653 5 943 942 944 932
654 4 1555 1556 1565 1566
655 1 57 128 105 125
656 1 98 122 121 125
657 5 1567 1566 1568 1556
658 1 122 125 124 128
659 1 120 124 125 127
660 1 113 123 118 126
661 1 53 126 123 127
662 1 117 118 120 123
663 1 55 127 124 126
664 1 118 120 119 124
665 1 119 121 122 192
666 1 121 119 120 191
667 1 108 117 118 190
668 1 121 192 169 189
669 1 117 190 187 191
670 1 119 191 188 190
671 1 186 189 188 192
672 1 184 188 189 191
673 1 177 187 182 190
674 1 111 113 116 123
675 1 111 108 117 180
676 1 175 177 180 187
677 4 1075 1076 1085 1086
678 1 41 64 61 185
679 1 162 186 185 189
680 1 55 57 58 128
681 1 57 55 56 127
682 1 44 53 54 126
683 1 34 58 57 61
684 1 53 54 56 59
685 1 54 56 55 60
686 1 58 61 60 64
687 1 56 60 61 63
688 1 49 59 54 62
689 1 63 183 185 184
690 1 64 185 183 186
691 1 59 62 63 181
692 1 62 181 172 182
693 1 181 182 184 187
694 1 60 63 62 183
695 1 182 184 183 188
696 1 47 44 53 116
697 1 52 172 175 181
698 1 47 49 52 59
699 1 44 116 113 115
700 1 108 111 110 113
701 1 108 180 177 179
702 5 2735 2734 2736 2724
703 2 2129 2139 2137 2140
704 1 110 114 112 115
705 1 45 115 114 116
706 1 109 110 111 114
707 1 107 109 110 179
708 1 109 179 178 180
709 1 174 178 176 179
710 2 2131 2129 2139 2130
711 5 3215 3214 3216 3204
712 4 2723 2724 2733 2734
713 2 2723 2721 2731 2722
714 9 2721 2723 2725 2724
715 1 44 47 46 49
716 2 2727 2729 2731 2730
717 1 49 52 51 172
718 1 172 175 174 177
719 2 2721 2731 2729 2732
720 2 2725 2727 2729 2728
721 2 2723 2725 2727 2726
722 1 43 45 46 115
723 1 45 46 47 50
724 1 46 50 48 51
725 1 173 174 175 178
726 1 50 51 52 173
727 1 51 173 171 174
728 2 787 785 795 786
729 2 2263 2265 2267 2266
730 2 2261 2263 2265 2264
731 9 3201 3203 3205 3204
732 4 3203 3204 3213 3214
733 2 2259 2261 2263 2262
734 5 2879 2878 2880 2868
735 4 787 788 797 798
736 5 799 798 800 788
737 2 2865 2875 2873 2876
738 2 2871 2873 2875 2874
739 2 2867 2865 2875 2866
740 2 2867 2869 2871 2870
741 9 2865 2867 2869 2868
742 2 2869 2871 2873 2872
743 4 2867 2868 2877 2878
744 2 787 789 791 790
745 9 785 787 789 788
746 2 2387 2389 2391 2390
747 2 2389 2391 2393 2392
748 2 2385 2395 2393 2396
749 5 2399 2398 2400 2388
750 4 2387 2388 2397 2398
751 2 2387 2385 2395 2386
752 9 2385 2387 2389 2388
753 2 945 955 953 956
754 2 951 953 955 954
755 2 949 951 953 952
756 2 947 945 955 946
757 2 2391 2393 2395 2394
758 2 3351 3353 3355 3354
759 2 3349 3351 3353 3352
760 2 1299 1297 1307 1298
761 2 1303 1305 1307 1306
762 2 1297 1307 1305 1308
763 5 2943 2942 2944 2932
764 4 2931 2932 2941 2942
765 2 3345 3355 3353 3356
766 2 3123 3121 3131 3122
767 2 3121 3131 3129 3132
768 2 849 859 857 860
769 2 851 849 859 850
770 9 2273 2275 2277 2276
771 2 2277 2279 2281 2280
772 2 2275 2277 2279 2278
773 2 2279 2281 2283 2282
774 4 2275 2276 2285 2286
775 2 2275 2273 2283 2274
776 2 2273 2283 2281 2284
777 4 851 852 861 862
778 2 855 857 859 858
779 2 853 855 857 856
780 2 851 853 855 854
781 9 849 851 853 852
782 9 2929 2931 2933 2932
783 2 2931 2933 2935 2934
784 2 2931 2929 2939 2930
785 2 2933 2935 2937 2936
786 2 2929 2939 2937 2940
787 2 2935 2937 2939 2938
788 2 899 901 903 902
789 2 901 903 905 904
790 4 899 900 909 910
791 9 897 899 901 900
792 2 903 905 907 906
793 2 899 897 907 898
794 2 897 907 905 908
795 5 911 910 912 900
796 4 515 516 525 526
797 4 2419 2420 2429 2430
798 9 2417 2419 2421 2420
799 2 2419 2421 2423 2422
800 2 2243 2245 2247 2246
801 2 2419 2417 2427 2418
802 2 2417 2427 2425 2428
803 2 2423 2425 2427 2426
804 2 2421 2423 2425 2424
805 9 513 515 517 516
806 2 2245 2247 2249 2248
807 2 515 517 519 518
808 2 2247 2249 2251 2250
809 2 487 489 491 490
810 2 481 491 489 492
811 9 3153 3155 3157 3156
812 2 3155 3153 3163 3154
813 2 3155 3157 3159 3158
814 2 483 481 491 482
815 2 3153 3163 3161 3164
816 2 3159 3161 3163 3162
817 2 485 487 489 488
818 2 483 485 487 486
819 5 3167 3166 3168 3156
820 4 3155 3156 3165 3166
821 9 481 483 485 484
822 2 2081 2091 2089 2092
823 2 2087 2089 2091 2090
824 2 2083 2081 2091 2082
825 2 2085 2087 2089 2088
826 2 1891 1889 1899 1890
827 2 1891 1893 1895 1894
828 9 1889 1891 1893 1892
829 2 1889 1899 1897 1900
830 2 1847 1849 1851 1850
831 2 1845 1847 1849 1848
832 2 1893 1895 1897 1896
833 2 1895 1897 1899 1898
834 5 431 430 432 420
835 9 3185 3187 3189 3188
836 4 483 484 493 494
837 5 495 494 496 484
838 2 419 417 427 418
839 2 417 427 425 428
840 4 1843 1844 1853 1854
841 9 1841 1843 1845 1844
842 5 1855 1854 1856 1844
843 2 1843 1845 1847 1846
844 2 2947 2945 2955 2946
845 2 2945 2955 2953 2956
846 9 417 419 421 420
847 4 3187 3188 3197 3198
848 1 98 101 102 105
849 1 31 105 101 128
850 1 95 98 122 101
851 1 96 95 98 169
852 1 95 169 165 192
853 1 162 165 166 169
854 1 97 102 101 104
855 1 32 104 102 106
856 1 96 97 102 100
857 1 95 96 97 168
858 1 78 103 100 106
859 1 35 106 103 104
860 1 97 100 99 103
861 1 74 99 170 100
862 1 96 168 166 170
863 1 99 170 167 168
864 1 161 166 165 168
865 1 142 167 164 170
866 2 3187 3189 3191 3190
867 9 2945 2947 2949 2948
868 2 2949 2951 2953 2952
869 2 423 425 427 426
870 5 3199 3198 3200 3188
871 1 32 31 34 105
872 1 31 34 58 37
873 1 34 37 38 41
874 1 37 41 64 159
875 1 41 159 160 162
876 1 159 162 186 165
877 2 2951 2953 2955 2954
878 1 31 32 33 104
879 1 10 35 106 36
880 1 32 33 38 36
881 1 33 36 35 39
882 1 33 38 37 40
883 1 40 160 159 161
884 1 38 40 42 160
885 1 160 161 166 164
886 1 14 39 36 42
887 1 39 42 40 163
888 1 42 163 138 164
889 1 161 164 163 167
890 1 87 112 94 114
891 1 87 107 109 158
892 1 20 92 90 94
893 1 43 94 92 112
894 1 85 90 88 92
895 1 85 87 112 107
896 1 84 85 87 90
897 1 81 84 85 156
898 1 84 156 154 158
899 1 107 158 156 176
900 1 151 176 158 178
901 1 149 154 152 156
902 1 81 86 83 88
903 1 17 93 88 91
904 1 86 88 93 90
905 1 86 81 84 157
906 2 2051 2053 2055 2054
907 1 81 157 152 155
908 1 150 152 157 154
909 2 2053 2055 2057 2056
910 2 2055 2057 2059 2058
911 2 2049 2059 2057 2060
912 2 2051 2049 2059 2050
913 9 2049 2051 2053 2052
914 4 2051 2052 2061 2062
915 5 2063 2062 2064 2052
916 1 23 43 45 94
917 1 17 20 21 92
918 1 21 23 48 43
919 1 20 21 23 26
920 1 23 48 30 50
921 1 30 171 151 173
922 1 21 26 24 28
923 1 26 28 30 148
924 1 28 30 48 171
925 1 149 151 176 171
926 1 28 148 145 149
927 1 148 149 151 154
928 1 22 17 20 93
929 1 17 22 19 24
930 1 22 24 29 26
931 1 24 29 27 145
932 1 145 150 147 152
933 1 29 145 150 148
934 2 3203 3201 3211 3202
935 2 3201 3211 3209 3212
936 5 2767 2766 2768 2756
937 4 2755 2756 2765 2766
938 2 551 553 555 554
939 2 3203 3205 3207 3206
940 2 3205 3207 3209 3208
941 2 3207 3209 3211 3210
942 5 287 286 288 276
943 2 2453 2455 2457 2456
944 2 2455 2457 2459 2458
945 2 2451 2453 2455 2454
946 2 791 793 795 794
947 2 789 791 793 792
948 2 785 795 793 796
949 4 275 276 285 286
950 4 3123 3124 3133 3134
951 9 3121 3123 3125 3124
952 2 545 555 553 556
953 9 2849 2851 2853 2852
954 2 2851 2849 2859 2850
955 2 2853 2855 2857 2856
956 2 2855 2857 2859 2858
957 2 2849 2859 2857 2860
958 2 547 545 555 546
959 2 947 949 951 950
960 9 945 947 949 948
961 5 3135 3134 3136 3124
962 5 959 958 960 948
963 4 947 948 957 958
964 2 277 279 281 280
965 2 279 281 283 282
966 2 275 277 279 278
967 9 273 275 277 276
968 2 3347 3349 3351 3350
969 4 2611 2612 2621 2622
970 2 3123 3125 3127 3126
971 2 275 273 283 274
972 2 3127 3129 3131 3130
973 2 3125 3127 3129 3128
974 2 273 283 281 284
975 2 2071 2073 2075 2074
976 2 2069 2071 2073 2072
977 2 2067 2069 2071 2070
978 2 3347 3345 3355 3346
979 9 3345 3347 3349 3348
980 2 2065 2075 2073 2076
981 5 2287 2286 2288 2276
982 5 1535 1534 1536 1524
983 5 3359 3358 3360 3348
984 9 993 995 997 996
985 2 2613 2615 2617 2616
986 2 2615 2617 2619 2618
987 2 995 997 999 998
988 2 997 999 1001 1000
989 2 2611 2613 2615 2614
990 2 2609 2619 2617 2620
991 5 2623 2622 2624 2612
992 9 2609 2611 2613 2612
993 2 2611 2609 2619 2610
994 4 1523 1524 1533 1534
995 4 995 996 1005 1006
996 5 1007 1006 1008 996
997 2 1523 1521 1531 1522
998 2 1521 1531 1529 1532
999 4 3347 3348 3357 3358
1000 2 995 993 1003 994
1001 9 1521 1523 1525 1524
1002 2 1525 1527 1529 1528
1003 2 1523 1525 1527 1526
1004 2 1527 1529 1531 1530
1005 5 1679 1678 1680 1668
1006 2 2485 2487 2489 2488
1007 9 1873 1875 1877 1876
1008 2 1879 1881 1883 1882
1009 2 1875 1873 1883 1874
1010 2 1873 1883 1881 1884
1011 5 527 526 528 516
1012 2 2487 2489 2491 2490
1013 2 2481 2491 2489 2492
1014 5 1295 1294 1296 1284
1015 2 517 519 521 520
1016 2 519 521 523 522
1017 2 1875 1877 1879 1878
1018 2 1877 1879 1881 1880
1019 9 1313 1315 1317 1316
1020 2 1315 1317 1319 1318
1021 2 1315 1313 1323 1314
1022 2 1319 1321 1323 1322
1023 2 1313 1323 1321 1324
1024 2 1317 1319 1321 1320
1025 4 1875 1876 1885 1886
1026 2 3157 3159 3161 3160
1027 9 881 883 885 884
1028 5 895 894 896 884
1029 2 883 885 887 886
1030 4 883 884 893 894
1031 2 1619 1621 1623 1622
1032 2 885 887 889 888
1033 2 883 881 891 882
1034 2 887 889 891 890
1035 5 2719 2718 2720 2708
1036 2 513 523 521 524
1037 5 1887 1886 1888 1876
1038 2 515 513 523 514
1039 2 1621 1623 1625 1624
1040 5 2095 2094 2096 2084
1041 4 2083 2084 2093 2094
1042 9 2081 2083 2085 2084
1043 2 2083 2085 2087 2086
1044 2 881 891 889 892
1045 2 1623 1625 1627 1626
1046 4 1619 1620 1629 1630
1047 9 1409 1411 1413 1412
1048 2 3187 3185 3195 3186
1049 2 1411 1413 1415 1414
1050 4 1411 1412 1421 1422
1051 5 1423 1422 1424 1412
1052 2 419 421 423 422
1053 4 419 420 429 430
1054 5 1631 1630 1632 1620
1055 9 1617 1619 1621 1620
1056 2 1619 1617 1627 1618
1057 9 2593 2595 2597 2596
1058 2 2595 2597 2599 2598
1059 2 2595 2593 2603 2594
1060 2 2597 2599 2601 2600
1061 2 2593 2603 2601 2604
1062 2 2599 2601 2603 2602
1063 2 1617 1627 1625 1628
1064 2 1411 1409 1419 1410
1065 2 3185 3195 3193 3196
1066 2 3191 3193 3195 3194
1067 1 75 78 103 79
1068 1 10 79 78 80
1069 1 74 75 78 76
1070 1 99 74 75 143
1071 1 74 143 142 144
1072 1 139 142 167 143
1073 2 3189 3191 3193 3192
1074 2 1409 1419 1417 1420
1075 2 1413 1415 1417 1416
1076 2 1415 1417 1419 1418
1077 1 9 80 77 79
1078 1 73 76 75 77
1079 1 73 144 141 143
1080 2 2965 2967 2969 2968
1081 2 421 423 425 424
1082 1 35 10 11 79
1083 1 10 11 14 12
1084 1 11 14 39 15
1085 1 14 15 138 16
1086 1 15 138 163 139
1087 1 138 139 142 140
1088 2 1175 1177 1179 1178
1089 2 1173 1175 1177 1176
1090 2 1169 1179 1177 1180
1091 1 9 12 11 13
1092 9 1169 1171 1173 1172
1093 1 13 16 15 137
1094 1 137 140 139 141
1095 2 1171 1169 1179 1170
1096 5 1183 1182 1184 1172
1097 1 69 77 76 80
1098 1 65 73 76 144
1099 1 133 141 140 144
1100 1 66 69 71 77
1101 1 66 65 73 135
1102 1 18 91 89 93
1103 1 82 83 86 89
1104 1 1 71 69 72
1105 1 3 72 70 71
1106 1 65 66 69 68
1107 1 66 68 67 70
1108 1 68 70 89 72
1109 1 70 89 83 91
1110 1 82 67 68 136
1111 1 67 82 83 155
1112 1 82 155 153 157
1113 1 65 135 133 136
1114 1 67 136 134 135
1115 1 130 133 135 141
1116 1 132 134 153 136
1117 1 134 153 147 155
1118 5 3151 3150 3152 3140
1119 4 3139 3140 3149 3150
1120 5 831 830 832 820
1121 4 819 820 829 830
1122 1 1 9 12 80
1123 1 5 13 12 16
1124 1 16 137 129 140
1125 1 2 1 9 71
1126 1 18 3 4 72
1127 1 3 18 19 91
1128 1 18 19 25 22
1129 1 1 2 5 4
1130 1 2 4 3 6
1131 1 2 5 7 13
1132 1 7 129 130 137
1133 1 4 6 25 8
1134 1 6 25 19 27
1135 1 25 27 29 146
1136 1 146 147 150 153
1137 1 6 8 7 131
1138 1 5 7 129 8
1139 1 129 130 133 132
1140 1 130 132 131 134
1141 1 8 131 146 132
1142 1 27 146 131 147
1143 2 1271 1273 1275 1274
1144 2 3137 3147 3145 3148
1145 2 3139 3137 3147 3138
1146 9 817 819 821 820
1147 2 2565 2567 2569 2568
1148 2 2563 2565 2567 2566
1149 2 2567 2569 2571 2570
1150 2 2561 2571 2569 2572
1151 9 2561 2563 2565 2564
1152 2 2563 2561 2571 2562
1153 2 3139 3141 3143 3142
1154 9 3137 3139 3141 3140
1155 2 819 821 823 822
1156 2 821 823 825 824
1157 2 823 825 827 826
1158 9 2753 2755 2757 2756
1159 2 2755 2753 2763 2754
1160 2 3143 3145 3147 3146
1161 2 3141 3143 3145 3144
1162 2 2757 2759 2761 2760
1163 2 2759 2761 2763 2762
1164 2 2753 2763 2761 2764
1165 2 549 551 553 552
1166 4 2451 2452 2461 2462
1167 5 2463 2462 2464 2452
1168 9 2449 2451 2453 2452
1169 2 2451 2449 2459 2450
1170 5 1343 1342 1344 1332
1171 2 2449 2459 2457 2460
1172 5 2575 2574 2576 2564
1173 5 2863 2862 2864 2852
1174 2 2755 2757 2759 2758
1175 2 2851 2853 2855 2854
1176 4 2851 2852 2861 2862
1177 5 559 558 560 548
1178 2 547 549 551 550
1179 9 545 547 549 548
1180 4 547 548 557 558
1181 2 323 321 331 322
1182 9 321 323 325 324
1183 4 323 324 333 334
1184 5 335 334 336 324
1185 2 321 331 329 332
1186 2 917 919 921 920
1187 2 1383 1385 1387 1386
1188 2 1381 1383 1385 1384
1189 4 227 228 237 238
1190 2 227 229 231 230
1191 9 1377 1379 1381 1380
1192 2 1379 1377 1387 1378
1193 2 1377 1387 1385 1388
1194 5 239 238 240 228
1195 5 2079 2078 2080 2068
1196 4 2067 2068 2077 2078
1197 9 2065 2067 2069 2068
1198 9 225 227 229 228
1199 2 227 225 235 226
1200 2 2067 2065 2075 2066
1201 2 225 235 233 236
1202 2 229 231 233 232
1203 2 231 233 235 234
1204 2 1969 1979 1977 1980
1205 2 1973 1975 1977 1976
1206 2 1975 1977 1979 1978
1207 2 999 1001 1003 1002
1208 2 993 1003 1001 1004
1209 5 1391 1390 1392 1380
1210 2 1379 1381 1383 1382
1211 4 1379 1380 1389 1390
1212 2 2483 2481 2491 2482
1213 9 2481 2483 2485 2484
1214 2 2483 2485 2487 2486
1215 4 2483 2484 2493 2494
1216 5 2495 2494 2496 2484
1217 2 1665 1675 1673 1676
1218 2 1667 1665 1675 1666
1219 4 1315 1316 1325 1326
1220 4 1667 1668 1677 1678
1221 9 1665 1667 1669 1668
1222 2 1671 1673 1675 1674
1223 2 1669 1671 1673 1672
1224 2 1667 1669 1671 1670
1225 2 1283 1285 1287 1286
1226 2 1285 1287 1289 1288
1227 5 2175 2174 2176 2164
1228 9 1281 1283 1285 1284
1229 4 1283 1284 1293 1294
1230 2 1287 1289 1291 1290
1231 4 1059 1060 1069 1070
1232 5 1071 1070 1072 1060
1233 9 1057 1059 1061 1060
1234 2 1283 1281 1291 1282
1235 2 1281 1291 1289 1292
1236 9 2161 2163 2165 2164
1237 2 2163 2161 2171 2162
1238 2 2161 2171 2169 2172
1239 2 1811 1809 1819 1810
1240 9 1809 1811 1813 1812
1241 4 1811 1812 1821 1822
1242 5 1823 1822 1824 1812
1243 2 1059 1057 1067 1058
1244 2 1809 1819 1817 1820
1245 2 2165 2167 2169 2168
1246 2 2167 2169 2171 2170
1247 2 2707 2709 2711 2710
1248 2 2709 2711 2713 2712
1249 2 2711 2713 2715 2714
1250 9 2705 2707 2709 2708
1251 2 2705 2715 2713 2716
1252 2 2545 2555 2553 2556
1253 2 2551 2553 2555 2554
1254 2 1061 1063 1065 1064
1255 2 1059 1061 1063 1062
1256 4 2707 2708 2717 2718
1257 2 2707 2705 2715 2706
1258 5 2559 2558 2560 2548
1259 2 1063 1065 1067 1066
1260 2 1057 1067 1065 1068
1261 2 2547 2545 2555 2546
1262 4 2547 2548 2557 2558
1263 9 2545 2547 2549 2548
1264 4 835 836 845 846
1265 5 847 846 848 836
1266 9 833 835 837 836
1267 2 835 833 843 834
1268 2 835 837 839 838
1269 2 2547 2549 2551 2550
1270 2 2549 2551 2553 2552
1271 5 3295 3294 3296 3284
1272 4 3283 3284 3293 3294
1273 9 3281 3283 3285 3284
1274 9 2113 2115 2117 2116
1275 4 2115 2116 2125 2126
1276 2 2115 2117 2119 2118
1277 5 2127 2126 2128 2116
1278 5 2607 2606 2608 2596
1279 4 2595 2596 2605 2606
1280 2 833 843 841 844
1281 2 2115 2113 2123 2114
1282 2 2113 2123 2121 2124
1283 2 839 841 843 842
1284 2 837 839 841 840
1285 4 499 500 509 510
1286 5 511 510 512 500
1287 9 497 499 501 500
1288 2 499 497 507 498
1289 2 497 507 505 508
1290 2 2117 2119 2121 2120
1291 2 503 505 507 506
1292 2 2963 2961 2971 2962
1293 2 2961 2971 2969 2972
1294 2 2967 2969 2971 2970
1295 2 501 503 505 504
1296 9 2961 2963 2965 2964
1297 2 1959 1961 1963 1962
1298 2 1171 1173 1175 1174
1299 2 2119 2121 2123 2122
1300 2 499 501 503 502
1301 2 2645 2647 2649 2648
1302 4 1171 1172 1181 1182
1303 2 2643 2645 2647 2646
1304 5 2655 2654 2656 2644
1305 4 2643 2644 2653 2654
1306 2 2647 2649 2651 2650
1307 2 2641 2651 2649 2652
1308 9 2641 2643 2645 2644
1309 2 2643 2641 2651 2642
1310 5 2975 2974 2976 2964
1311 2 2963 2965 2967 2966
1312 4 2963 2964 2973 2974
1313 2 2213 2215 2217 2216
1314 2 1953 1963 1961 1964
1315 2 2211 2209 2219 2210
1316 2 1955 1953 1963 1954
1317 9 2209 2211 2213 2212
1318 9 1953 1955 1957 1956
1319 4 1955 1956 1965 1966
1320 2 2211 2213 2215 2214
1321 5 1967 1966 1968 1956
1322 5 2223 2222 2224 2212
1323 4 2211 2212 2221 2222
1324 5 1279 1278 1280 1268
1325 2 1267 1269 1271 1270
1326 2 1269 1271 1273 1272
1327 2 2215 2217 2219 2218
1328 2 2209 2219 2217 2220
1329 9 1265 1267 1269 1268
1330 2 1265 1275 1273 1276
1331 2 1267 1265 1275 1266
1332 4 1267 1268 1277 1278
1333 2 755 757 759 758
1334 9 753 755 757 756
1335 5 767 766 768 756
1336 2 819 817 827 818
1337 5 1839 1838 1840 1828
1338 9 1825 1827 1829 1828
1339 4 1827 1828 1837 1838
1340 2 2193 2203 2201 2204
1341 2 1827 1825 1835 1826
1342 2 2195 2193 2203 2194
1343 2 2199 2201 2203 2202
1344 2 817 827 825 828
1345 2 1827 1829 1831 1830
1346 2 757 759 761 760
1347 2 759 761 763 762
1348 2 2195 2197 2199 2198
1349 2 2197 2199 2201 2200
1350 9 2193 2195 2197 2196
1351 4 2195 2196 2205 2206
1352 2 753 763 761 764
1353 4 1331 1332 1341 1342
1354 2 1825 1835 1833 1836
1355 2 741 743 745 744
1356 2 743 745 747 746
1357 4 2563 2564 2573 2574
1358 2 737 747 745 748
1359 2 739 737 747 738
1360 2 739 741 743 742
1361 9 737 739 741 740
1362 4 739 740 749 750
1363 5 751 750 752 740
1364 2 1331 1329 1339 1330
1365 2 327 329 331 330
1366 2 1829 1831 1833 1832
1367 2 919 921 923 922
1368 2 1831 1833 1835 1834
1369 2 913 923 921 924
1370 2 323 325 327 326
1371 2 915 913 923 914
1372 9 913 915 917 916
1373 5 927 926 928 916
1374 4 915 916 925 926
1375 2 915 917 919 918
1376 2 325 327 329 328
1377 2 1331 1333 1335 1334
1378 9 1329 1331 1333 1332
1379 2 1333 1335 1337 1336
1380 2 1335 1337 1339 1338
1381 2 1329 1339 1337 1340
1382 2 193 203 201 204
1383 2 199 201 203 202
1384 2 1971 1973 1975 1974
1385 2 1863 1865 1867 1866
1386 2 197 199 201 200
1387 2 195 193 203 194
1388 9 1969 1971 1973 1972
1389 2 1971 1969 1979 1970
1390 4 1971 1972 1981 1982
1391 5 2159 2158 2160 2148
1392 2 1859 1861 1863 1862
1393 2 1861 1863 1865 1864
1394 2 3319 3321 3323 3322
1395 2 3313 3323 3321 3324
1396 2 3315 3313 3323 3314
1397 9 1857 1859 1861 1860
1398 2 3317 3319 3321 3320
1399 2 3315 3317 3319 3318
1400 9 3313 3315 3317 3316
1401 9 369 371 373 372
1402 4 371 372 381 382
1403 2 371 369 379 370
1404 5 383 382 384 372
1405 2 371 373 375 374
1406 2 375 377 379 378
1407 2 373 375 377 376
1408 2 369 379 377 380
1409 5 1327 1326 1328 1316
1410 5 1983 1982 1984 1972
1411 2 1811 1813 1815 1814
1412 2 1859 1857 1867 1858
1413 2 1857 1867 1865 1868
1414 2 1815 1817 1819 1818
1415 2 1813 1815 1817 1816
1416 4 1859 1860 1869 1870
1417 5 367 366 368 356
1418 5 1871 1870 1872 1860
1419 4 2163 2164 2173 2174
1420 4 2499 2500 2509 2510
1421 2 2163 2165 2167 2166
1422 2 531 529 539 530
1423 2 535 537 539 538
1424 2 529 539 537 540
1425 9 529 531 533 532
1426 5 2511 2510 2512 2500
1427 2 2979 2981 2983 2982
1428 2 2981 2983 2985 2984
1429 4 1747 1748 1757 1758
1430 2 1747 1745 1755 1746
1431 2 1751 1753 1755 1754
1432 9 1745 1747 1749 1748
1433 2 1745 1755 1753 1756
1434 2 1749 1751 1753 1752
1435 2 1747 1749 1751 1750
1436 5 2991 2990 2992 2980
1437 5 1759 1758 1760 1748
1438 2 2983 2985 2987 2986
1439 2 2977 2987 2985 2988
1440 2 1639 1641 1643 1642
1441 2 1633 1643 1641 1644
1442 2 1635 1633 1643 1634
1443 5 223 222 224 212
1444 2 2979 2977 2987 2978
1445 2 2917 2919 2921 2920
1446 2 2919 2921 2923 2922
1447 2 209 219 217 220
1448 2 211 209 219 210
1449 5 1647 1646 1648 1636
1450 4 2979 2980 2989 2990
1451 2 1637 1639 1641 1640
1452 9 1633 1635 1637 1636
1453 4 1635 1636 1645 1646
1454 9 2977 2979 2981 2980
1455 2 1635 1637 1639 1638
1456 5 2367 2366 2368 2356
1457 9 2353 2355 2357 2356
1458 4 2355 2356 2365 2366
1459 2 3283 3285 3287 3286
1460 5 3007 3006 3008 2996
1461 9 2913 2915 2917 2916
1462 2 2915 2913 2923 2914
1463 2 2913 2923 2921 2924
1464 4 2227 2228 2237 2238
1465 5 2239 2238 2240 2228
1466 2 1649 1659 1657 1660
1467 2 2227 2225 2235 2226
1468 2 3285 3287 3289 3288
1469 2 2355 2357 2359 2358
1470 2 3287 3289 3291 3290
1471 2 2357 2359 2361 2360
1472 2 2359 2361 2363 2362
1473 2 2915 2917 2919 2918
1474 4 2915 2916 2925 2926
1475 2 3283 3281 3291 3282
1476 2 3281 3291 3289 3292
1477 5 2927 2926 2928 2916
1478 2 1651 1649 1659 1650
1479 5 1663 1662 1664 1652
1480 4 2995 2996 3005 3006
1481 2 1957 1959 1961 1960
1482 9 2993 2995 2997 2996
1483 2 2995 2993 3003 2994
1484 2 2993 3003 3001 3004
1485 2 2995 2997 2999 2998
1486 2 2997 2999 3001 3000
1487 2 2999 3001 3003 3002
1488 9 2305 2307 2309 2308
1489 2 2307 2309 2311 2310
1490 2 2309 2311 2313 2312
1491 4 2307 2308 2317 2318
1492 4 2339 2340 2349 2350
1493 2 453 455 457 456
1494 2 455 457 459 458
1495 2 449 459 457 460
1496 2 451 449 459 450
1497 2 2307 2305 2315 2306
1498 2 2311 2313 2315 2314
1499 2 451 453 455 454
1500 9 449 451 453 452
1501 4 451 452 461 462
1502 5 463 462 464 452
1503 2 2305 2315 2313 2316
1504 2 1955 1957 1959 1958
1505 2 2341 2343 2345 2344
1506 2 2339 2341 2343 2342
1507 2 2343 2345 2347 2346
1508 9 2337 2339 2341 2340
1509 9 257 259 261 260
1510 4 259 260 269 270
1511 2 469 471 473 472
1512 2 471 473 475 474
1513 2 257 267 265 268
1514 2 259 257 267 258
1515 4 755 756 765 766
1516 2 1427 1425 1435 1426
1517 2 1425 1435 1433 1436
1518 9 1425 1427 1429 1428
1519 4 1427 1428 1437 1438
1520 5 1439 1438 1440 1428
1521 5 271 270 272 260
1522 5 2351 2350 2352 2340
1523 2 467 469 471 470
1524 9 465 467 469 468
1525 2 467 465 475 466
1526 2 465 475 473 476
1527 5 2207 2206 2208 2196
1528 4 467 468 477 478
1529 5 479 478 480 468
1530 4 595 596 605 606
1531 2 755 753 763 754
1532 2 433 443 441 444
1533 2 437 439 441 440
1534 2 439 441 443 442
1535 2 435 437 439 438
1536 2 1733 1735 1737 1736
1537 2 1731 1733 1735 1734
1538 5 607 606 608 596
1539 9 593 595 597 596
1540 2 597 599 601 600
1541 2 595 597 599 598
1542 2 599 601 603 602
1543 2 595 593 603 594
1544 2 2145 2155 2153 2156
1545 2 2147 2145 2155 2146
1546 2 1603 1601 1611 1602
1547 2 1601 1611 1609 1612
1548 9 1601 1603 1605 1604
1549 2 593 603 601 604
1550 5 1615 1614 1616 1604
1551 2 775 777 779 778
1552 2 773 775 777 776
1553 2 1731 1729 1739 1730
1554 9 1729 1731 1733 1732
1555 4 1731 1732 1741 1742
1556 2 1735 1737 1739 1738
1557 2 1729 1739 1737 1740
1558 5 1743 1742 1744 1732
1559 4 1603 1604 1613 1614
1560 5 3327 3326 3328 3316
1561 2 769 779 777 780
1562 2 2147 2149 2151 2150
1563 9 2145 2147 2149 2148
1564 2 2151 2153 2155 2154
1565 2 2149 2151 2153 2152
1566 2 1779 1777 1787 1778
1567 2 1777 1787 1785 1788
1568 2 1603 1605 1607 1606
1569 9 193 195 197 196
1570 2 1605 1607 1609 1608
1571 2 195 197 199 198
1572 2 1607 1609 1611 1610
1573 2 3233 3243 3241 3244
1574 4 2147 2148 2157 2158
1575 4 195 196 205 206
1576 4 3315 3316 3325 3326
1577 9 3233 3235 3237 3236
1578 4 3235 3236 3245 3246
1579 5 1791 1790 1792 1780
1580 9 1777 1779 1781 1780
1581 5 207 206 208 196
1582 4 1779 1780 1789 1790
1583 2 3235 3233 3243 3234
1584 2 1781 1783 1785 1784
1585 2 1783 1785 1787 1786
1586 9 2497 2499 2501 2500
1587 2 2499 2497 2507 2498
1588 2 2497 2507 2505 2508
1589 2 2499 2501 2503 2502
1590 2 2501 2503 2505 2504
1591 2 2503 2505 2507 2506
1592 2 1699 1697 1707 1698
1593 4 1699 1700 1709 1710
1594 9 1697 1699 1701 1700
1595 4 355 356 365 366
1596 2 355 353 363 354
1597 9 353 355 357 356
1598 2 353 363 361 364
1599 2 355 357 359 358
1600 2 359 361 363 362
1601 2 357 359 361 360
1602 2 1779 1781 1783 1782
1603 5 1711 1710 1712 1700
1604 2 1399 1401 1403 1402
1605 2 1397 1399 1401 1400
1606 2 1395 1397 1399 1398
1607 2 531 533 535 534
1608 5 543 542 544 532
1609 2 533 535 537 536
1610 4 531 532 541 542
1611 2 1461 1463 1465 1464
1612 2 1463 1465 1467 1466
1613 2 961 971 969 972
1614 2 963 961 971 962
1615 9 961 963 965 964
1616 2 967 969 971 970
1617 2 965 967 969 968
1618 2 1459 1457 1467 1458
1619 2 1459 1461 1463 1462
1620 4 1459 1460 1469 1470
1621 5 1471 1470 1472 1460
1622 9 1457 1459 1461 1460
1623 2 1457 1467 1465 1468
1624 4 211 212 221 222
1625 2 1091 1093 1095 1094
1626 2 215 217 219 218
1627 9 1089 1091 1093 1092
1628 9 209 211 213 212
1629 2 211 213 215 214
1630 2 213 215 217 216
1631 2 1093 1095 1097 1096
1632 2 1095 1097 1099 1098
1633 5 3263 3262 3264 3252
1634 2 1091 1089 1099 1090
1635 2 1089 1099 1097 1100
1636 2 3365 3367 3369 3368
1637 2 3361 3371 3369 3372
1638 2 3367 3369 3371 3370
1639 2 3363 3365 3367 3366
1640 2 3363 3361 3371 3362
1641 4 3363 3364 3373 3374
1642 5 3375 3374 3376 3364
1643 9 3361 3363 3365 3364
1644 2 1655 1657 1659 1658
1645 2 3303 3305 3307 3306
1646 2 3297 3307 3305 3308
1647 2 3299 3301 3303 3302
1648 2 3301 3303 3305 3304
1649 9 2225 2227 2229 2228
1650 2 2227 2229 2231 2230
1651 9 3297 3299 3301 3300
1652 2 1365 1367 1369 1368
1653 4 3299 3300 3309 3310
1654 2 2231 2233 2235 2234
1655 2 2229 2231 2233 2232
1656 2 1367 1369 1371 1370
1657 2 2355 2353 2363 2354
1658 2 1653 1655 1657 1656
1659 2 2353 2363 2361 2364
1660 2 1651 1653 1655 1654
1661 2 1363 1365 1367 1366
1662 9 1361 1363 1365 1364
1663 4 1363 1364 1373 1374
1664 5 1375 1374 1376 1364
1665 5 3311 3310 3312 3300
1666 9 1649 1651 1653 1652
1667 4 1651 1652 1661 1662
1668 2 295 297 299 298
1669 5 2783 2782 2784 2772
1670 4 2771 2772 2781 2782
1671 9 2769 2771 2773 2772
1672 5 2319 2318 2320 2308
1673 2 2225 2235 2233 2236
1674 2 293 295 297 296
1675 2 291 293 295 294
1676 9 289 291 293 292
1677 2 291 289 299 290
1678 2 289 299 297 300
1679 9 721 723 725 724
1680 2 723 721 731 722
1681 2 727 729 731 730
1682 2 721 731 729 732
1683 2 723 725 727 726
1684 2 725 727 729 728
1685 4 723 724 733 734
1686 5 735 734 736 724
1687 2 1505 1515 1513 1516
1688 2 2337 2347 2345 2348
1689 2 259 261 263 262
1690 2 261 263 265 264
1691 2 2339 2337 2347 2338
1692 2 2771 2773 2775 2774
1693 2 263 265 267 266
1694 2 1537 1547 1545 1548
1695 2 1509 1511 1513 1512
1696 2 1511 1513 1515 1514
1697 2 1111 1113 1115 1114
1698 2 1431 1433 1435 1434
1699 2 1429 1431 1433 1432
1700 2 1427 1429 1431 1430
1701 4 291 292 301 302
1702 5 303 302 304 292
1703 2 1539 1537 1547 1538
1704 9 1537 1539 1541 1540
1705 5 1551 1550 1552 1540
1706 4 1539 1540 1549 1550
1707 2 1507 1509 1511 1510
1708 2 1507 1505 1515 1506
1709 9 2785 2787 2789 2788
1710 2 2787 2789 2791 2790
1711 2 2787 2785 2795 2786
1712 2 2789 2791 2793 2792
1713 2 2785 2795 2793 2796
1714 4 1507 1508 1517 1518
1715 2 2791 2793 2795 2794
1716 9 1505 1507 1509 1508
1717 5 2799 2798 2800 2788
1718 4 2787 2788 2797 2798
1719 2 435 433 443 434
1720 9 433 435 437 436
1721 5 1519 1518 1520 1508
1722 5 447 446 448 436
1723 4 435 436 445 446
1724 5 591 590 592 580
1725 4 771 772 781 782
1726 4 579 580 589 590
1727 2 3107 3105 3115 3106
1728 4 3107 3108 3117 3118
1729 5 3119 3118 3120 3108
1730 5 1487 1486 1488 1476
1731 2 3107 3109 3111 3110
1732 9 3105 3107 3109 3108
1733 4 1475 1476 1485 1486
1734 9 1473 1475 1477 1476
1735 9 2737 2739 2741 2740
1736 2 2737 2747 2745 2748
1737 2 771 769 779 770
1738 9 769 771 773 772
1739 4 2739 2740 2749 2750
1740 5 2751 2750 2752 2740
1741 2 2739 2737 2747 2738
1742 2 771 773 775 774
1743 5 783 782 784 772
1744 2 1477 1479 1481 1480
1745 2 1475 1473 1483 1474
1746 2 1475 1477 1479 1478
1747 2 3105 3115 3113 3116
1748 2 3111 3113 3115 3114
1749 2 3239 3241 3243 3242
1750 2 339 341 343 342
1751 5 351 350 352 340
1752 4 339 340 349 350
1753 2 3109 3111 3113 3112
1754 9 337 339 341 340
1755 2 341 343 345 344
1756 2 2519 2521 2523 2522
1757 2 2513 2523 2521 2524
1758 2 3237 3239 3241 3240
1759 2 3235 3237 3239 3238
1760 2 1479 1481 1483 1482
1761 2 1473 1483 1481 1484
1762 5 3247 3246 3248 3236
1763 2 625 635 633 636
1764 2 627 625 635 626
1765 2 631 633 635 634
1766 2 629 631 633 632
1767 2 627 629 631 630
1768 9 625 627 629 628
1769 2 2515 2513 2523 2514
1770 9 2513 2515 2517 2516
1771 4 627 628 637 638
1772 5 1215 1214 1216 1204
1773 2 1697 1707 1705 1708
1774 2 1699 1701 1703 1702
1775 2 1701 1703 1705 1704
1776 2 339 337 347 338
1777 2 337 347 345 348
1778 2 343 345 347 346
1779 2 963 965 967 966
1780 2 1703 1705 1707 1706
1781 5 1407 1406 1408 1396
1782 2 2517 2519 2521 2520
1783 5 639 638 640 628
1784 2 1393 1403 1401 1404
1785 9 1393 1395 1397 1396
1786 4 963 964 973 974
1787 5 975 974 976 964
1788 2 1395 1393 1403 1394
1789 4 2515 2516 2525 2526
1790 5 2527 2526 2528 2516
1791 2 2515 2517 2519 2518
1792 4 1395 1396 1405 1406
