LAMMPS data file via write_data, version 4 Jul 2026, timestep = 10000, units = real

1680 atoms
5 atom types
812 bonds
1 bond types
406 angles
1 angle types

-12.120000000000001 12.120000000000001 xlo xhi
-12.120000000000001 12.120000000000001 ylo yhi
-20.2 20.2 zlo zhi

Atom Type Labels

1 O
2 H
3 Na+
4 Cl-
5 WALL

Bond Type Labels

1 O-H

Angle Type Labels

1 H-O-H

Masses

1 15.9994
2 1.008
3 22.99
4 35.453
5 26.9815

Atoms # full

2 0 5 0 -4.566623620840843 12.025052204867219 -16.495137713770347 0 -1 0
4 0 5 0 -6.582151942852075 12.107611384062515 -14.472335966055553 0 -1 0
25 0 5 0 -6.563295657048336 -10.154487142478366 -16.511661139616184 0 0 0
26 0 5 0 -4.552654106022105 -8.111149656603047 -16.51422051658488 0 0 0
27 0 5 0 -4.540237323907061 -10.147403527751543 -14.48366146385768 0 0 0
28 0 5 0 -6.5632650438173235 -8.110544691940904 -14.467893972994808 0 0 0
157 0 5 0 -6.572359678529297 -10.143610675079746 -12.416384888977209 0 0 0
49 0 5 0 -6.644002053897767 -6.1161996355649935 -16.55607174338471 0 0 0
51 0 5 0 -4.616857070197211 -6.106331886925192 -14.482747913340928 0 0 0
169 0 5 0 -6.588036729669169 -6.098754688598212 -12.461315007018099 0 0 0
22 0 5 0 -8.60633611175816 12.104930907176923 -16.433652301808962 1 -1 0
46 0 5 0 -8.583210377837135 -8.13362362716916 -16.473685863928534 1 0 0
47 0 5 0 -8.603534137909602 -10.09784966493362 -14.47625697338136 1 0 0
71 0 5 0 -8.604320952325477 -6.166060698215154 -14.452613005068821 1 0 0
24 0 5 0 -10.596039348652013 -12.10936601309186 -14.409800790266539 1 0 0
45 0 5 0 -10.610768979244567 -10.112064252908562 -16.475846645318043 1 0 0
48 0 5 0 -10.630471153688568 -8.159243366743361 -14.475398745423265 1 0 0
69 0 5 0 -10.665935073914834 -6.128366594320858 -16.465383894033128 1 0 0
179 0 5 0 -10.619595878718012 -6.157576233771588 -12.447827697766343 1 0 0
146 0 5 0 -4.566402549506262 -12.106050410894557 -12.407781587001711 0 0 0
158 0 5 0 -4.577981857175645 -8.11914694318323 -12.484809868462579 0 0 0
156 0 5 0 -8.565416850407606 12.095059131122683 -12.42169394139099 1 -1 0
168 0 5 0 -8.562611257672987 -8.109946123102242 -12.44970367730867 1 0 0
167 0 5 0 -10.611636196335432 -10.134116609858753 -12.395880709797705 1 0 0
8 0 5 0 -2.5472812361970147 -12.087592495461067 -14.499539090554103 0 0 0
29 0 5 0 -2.5514305188586235 -10.10524700384884 -16.497247128759152 0 0 0
32 0 5 0 -2.565677689582039 -8.111021288679625 -14.483972961628705 0 0 0
159 0 5 0 -2.4856863585060474 -10.069962348391478 -12.450439036792881 0 0 0
53 0 5 0 -2.548152257989539 -6.073405334545207 -16.470321350177798 0 0 0
6 0 5 0 -0.5030584830097918 12.067788182867336 -16.39274781607225 0 -1 0
30 0 5 0 -0.5005934512699731 -8.046713206102064 -16.505367880996086 0 0 0
31 0 5 0 -0.5025903716660786 -10.042687452849442 -14.489412685189354 0 0 0
148 0 5 0 -0.45056011221692993 -12.030519595411263 -12.50906973776189 0 0 0
160 0 5 0 -0.5181023779937931 -8.039016601036227 -12.53039213005376 0 0 0
55 0 5 0 -0.4559894056109054 -6.025812331445586 -14.509995056790249 0 0 0
10 0 5 0 3.5556155293131106 12.100536238209111 -16.508265306279696 0 -1 0
12 0 5 0 1.549740658837537 -12.119561332850097 -14.472073799093604 0 0 0
33 0 5 0 1.5062761609824755 -10.06933607816663 -16.517787312073104 0 0 0
34 0 5 0 3.552252474109274 -8.07441697303363 -16.56040588829646 0 0 0
35 0 5 0 3.526676322591412 -10.062487645381047 -14.558798461873904 0 0 0
36 0 5 0 1.5251704663809862 -8.02432539058983 -14.482556763909342 0 0 0
150 0 5 0 3.486368270078048 -12.055630050705053 -12.475559816128596 0 0 0
161 0 5 0 1.5025510694365931 -9.99821393065625 -12.450774409648655 0 0 0
162 0 5 0 3.53162104077001 -8.021092887106638 -12.510074239924734 0 0 0
57 0 5 0 1.4810899372435995 -6.026025563506932 -16.50922277252179 0 0 0
59 0 5 0 3.561757224990076 -6.059344127698255 -14.558484755268541 0 0 0
171 0 5 0 -2.5846132881337525 -6.122434900333919 -12.490477623913169 0 0 0
173 0 5 0 1.510847561407274 -5.980428124763599 -12.479693170035263 0 0 0
37 0 5 0 5.607827969000098 -10.131955442514984 -16.567715787310345 0 0 0
40 0 5 0 5.586250271933794 -8.090325326642391 -14.587239566938134 0 0 0
61 0 5 0 5.5822665321001415 -6.067184755851101 -16.624637649806683 0 0 0
16 0 5 0 5.542054054505896 -12.065259173450192 -14.504694160068986 0 0 0
163 0 5 0 5.508312183237933 -10.049406661300749 -12.520674661709554 0 0 0
175 0 5 0 5.535731545425932 -6.0094945416138 -12.481901609560365 0 0 0
14 0 5 0 7.6024213688924265 12.088311343579786 -16.4569128456126 0 -1 0
38 0 5 0 7.599432976661853 -8.076496009495445 -16.559054476737213 0 0 0
39 0 5 0 7.601889185294932 -10.10734644273341 -14.485997374461821 0 0 0
152 0 5 0 7.483832081536421 -12.108938353983836 -12.413622677152697 0 0 0
164 0 5 0 7.49063258991944 -8.050630117156425 -12.455502735210509 0 0 0
63 0 5 0 7.514163991788746 -6.076017441619073 -14.511186898758327 0 0 0
20 0 5 0 9.551798705065393 12.112467450687335 -14.420154648892147 0 -1 0
41 0 5 0 9.581319735988604 -10.138680454510968 -16.48528468547014 0 0 0
44 0 5 0 9.551042406906442 -8.116680357775332 -14.476893822518424 0 0 0
18 0 5 0 11.601220788966979 12.058454195486624 -16.460046312636425 0 -1 0
42 0 5 0 11.561015185846468 -8.135313080065588 -16.56258397349055 0 0 0
43 0 5 0 11.612972110610981 -10.11931574979986 -14.500104596515516 0 0 0
65 0 5 0 9.551847276480526 -6.07123338764462 -16.46327325624282 0 0 0
67 0 5 0 11.565327749663645 -6.145595921039064 -14.456053977506643 0 0 0
177 0 5 0 9.52473774780222 -6.0831866874704135 -12.496171924515457 0 0 0
165 0 5 0 9.486937685851967 -10.128162552603124 -12.39572543197626 0 0 0
154 0 5 0 11.579311352664467 -12.067500199701993 -12.418330226680885 0 0 0
166 0 5 0 11.529929057168088 -8.096567838851788 -12.40641344755298 0 0 0
50 0 5 0 -4.574762930785649 -4.093667488515085 -16.465359914896794 0 0 0
52 0 5 0 -6.591754539888745 -4.086559935437927 -14.460839641620918 0 0 0
73 0 5 0 -6.586518438298821 -2.0468781984111066 -16.422860560140787 0 0 0
74 0 5 0 -4.591677561485791 -0.0065743939014058905 -16.46450233975359 0 0 0
75 0 5 0 -4.577181716049911 -2.0596333281558015 -14.425870876475651 0 0 0
76 0 5 0 -6.639594080421163 -0.0746696989145777 -14.352418668089308 0 0 0
97 0 5 0 -6.535612695251604 2.045500567710368 -16.429758647737792 0 0 0
99 0 5 0 -4.622244626414287 1.9914645429629765 -14.326838509858797 0 0 0
70 0 5 0 -8.603355919116696 -4.07840498583155 -16.434683956576556 1 0 0
94 0 5 0 -8.565721421436201 -0.039682359989909134 -16.472130686478437 1 0 0
95 0 5 0 -8.59961626031503 -2.0532987473446656 -14.431155992607092 1 0 0
119 0 5 0 -8.56048382785422 1.9925025159229712 -14.390598014633406 1 0 0
96 0 5 0 -10.53320136072267 0.032848133583286136 -14.50117788780228 1 0 0
117 0 5 0 -10.562891404222489 2.0539965672605587 -16.38767314352835 1 0 0
72 0 5 0 -10.587046053355733 -4.097657537272704 -14.473456915180419 1 0 0
93 0 5 0 -10.581301927930587 -2.0378931552166173 -16.447676359014174 1 0 0
181 0 5 0 -6.6020023943153845 -2.1128418502676443 -12.426249968265322 0 0 0
182 0 5 0 -4.5066539528079925 -0.0297461802957184 -12.373310887617853 0 0 0
193 0 5 0 -6.617210044753161 1.9775107726613592 -12.245741937460654 0 0 0
180 0 5 0 -8.659265759690776 -4.148489117578481 -12.4770999141472 1 0 0
192 0 5 0 -8.594471365701382 -0.025527098160355078 -12.35674997165485 1 0 0
191 0 5 0 -10.63523460846836 -2.041992838650088 -12.495261216532734 1 0 0
203 0 5 0 -10.594972387054325 2.0355999791262405 -12.375779629613755 1 0 0
170 0 5 0 -4.578188321726349 -4.1229463604205945 -12.437077967951954 0 0 0
77 0 5 0 -2.5524941285430245 -2.0138165885667636 -16.541664335564143 0 0 0
101 0 5 0 -2.572433969860662 2.040953608448848 -16.37358791960615 0 0 0
56 0 5 0 -2.5124700988010757 -4.107704982118195 -14.457503002047352 0 0 0
80 0 5 0 -2.5976845305648837 -0.008422466914805441 -14.424629047398781 0 0 0
54 0 5 0 -0.4885412856983389 -3.982939503093587 -16.490070865287954 0 0 0
78 0 5 0 -0.5892297973131437 0.06788946686311943 -16.391709898566035 0 0 0
79 0 5 0 -0.5520430960560528 -2.040244933243699 -14.475488086981077 0 0 0
103 0 5 0 -0.5516656235715317 2.0353803359488536 -14.40411228500431 0 0 0
58 0 5 0 3.5157879829669336 -3.992027193526378 -16.54564484497919 0 0 0
60 0 5 0 1.5434947070093459 -3.968744742376444 -14.502286807383342 0 0 0
81 0 5 0 1.390794963050129 -1.9797832350392583 -16.57614750393709 0 0 0
82 0 5 0 3.5091938571934556 0.027540898954024663 -16.554593760328732 0 0 0
83 0 5 0 3.556892495582561 -2.025638059427897 -14.603182601850737 0 0 0
84 0 5 0 1.4902280087212585 -0.029101647022072553 -14.531756432279597 0 0 0
105 0 5 0 1.5491933441671837 2.0892584883629803 -16.453100364063175 0 0 0
107 0 5 0 3.546730681997484 1.9937731928923481 -14.435266485620087 0 0 0
183 0 5 0 -2.527519586383136 -2.0582018599080447 -12.433594254565023 0 0 0
195 0 5 0 -2.5503453588525677 2.033331585230506 -12.393069441924949 0 0 0
172 0 5 0 -0.5503634248209622 -4.062551038380288 -12.49992126437326 0 0 0
184 0 5 0 -0.5707848257451386 0.004866175793957898 -12.438128451401539 0 0 0
197 0 5 0 1.4771089122922045 1.9362772233012422 -12.402540218961931 0 0 0
174 0 5 0 3.563398746027685 -3.985256393818808 -12.59550393845454 0 0 0
185 0 5 0 1.511039674368406 -2.0407282081423808 -12.447421460594184 0 0 0
186 0 5 0 3.517045376386739 -0.06800824653530825 -12.455827208411764 0 0 0
64 0 5 0 5.600285091133438 -4.03502260717916 -14.6077625888943 0 0 0
88 0 5 0 5.524775338243177 -0.037119065005957005 -14.555462501395382 0 0 0
109 0 5 0 5.535751593408988 2.0740003469624866 -16.456423143066264 0 0 0
85 0 5 0 5.54702084169407 -1.9479096310458326 -16.691113041771228 0 0 0
62 0 5 0 7.576992068171456 -3.9761252840621 -16.596229787487854 0 0 0
86 0 5 0 7.574884145726793 0.07166615186906124 -16.502714815658894 0 0 0
87 0 5 0 7.51141062644641 -2.000161056861602 -14.586831427887958 0 0 0
111 0 5 0 7.549852474531215 2.0433236331582156 -14.427932227626222 0 0 0
68 0 5 0 9.517998320606377 -4.040678239131857 -14.541324063528496 0 0 0
89 0 5 0 9.599263642157807 -1.9580364855623578 -16.48503752330655 0 0 0
92 0 5 0 9.578702918091958 0.04903737071116462 -14.501232697632512 0 0 0
66 0 5 0 11.619084469109486 -4.074730751602859 -16.459653747900138 0 0 0
90 0 5 0 11.598288264375654 0.06045265149571362 -16.422500999220784 0 0 0
91 0 5 0 11.629239361682627 -2.0760806119847355 -14.48892560355705 0 0 0
113 0 5 0 9.626465181940729 2.1575430292075444 -16.467705561051215 0 0 0
115 0 5 0 11.629381567257502 2.0697668731467114 -14.425331550945916 0 0 0
187 0 5 0 5.5868199507494145 -2.0029122269194115 -12.560754484568863 0 0 0
176 0 5 0 7.553480244361671 -4.005535503070654 -12.534543634802287 0 0 0
188 0 5 0 7.611417569124397 -0.047659877933376435 -12.482095758357493 0 0 0
189 0 5 0 9.603459433939026 -2.066027749665058 -12.509251122605322 0 0 0
178 0 5 0 11.591764843521203 -4.113333744682002 -12.537245627332213 0 0 0
190 0 5 0 11.631768193402726 -0.05369478100917133 -12.574938108077335 0 0 0
201 0 5 0 9.630814717831361 2.016018052018266 -12.480135229682649 0 0 0
199 0 5 0 5.52874204914844 1.9388327260039655 -12.49102216257711 0 0 0
1 0 5 0 -6.5592825513050315 10.01967789673856 -16.430686942418067 0 -1 0
3 0 5 0 -4.50084190462705 10.09855315788753 -14.382992873859914 0 -1 0
98 0 5 0 -4.597039129034439 4.084170170350341 -16.32020607562186 0 0 0
100 0 5 0 -6.575061794294768 4.066177355859178 -14.30484554910616 0 0 0
121 0 5 0 -6.517532537721102 6.107318782409811 -16.221537509461758 0 0 0
122 0 5 0 -4.486543247686488 8.069248488292608 -16.429632090712747 0 0 0
123 0 5 0 -4.518364474131257 6.097451761809212 -14.29190585541812 0 0 0
124 0 5 0 -6.5116213823939475 8.162061545991243 -14.248151019373973 0 0 0
23 0 5 0 -8.579331278505958 10.077288023341346 -14.334508882768429 1 -1 0
118 0 5 0 -8.544502343766014 4.051682219564266 -16.340911996585486 1 0 0
142 0 5 0 -8.514324380128581 8.09024180305469 -16.282949335861503 1 0 0
143 0 5 0 -8.592942537028529 6.081232740031004 -14.338023148784647 1 0 0
21 0 5 0 -10.584785498709744 10.117802381677306 -16.338383662436833 1 -1 0
120 0 5 0 -10.547014910541694 4.092039548965713 -14.368565702888544 1 0 0
141 0 5 0 -10.551540072019943 6.124017765232548 -16.34458745754566 1 0 0
144 0 5 0 -10.643732447397584 8.099551945197137 -14.312851009235041 1 0 0
145 0 5 0 -6.554443495272328 10.131981249213865 -12.233735968021637 0 -1 0
194 0 5 0 -4.558497767922528 4.0229681679430005 -12.34082376292113 0 0 0
205 0 5 0 -6.569295577258618 6.098519604883366 -12.286901761800573 0 0 0
206 0 5 0 -4.518477746291276 8.123730444698788 -12.265912782647794 0 0 0
204 0 5 0 -8.625331479954616 4.082103052313281 -12.290382302510762 1 0 0
216 0 5 0 -8.6429998730916 8.124062069189215 -12.29988732268961 1 0 0
215 0 5 0 -10.618085594872168 6.077825050784727 -12.354670596628843 1 0 0
155 0 5 0 -10.658368220353278 10.171228991277193 -12.391422134008 1 -1 0
5 0 5 0 -2.5325939469010583 10.064771236088381 -16.43741343297808 0 -1 0
125 0 5 0 -2.549681795131362 6.050199449222614 -16.332938337615744 0 0 0
128 0 5 0 -2.5422588244137048 8.115771761974067 -14.359623301137706 0 0 0
104 0 5 0 -2.550064864028885 4.074183759374427 -14.326140374383654 0 0 0
7 0 5 0 -0.5744872680413439 10.083456338410038 -14.450510164845157 0 -1 0
102 0 5 0 -0.49489422013303197 4.005346803798139 -16.40904255347468 0 0 0
126 0 5 0 -0.5485673540896913 8.04312024828985 -16.481123006817086 0 0 0
127 0 5 0 -0.4868936084410524 6.09298049580341 -14.42213708223613 0 0 0
9 0 5 0 1.5149113825304743 10.117675791550194 -16.459995670486123 0 -1 0
11 0 5 0 3.5251523780502607 10.108795614527047 -14.498200217870204 0 -1 0
106 0 5 0 3.554327460210297 4.083488786593672 -16.44436432525058 0 0 0
108 0 5 0 1.5040039774765277 4.02286240561305 -14.407111802251258 0 0 0
129 0 5 0 1.4907849538328637 6.06616883320485 -16.467990115159868 0 0 0
130 0 5 0 3.5224422320036606 8.097035943376806 -16.426064635048597 0 0 0
131 0 5 0 3.501137827697032 6.095630694107194 -14.409170503856064 0 0 0
132 0 5 0 1.4913575561088637 8.095082556761865 -14.395759177305887 0 0 0
210 0 5 0 3.5016778511614755 8.144852488001677 -12.379099695874025 0 0 0
147 0 5 0 -2.475493254567648 10.15211625555921 -12.411355136286975 0 -1 0
207 0 5 0 -2.481739104942592 6.1256851504510825 -12.327078812116588 0 0 0
196 0 5 0 -0.4810662676197714 4.040810801082429 -12.369108489055026 0 0 0
208 0 5 0 -0.46191669256346035 8.102984706927922 -12.416234863450496 0 0 0
149 0 5 0 1.482114658427461 10.131139018750927 -12.448725557676871 0 -1 0
198 0 5 0 3.499884028459668 3.980516620908326 -12.39628954755763 0 0 0
209 0 5 0 1.5359191432586758 6.096063351090779 -12.4259496052097 0 0 0
112 0 5 0 5.5333488888018545 4.050912423216702 -14.426612339735188 0 0 0
133 0 5 0 5.515905198029914 6.09661755016375 -16.432706481890524 0 0 0
136 0 5 0 5.543446968423883 8.165088871724361 -14.387337061173094 0 0 0
13 0 5 0 5.520538456962337 10.112641023294756 -16.449610534710988 0 -1 0
151 0 5 0 5.520209778691334 10.155967594852289 -12.39014882325645 0 -1 0
15 0 5 0 7.576133712163547 10.146487366544449 -14.39309434577307 0 -1 0
110 0 5 0 7.534461326042007 4.147048845115055 -16.409479836319306 0 0 0
134 0 5 0 7.557655355351221 8.120431402383117 -16.43080834264293 0 0 0
135 0 5 0 7.555185089258683 6.090303044141054 -14.330500819988545 0 0 0
17 0 5 0 9.592506164765355 10.050045693091471 -16.375516613468818 0 -1 0
19 0 5 0 11.614423121620321 10.106040325536712 -14.355927427742465 0 -1 0
116 0 5 0 9.588338156381937 4.103401500548011 -14.383867791686747 0 0 0
137 0 5 0 9.602310041133428 6.131249743076294 -16.34146481742637 0 0 0
140 0 5 0 9.58910803767049 8.06785605270724 -14.311196925732881 0 0 0
114 0 5 0 11.63613992861858 4.119786482039282 -16.361631556991913 0 0 0
138 0 5 0 11.613685878487631 8.103745222088797 -16.386251872308375 0 0 0
139 0 5 0 11.60129294811335 6.078940056170352 -14.355145926011641 0 0 0
211 0 5 0 5.514344151519149 6.057066652691256 -12.395243022811472 0 0 0
200 0 5 0 7.517940446461378 4.001521710513149 -12.423401891943076 0 0 0
213 0 5 0 9.55524197406067 6.055070270222669 -12.347082109504088 0 0 0
202 0 5 0 11.600201792629564 4.041187077631845 -12.34849818464591 0 0 0
214 0 5 0 11.605909445958032 8.151726731363107 -12.298806209333915 0 0 0
212 0 5 0 7.538067672411061 8.115020043818014 -12.325588030813527 0 0 0
153 0 5 0 9.543421548731747 10.196062854211874 -12.334535638523128 0 -1 0
640 70 1 -1.1128 -5.014539956629196 12.035584011884774 -9.62412343291134 1 -1 0
641 70 2 0.5564 -5.10169807841556 11.11429179662623 -9.868778129320182 1 -1 0
642 70 2 0.5564 -5.914836443698743 -11.883157582575446 -9.574212156549946 1 0 0
2400 0 4 -1 -7.886050855819607 -11.155417059294296 -9.207094906478014 1 0 0
1071 213 2 0.5564 -5.105743984046164 -11.210552469369443 -7.210160228399419 1 0 0
1069 213 1 -1.1128 -5.8862177532471085 -10.687073023035708 -7.028331126268222 1 0 0
647 72 2 0.5564 -6.837878965271672 -9.502341482713362 -9.905692208888727 1 0 0
648 72 2 0.5564 -7.1882606438559336 -8.029549537563986 -9.909114112110148 1 0 0
715 95 1 -1.1128 -4.26340810461275 -6.755885670854124 -9.089828342501235 1 0 0
716 95 2 0.5564 -4.9218466622627135 -7.380886312644228 -9.393249858845312 1 0 0
646 72 1 -1.1128 -6.451197264645417 -8.632046331979238 -9.809279116273915 1 0 0
1434 334 2 0.5564 -6.468537759924038 -10.231419825834717 -5.1360540385612925 1 0 0
1070 213 2 0.5564 -6.285197089444917 -10.544938749250164 -7.886727954092568 1 0 0
703 91 1 -1.1128 -10.428885849655957 -9.085819847790857 -6.880179690747703 1 0 0
704 91 2 0.5564 -9.834375259772926 -9.813667307855582 -7.061913162954037 1 0 0
557 42 2 0.5564 -11.939884497225906 -9.314143251815546 -9.692090090972183 1 0 0
573 47 2 0.5564 -8.858990592665064 -11.67165544778175 -7.477989712833771 1 0 0
705 91 2 0.5564 -10.836333482052558 -9.311792313859755 -6.04402500063606 1 0 0
1143 237 2 0.5564 -7.079382834780947 -8.157618293924665 -7.870524176671921 1 0 0
714 94 2 0.5564 -8.144860238189299 -5.888849963262083 -9.614477306932656 1 0 0
556 42 1 -1.1128 11.898269627039117 -10.167620621877122 -9.854349087643829 0 0 0
712 94 1 -1.1128 -8.530081379766559 -6.691224835576078 -9.966657883610894 1 0 0
713 94 2 0.5564 -8.538522955758978 -6.557468533056046 -10.914428849049791 1 0 0
571 47 1 -1.1128 -9.400173343885251 -11.88286844324993 -6.717238661581799 1 0 0
1141 237 1 -1.1128 -7.154569806212905 -7.320537204028769 -7.412404386283679 1 0 0
1142 237 2 0.5564 -7.291802149199892 -6.677654205171778 -8.10817774568358 1 0 0
600 56 2 0.5564 -8.239446910199511 -4.86661576574648 -5.905222304954746 0 0 0
572 47 2 0.5564 -8.800740746955405 11.924971257456065 -6.108839273671516 1 -1 0
1430 333 2 0.5564 -11.176685093973376 -7.8764809169114125 -7.893943592923607 1 0 0
1429 333 1 -1.1128 -11.347268269919491 -7.25249413443085 -8.59947441719905 1 0 0
1431 333 2 0.5564 -10.47948182144483 -7.022975600170358 -8.931889359088439 1 0 0
558 42 2 0.5564 -11.635396391551518 -10.797013248204475 -9.708784236260138 1 0 0
580 50 1 -1.1128 -4.847546659944468 -4.30915330488453 -6.573661329163377 0 0 0
598 56 1 -1.1128 -8.245727953016997 -3.952797741507129 -6.190053795941458 0 0 0
567 45 2 0.5564 -10.68827150261306 11.304150694398786 -9.965596478030061 1 -1 0
566 45 2 0.5564 -9.773565730559723 -11.822862967637512 -9.500333254977019 1 0 0
565 45 1 -1.1128 -10.694684457309334 -12.080831709226885 -9.535322656992411 1 0 0
1064 211 2 0.5564 -8.419353354983931 -7.010956954089466 -5.927222988887055 1 0 0
1065 211 2 0.5564 -9.594662007442048 -7.151205795851282 -4.983361248823929 1 0 0
934 168 1 -1.1128 -11.499917400604296 -8.762536306591004 -4.408573807579834 1 0 0
935 168 2 0.5564 -11.6474874274015 -7.994340202662621 -3.856913020789153 1 0 0
644 71 2 0.5564 -5.2096413882550054 9.174958892454748 -8.680821515692534 1 -1 0
942 170 2 0.5564 -4.199083549169805 -7.9969900410594725 -8.048697552995867 0 0 0
717 95 2 0.5564 -3.6198624662321985 -6.722698743823767 -9.797627316389008 1 0 0
941 170 2 0.5564 -4.938782655775237 -9.197195903237267 -7.497112239551955 0 0 0
940 170 1 -1.1128 -4.11623947180442 -8.713799266922598 -7.419767317480314 0 0 0
1442 337 2 0.5564 -5.022867775538502 -5.4375042417589805 -3.2162981761699636 0 0 0
1013 194 2 0.5564 -3.2074238669768462 -11.832744457217911 -7.334568512202484 0 0 0
1012 194 1 -1.1128 -3.924283613769127 11.778992817630979 -7.247219360802164 0 -1 0
966 178 2 0.5564 -4.925777451731012 -7.802946409202801 -4.658860459250789 0 0 0
650 73 2 0.5564 -2.749072366532372 -9.663811613854076 -8.472117327539697 0 0 0
649 73 1 -1.1128 -2.259800984784352 -10.06938777017406 -9.187905916470715 0 0 0
651 73 2 0.5564 -2.9143722267385836 -10.223038931578563 -9.869198527410918 0 0 0
964 178 1 -1.1128 -4.447265249029635 -8.629528037552786 -4.5954512458075065 0 0 0
595 55 1 -1.1128 -2.109948083677339 -6.827504987503674 -4.514784922183373 0 0 0
965 178 2 0.5564 -4.142735259549586 -8.79952622717159 -5.486851200493547 0 0 0
596 55 2 0.5564 -2.6971027734273245 -7.5494436576334385 -4.739029645886776 0 0 0
592 54 1 -1.1128 -0.5622550122140058 -6.070137351326041 -9.982212401637357 0 0 0
454 8 1 -1.1128 -0.037420545117842034 -8.74025331082232 -9.421766316678218 0 0 0
455 8 2 0.5564 -0.8717754038585832 -9.183290371102782 -9.26748748328181 0 0 0
456 8 2 0.5564 0.6257696464484271 -9.38402639231925 -9.172835246779302 0 0 0
523 31 1 -1.1128 1.1774597440156005 -9.659934879613209 -6.307724233887383 0 0 0
524 31 2 0.5564 1.1647211207839705 -8.746968407558525 -6.595059715030774 0 0 0
525 31 2 0.5564 1.8618169883160123 -10.06876106610862 -6.837580929021148 0 0 0
593 54 2 0.5564 -0.367841601504308 -7.0072743992450315 -9.996679682533967 0 0 0
451 7 1 -1.1128 -2.1566114059446884 -10.611642149503115 -6.205111081262252 0 0 0
452 7 2 0.5564 -1.4740804525986546 -9.943873977606456 -6.138260635306227 0 0 0
594 54 2 0.5564 0.26406592287535235 -5.649907887575345 -10.220608611140817 0 0 0
673 81 1 -1.1128 3.2469815038340073 -6.347307147640585 -7.984526783244035 0 0 0
675 81 2 0.5564 3.9349211549140897 -6.877400350209464 -8.386984371928946 0 0 0
674 81 2 0.5564 3.5112540118544273 -5.4429113302137715 -8.153227221314753 0 0 0
620 63 2 0.5564 4.1784695058212185 -9.638960067171602 -9.997631526481602 0 0 0
597 55 2 0.5564 -1.7132888146410237 -6.573119688483469 -5.347960362659055 0 0 0
621 63 2 0.5564 3.2537934686917818 -10.570944025381694 -10.751471913796731 0 0 0
653 74 2 0.5564 -1.9623268971562513 -4.876572756915151 -10.055176342249965 0 0 0
478 16 1 -1.1128 1.504587236327993 -6.877673855643528 -6.230289422253598 0 0 0
480 16 2 0.5564 2.2119591280279485 -6.695770582295842 -6.848971994492567 0 0 0
619 63 1 -1.1128 3.7652315763115136 -10.500783075294084 -9.945407188974652 0 0 0
479 16 2 0.5564 0.754957575946447 -6.39101145395374 -6.572994631973616 0 0 0
535 35 1 -1.1128 -1.1058600584047045 -5.675016155675357 -6.994301184340728 0 0 0
536 35 2 0.5564 -0.6977915666484005 -4.818198720797981 -6.869498070039298 0 0 0
537 35 2 0.5564 -1.1592842703230772 -5.779299558559412 -7.944302579801905 0 0 0
1014 194 2 0.5564 -4.252148370012462 11.663460495193382 -8.139065109547767 0 -1 0
652 74 1 -1.1128 -2.6907622265556275 -4.280313138274162 -9.881716699914715 0 0 0
643 71 1 -1.1128 -4.8968550487464215 9.054933961954694 -9.577476682868683 1 -1 0
645 71 2 0.5564 -3.9449949352092073 9.131706589360197 -9.511901329967236 1 -1 0
461 10 2 0.5564 5.402964748743321 10.429522830955882 -9.687723589193324 0 -1 0
1441 337 1 -1.1128 -4.915085423364982 -5.7606699185793335 -4.110825248213545 0 0 0
1443 337 2 0.5564 -3.969687694445702 -5.743985043725845 -4.25974238252049 0 0 0
936 168 2 0.5564 -11.40249806654085 -9.486803666155836 -3.790368260723935 1 0 0
998 189 2 0.5564 -10.724974747431855 -12.0620252924434 -3.3254988221378445 1 0 0
532 34 1 -1.1128 7.108604247230029 -6.9411329507377815 -6.905627848233687 0 0 0
533 34 2 0.5564 6.675263165552588 -6.091565272912903 -6.987372003386784 0 0 0
534 34 2 0.5564 6.432454468412637 -7.5230136569676995 -6.558542608551791 0 0 0
2399 0 4 -1 5.318852686990588 -7.987821613862664 -9.520188830246976 0 0 0
542 37 2 0.5564 7.12978157734799 -10.65535308130663 -10.830567022362544 0 0 0
491 20 2 0.5564 10.604124948037956 -7.051018422669605 -4.848962423124786 0 0 0
541 37 1 -1.1128 7.419417688718038 -10.824503860966686 -9.934056691972389 0 0 0
543 37 2 0.5564 7.021935788317645 -11.665438876596633 -9.708073774665644 0 0 0
555 41 2 0.5564 9.460768528041356 11.832041499712222 -9.867934695591696 0 -1 0
553 41 1 -1.1128 10.31226687140753 11.41373260465321 -9.740655203360364 0 -1 0
2386 0 3 1 7.533640789355679 -8.736482901849197 -8.824601302671196 0 0 0
554 41 2 0.5564 10.9484449374568 12.082173061591433 -9.995010575669468 0 -1 0
916 162 1 -1.1128 9.24765549050433 -9.813991563769884 -7.902567100681388 0 0 0
918 162 2 0.5564 9.897240028545095 -9.231396579764352 -7.509051033685496 0 0 0
989 186 2 0.5564 11.3862429930785 -8.618197624136734 -5.961683829384215 0 0 0
990 186 2 0.5564 10.994732550672618 -7.548872462323695 -6.959260104751186 0 0 0
988 186 1 -1.1128 10.62454042187853 -8.195862026981757 -6.358765199391527 0 0 0
917 162 2 0.5564 9.763259045897218 -10.520472881372548 -8.291500085590156 0 0 0
616 62 1 -1.1128 9.25714215387984 -7.5746026228743055 -9.910537689847645 0 0 0
617 62 2 0.5564 9.76978778684674 -6.766271608299627 -9.915748074112495 0 0 0
618 62 2 0.5564 9.887344485074891 -8.259897173897333 -10.132907286297478 0 0 0
626 65 2 0.5564 8.662698863894288 -6.076625296219943 -7.104203459105474 0 0 0
625 65 1 -1.1128 9.436189384279889 -5.529010210109903 -6.9698085862499255 0 0 0
627 65 2 0.5564 9.490414113144356 -4.99209469369276 -7.760386383464032 0 0 0
685 85 1 -1.1128 6.140576101897679 -4.925635740006055 -9.73120762852118 0 0 0
687 85 2 0.5564 6.194705659901579 -5.870491407987116 -9.874558797735446 0 0 0
686 85 2 0.5564 5.638666533389429 -4.598036729663843 -10.477530245429207 0 0 0
769 113 1 -1.1128 9.477358841871155 -4.533651602988337 -9.5820610156269 0 0 0
770 113 2 0.5564 9.96870271221783 -3.739116319607282 -9.790691612441428 0 0 0
771 113 2 0.5564 8.559803915588295 -4.284283829881064 -9.692244962924146 0 0 0
463 11 1 -1.1128 4.969413964818792 -8.97836077983172 -6.38580930777363 0 0 0
464 11 2 0.5564 4.12182442615065 -8.636424759811637 -6.1013738339838275 0 0 0
919 163 1 -1.1128 8.16335058956318 -10.435953021139229 -5.333314120417909 0 0 0
920 163 2 0.5564 8.570790723599996 -10.332466350385006 -6.193264630480362 0 0 0
465 11 2 0.5564 4.867251655676132 -9.120615479003053 -7.326850368859062 0 0 0
832 134 1 -1.1128 3.1907249877966017 -11.25142427266327 -7.411547052346 0 1 0
833 134 2 0.5564 3.1978978213163525 -11.22031395804984 -8.368214441055006 0 1 0
921 163 2 0.5564 8.874793800919072 -10.28511437712129 -4.710957310335214 0 0 0
487 19 1 -1.1128 11.770923224942665 -11.718200375346084 -6.8858557585274776 0 0 0
1506 358 2 0.5564 11.45672293582225 -6.30354260765605 -3.487576006456851 0 0 0
581 50 2 0.5564 -5.222001857643026 -3.468074581549782 -6.311741996977305 0 0 0
2387 0 3 1 -4.547423886554198 -4.368973487545731 -8.745811264940883 1 0 0
2398 0 4 -1 -6.987321137724066 -4.43502658935127 -9.081279181017822 0 0 0
599 56 2 0.5564 -7.912783927516527 -3.978735479923376 -7.087108482118554 0 0 0
660 76 2 0.5564 -10.026887877018728 0.49681452133027676 -10.488398759130819 0 0 0
739 103 1 -1.1128 -4.490682226419612 1.4185346511298924 -9.260861027665378 0 0 0
1093 221 1 -1.1128 -7.182563034292287 -0.22458064646686962 -8.47577386185825 0 0 0
1094 221 2 0.5564 -7.873272661599843 0.3794570718054718 -8.748336580112115 0 0 0
658 76 1 -1.1128 -10.160011052148349 0.1544033380979552 -9.604507061160662 0 0 0
659 76 2 0.5564 -9.740983992600189 -0.7061433901828121 -9.614873560748183 0 0 0
724 98 1 -1.1128 -9.517374478149986 -2.4149197627021173 -9.35362951805069 0 0 0
726 98 2 0.5564 -8.862470001620403 -3.110432737364513 -9.293682368320908 0 0 0
741 103 2 0.5564 -4.861936618697575 1.8816573158643304 -10.011806695369486 0 0 0
2384 0 3 1 -9.400921935732976 -2.3216455854232265 -4.865785919152066 1 0 0
1101 223 2 0.5564 -6.203656208045989 -1.421312870391956 -5.390163686129505 0 0 0
1100 223 2 0.5564 -4.757645019360442 -1.7810699099202856 -5.12272827243476 0 0 0
747 105 2 0.5564 -4.690959157492891 -1.5855424479179405 -9.480164640877415 0 0 0
1099 223 1 -1.1128 -5.403204928517334 -1.71347013931002 -5.826229885845793 0 0 0
1144 238 1 -1.1128 -10.988940548441251 -3.9796412402124823 -5.146738877277312 1 0 0
1146 238 2 0.5564 -10.235675173790835 -4.491374464124537 -5.44161542594915 1 0 0
1102 224 1 -1.1128 -5.5132855231156315 1.7246825250878715 -6.133972629659071 0 0 0
2390 0 3 1 -4.874687588525933 0.05283254149892855 -7.511525681792362 0 0 0
745 105 1 -1.1128 -4.283657047957837 -1.9304201364995766 -8.685560230958506 0 0 0
725 98 2 0.5564 -10.237997599830182 -2.805775666150194 -9.847760837780486 0 0 0
1095 221 2 0.5564 -7.589597712069344 -1.0898449360841038 -8.519043729769361 0 0 0
1103 224 2 0.5564 -5.2641425094118075 2.5300428286694037 -6.587353694008722 0 0 0
1153 241 1 -1.1128 -9.896268410359015 -1.1405193918507481 -6.872614503632161 0 0 0
1154 241 2 0.5564 -10.116125078441433 -1.6441221466313587 -7.6563741261759635 0 0 0
1145 238 2 0.5564 -11.493245865703539 -3.814076934333176 -5.9432917264343565 1 0 0
1155 241 2 0.5564 -9.97659494959717 -0.22625126583546698 -7.144447682808972 0 0 0
727 99 1 -1.1128 -8.856992790176047 1.941525620559469 -6.6881733767282805 0 0 0
729 99 2 0.5564 -8.931329131319863 2.708483282329443 -6.120298504343369 0 0 0
728 99 2 0.5564 -7.981472116721387 1.596799539754371 -6.512505186296719 0 0 0
799 123 1 -1.1128 -6.563100483720871 4.088829122454352 -9.870053935702462 0 0 0
786 118 2 0.5564 -8.61458023669523 2.8123757572066106 -8.615085515181057 1 0 0
785 118 2 0.5564 -9.966169455454096 2.708825731231811 -9.289162036394886 1 0 0
1104 224 2 0.5564 -5.3115114850652425 1.894982759197081 -5.213909097398666 0 0 0
859 143 1 -1.1128 11.293115573814566 3.9812121467333976 -7.256068075420688 0 0 0
784 118 1 -1.1128 -9.075274367705315 3.0314378760812364 -9.425026589742762 1 0 0
861 143 2 0.5564 11.969881862854827 3.631622325049413 -7.835728464834177 0 0 0
800 123 2 0.5564 -7.316029797836559 3.8756084438674527 -10.421294500156943 0 0 0
742 104 1 -1.1128 -7.622405278007263 -1.3747797934246626 -4.177885428172642 0 0 0
1648 406 1 -1.1128 -11.978636792861485 1.8367319461338847 -5.3221367111784295 1 0 0
1650 406 2 0.5564 11.92511059214189 1.166472878596301 -5.917047421752318 0 0 0
869 146 2 0.5564 -7.505390063028506 2.0943843857279436 -2.848750669662157 0 -1 0
1031 200 2 0.5564 0.8486226071802452 -0.08262785255411455 -2.728267750106271 0 0 0
582 50 2 0.5564 -5.119583086870582 -4.917393157484052 -5.886440624426018 0 0 0
733 101 1 -1.1128 1.82589104023922 -4.94869195711685 -9.755131645312346 0 0 0
606 58 2 0.5564 4.774468924230535 -3.1104757454186918 -7.2289986999056985 0 0 0
608 59 2 0.5564 -1.3939414833280794 -3.207717685087613 -5.267610916371916 0 0 0
735 101 2 0.5564 2.3217433473178812 -5.651092701799685 -9.334423297742132 0 0 0
734 101 2 0.5564 2.494144560867056 -4.365153944010562 -10.114509528296752 0 0 0
740 103 2 0.5564 -3.5608890933790796 1.328945901064533 -9.469883625694191 0 0 0
654 74 2 0.5564 -2.277420523085061 -3.4256687947873155 -9.759391412296916 0 0 0
609 59 2 0.5564 -2.499368104563376 -2.638266720969542 -6.131122722676708 0 0 0
607 59 1 -1.1128 -2.252243914769121 -2.78685441492738 -5.218388810698979 0 0 0
669 79 2 0.5564 1.5311823527329815 -3.0775775001225667 -5.430092145910922 0 0 0
746 105 2 0.5564 -3.3430303298178745 -1.8511859233444252 -8.844227094142694 0 0 0
1097 222 2 0.5564 -1.859406626231896 -0.7248474276845869 -7.096325826964453 0 0 0
2406 0 4 -1 -1.106678388151895 -1.6513522821707878 -9.088664453398772 0 0 0
604 58 1 -1.1128 4.388499817813084 -3.7156690392429 -7.862244909698088 0 0 0
676 82 1 -1.1128 0.4134711094911401 -3.456287068331208 -7.408148522405667 0 0 0
677 82 2 0.5564 1.2563681049600206 -3.63518168908615 -7.8249855801943555 0 0 0
678 82 2 0.5564 -0.024016078435861146 -2.847277194753785 -8.003080243750722 0 0 0
690 86 2 0.5564 2.487102018507196 -2.138258683050967 -9.868403932916499 0 0 0
1197 255 2 0.5564 0.4560202651769132 2.070123927165415 -4.8659590021394825 0 0 0
1195 255 1 -1.1128 0.6916869030288354 1.1427287153379961 -4.8408356952140945 0 0 0
1196 255 2 0.5564 1.082834494465951 0.971219554197349 -5.69746864215375 0 0 0
752 107 2 0.5564 0.684576651278422 -0.6416422868776471 -9.502454917894944 0 0 0
751 107 1 -1.1128 1.5377170196069758 -0.22480071016761027 -9.381515043482079 0 0 0
737 102 2 0.5564 -1.221560086507771 0.5609167053893541 -9.669084188400301 0 0 0
753 107 2 0.5564 1.4113235307731458 0.673553866401279 -9.686827256117041 0 0 0
1096 222 1 -1.1128 -2.604092188873742 -0.21251489285649713 -6.781380412673558 0 0 0
1098 222 2 0.5564 -2.3770547880608883 0.01099199097930402 -5.87875617604727 0 0 0
736 102 1 -1.1128 -1.7088553975053558 1.3557669684325653 -9.885851616195344 0 0 0
1177 249 1 -1.1128 -1.9949704452241477 0.6051707159855808 -4.352346898046821 0 0 0
1178 249 2 0.5564 -1.0698829341223866 0.6166353963309439 -4.597934946954687 0 0 0
738 102 2 0.5564 -1.4288279164659154 1.574025456449883 -10.774772097020985 0 0 0
748 106 1 -1.1128 3.42567207029727 2.3080825123694257 -4.38416607128297 0 0 0
459 9 2 0.5564 1.0220863367241784 3.0492148806384645 -8.0262758037027 0 -1 0
458 9 2 0.5564 1.6092178473858292 3.666694515798169 -9.277631333886664 0 -1 0
457 9 1 -1.1128 0.7916129353637009 3.328629255648839 -8.912301434801892 0 -1 0
977 182 2 0.5564 6.961994809676155 -2.506954753110691 -6.044666465983752 0 0 0
749 106 2 0.5564 2.615023305492287 2.468091396949962 -4.8673611555849545 0 0 0
750 106 2 0.5564 4.119869262223087 2.5886560053471555 -4.980488629728258 0 0 0
1276 282 1 -1.1128 3.354650698555806 4.115405755955675 -9.710478581979107 0 0 0
806 125 2 0.5564 -1.8052147087286174 3.8299464088495405 -9.315125894963701 0 0 0
1238 269 2 0.5564 -1.7857135881230537 4.590621695281421 -7.701242997169083 0 0 0
668 79 2 0.5564 1.6907507820838303 -2.5416281624476667 -4.023254771375689 0 0 0
667 79 1 -1.1128 2.0759197201419317 -3.1570719877131572 -4.647038088076527 0 0 0
605 58 2 0.5564 5.136392364939945 -4.1835464333762165 -8.233700564425767 0 0 0
1373 314 2 0.5564 11.278369363383936 -2.391108081280889 -6.767802886509181 -1 0 0
2389 0 3 1 10.365157259169422 3.2999496636204726 -5.087884625918162 0 0 0
688 86 1 -1.1128 3.248289410452269 -2.6636497984550287 -10.114959748226566 0 0 0
689 86 2 0.5564 3.5644149517827466 -3.03036905308611 -9.28923976787118 0 0 0
1060 210 1 -1.1128 8.142539188169481 -4.2479711428629265 -3.983886869335532 0 0 0
1216 262 1 -1.1128 11.555285280833834 -2.571255868642484 -9.70678113071488 0 0 0
1217 262 2 0.5564 11.610114059349698 -2.6975623785308747 -8.759536550463535 0 0 0
976 182 1 -1.1128 6.592226468837243 -3.3898484002339297 -6.046063638814682 0 0 0
978 182 2 0.5564 5.96659909695429 -3.38915827130764 -5.321617843018902 0 0 0
1061 210 2 0.5564 7.587136884399656 -4.044747660319505 -4.736522455099063 0 0 0
1062 210 2 0.5564 7.666944163631384 -4.931868543547147 -3.5123727659499315 0 0 0
793 121 1 -1.1128 10.363033218799947 0.4444980465408961 -9.742318352486608 -1 0 0
692 87 2 0.5564 4.387743275351653 -1.438777258535314 -9.851904660598391 0 0 0
693 87 2 0.5564 4.929387530483334 -0.02528946972096454 -9.828052880822671 0 0 0
691 87 1 -1.1128 5.045124536766272 -0.8871146073590678 -9.427935293806295 0 0 0
768 112 2 0.5564 2.205287954553462 0.4205942529309466 -7.861208937508159 0 0 0
766 112 1 -1.1128 2.33109825663925 1.0367142741480164 -7.139544420244742 0 0 0
767 112 2 0.5564 3.1269883195514248 1.5162574985957298 -7.369390188960675 0 0 0
700 90 1 -1.1128 -11.815227399678818 2.3511790589332504 -9.124926855706507 1 0 0
701 90 2 0.5564 -11.373749595235916 1.502007180271471 -9.140297405583327 1 0 0
702 90 2 0.5564 11.764939049716219 2.291158552419856 -9.815758944965506 0 0 0
1133 234 2 0.5564 7.120573254727089 1.9213178082943234 -10.90823882116922 0 0 0
1134 234 2 0.5564 7.198748869574252 1.6710146025143795 -9.417221696994408 0 0 0
2397 0 4 -1 6.086999066137698 2.3305797490011364 -7.834952419096935 0 0 0
1132 234 1 -1.1128 7.724951591033439 1.6519283128379183 -10.216582880196508 0 0 0
1218 262 2 0.5564 11.346303435096264 -1.6432584150506593 -9.813454138636024 0 0 0
790 120 1 -1.1128 6.857232852502832 -0.417329888796186 -6.32887047720045 0 0 0
791 120 2 0.5564 6.385570250522422 -0.6336515688739137 -7.133215638813963 0 0 0
792 120 2 0.5564 6.706034440033026 0.5199217338542443 -6.2066809648721355 0 0 0
794 121 2 0.5564 10.154719956190355 0.3006981121171364 -8.8191937972934 -1 0 0
795 121 2 0.5564 9.558668048546625 0.8037388208603699 -10.116717292975004 -1 0 0
827 132 2 0.5564 7.8011962776373345 3.5031614076511572 -6.805026178858146 0 0 0
1277 282 2 0.5564 4.014128485534226 3.728951277256276 -9.134306931590928 0 0 0
1223 264 2 0.5564 9.500163543842737 -0.4796617711259841 -6.453146593113891 0 0 0
1374 314 2 0.5564 10.948706222550012 -3.839129774056151 -7.061827517713035 -1 0 0
1372 314 1 -1.1128 11.661357558914116 -3.201475564002672 -7.103743936705652 -1 0 0
1224 264 2 0.5564 10.582202088546401 -0.6552686505049301 -5.408996219927844 0 0 0
826 132 1 -1.1128 8.416351605419445 3.7796700146261024 -6.125792293985729 0 0 0
818 129 2 0.5564 5.353959346903009 3.6835173482582144 -6.523935497284718 0 0 0
1152 240 2 0.5564 4.641946500949182 6.770627692497013 -2.7671023710875793 0 0 0
1150 240 1 -1.1128 4.190752461514953 5.9282646267012735 -2.711602460465542 0 0 0
1201 257 1 -1.1128 10.45390259988122 -3.01433928496227 -3.230872073301873 0 0 0
816 128 2 0.5564 3.9912890158020464 0.5793534251106212 -3.7412882090471626 0 0 0
1202 257 2 0.5564 10.631498635963672 -2.1203545360056526 -3.523246059020429 0 0 0
1233 267 2 0.5564 9.266293121657911 -0.6858431721085223 -3.6110799781305714 -1 0 0
1222 264 1 -1.1128 10.358066504369184 -0.880060880514549 -6.31202642244504 0 0 0
570 46 2 0.5564 -6.987798353792019 9.59553811866395 -6.89786527208155 1 -1 0
860 143 2 0.5564 11.580082924900482 4.873743195898193 -7.063014006437534 0 0 0
801 123 2 0.5564 -6.517447265706121 5.044815608447124 -9.885462841265843 0 0 0
1156 242 1 -1.1128 -7.425511775392226 4.095414265399237 -3.2740596179186614 0 0 0
569 46 2 0.5564 -6.3337775582003735 8.242819306581751 -6.712652776836484 1 -1 0
1077 215 2 0.5564 -6.167718290067128 10.46320831144773 -4.560821462371232 1 -1 0
568 46 1 -1.1128 -6.208128733279316 9.093007716119585 -7.134107223531181 1 -1 0
1075 215 1 -1.1128 -6.976780684766627 10.947625710058452 -4.725106392079972 1 -1 0
514 28 1 -1.1128 -11.446452599854748 6.580585107380325 -6.929946994175597 0 -1 0
516 28 2 0.5564 11.917245819411567 6.933822538471298 -7.083409318182993 -1 -1 0
1076 215 2 0.5564 -7.6711760246482 10.368760979985717 -4.410523061538822 1 -1 0
515 28 2 0.5564 -11.04200927091249 6.556836053816777 -7.797180184498774 0 -1 0
512 27 2 0.5564 -4.207501954693506 8.993969295675775 -5.912535273914638 0 -1 0
433 1 1 -1.1128 -9.292139914224544 4.313578950978231 -5.098000661067322 0 -1 0
435 1 2 0.5564 -9.243133426502402 5.249455956824794 -5.292845305162372 0 -1 0
811 127 1 -1.1128 -7.179364751802984 6.093846252108902 -7.280477674752233 0 0 0
812 127 2 0.5564 -7.079112713047605 6.636089444795005 -8.06288010297218 0 0 0
813 127 2 0.5564 -6.520894001216635 5.406154146657029 -7.379106681976921 0 0 0
434 1 2 0.5564 -8.534088350926961 4.14493420423804 -4.538403804742 0 -1 0
497 22 2 0.5564 -10.943010551538217 8.34119106141323 -6.092343970619994 1 -1 0
496 22 1 -1.1128 -10.981343515646413 9.198087145134751 -5.667501023124324 1 -1 0
498 22 2 0.5564 -10.157420499074252 9.263661923406286 -5.1847146689478985 1 -1 0
856 142 1 -1.1128 -9.5015536696978 5.707474320103384 -8.960100527456072 1 0 0
858 142 2 0.5564 -9.447651578910005 4.771630618034299 -8.766392056163072 1 0 0
857 142 2 0.5564 -8.903411349821711 6.116803741822358 -8.334874947263126 1 0 0
2379 0 3 1 -11.008571018511885 10.696213680767784 -7.338704189155492 1 0 0
1383 317 2 0.5564 -6.792217538190526 6.599071798982255 -5.3764325649819495 0 -1 0
1157 242 2 0.5564 -6.794626664169286 4.785825855353603 -3.47789202070936 0 0 0
1382 317 2 0.5564 -7.196026762587131 7.216533849048032 -4.054474303283671 0 -1 0
1381 317 1 -1.1128 -6.499126975047508 6.710362252151971 -4.472030076316509 0 -1 0
1390 320 1 -1.1128 -4.095247877835181 -11.82247036160399 -4.536336043071993 0 0 0
2403 0 4 -1 -8.777776880551297 8.974987246662488 -3.778920778251092 0 -1 0
987 185 2 0.5564 -9.553675158419754 10.66074408449883 -2.0919615026117557 1 -1 0
985 185 1 -1.1128 -10.0646445691373 11.258424126402666 -1.546140404733477 1 -1 0
1391 320 2 0.5564 -4.57462626932618 11.993562537017674 -5.248150634947073 0 -1 0
1242 270 2 0.5564 -1.2180930396926504 10.414414408193041 -5.441180080280861 0 0 0
1170 246 2 0.5564 -4.597862478877734 5.1147848417921455 -6.961164681446815 0 0 0
583 51 1 -1.1128 -9.359980840475044 9.69235066117121 -8.655333724593854 0 -1 0
585 51 2 0.5564 -8.545859658090276 10.179232348299326 -8.527331051536923 0 -1 0
584 51 2 0.5564 -9.076787439293602 8.805142554187738 -8.876455835575973 0 -1 0
436 2 1 -1.1128 -7.270461580291757 7.5618861981762375 -9.68811637489473 0 -1 0
1169 246 2 0.5564 -4.6974569390950025 4.300680136545144 -8.233646378458896 0 0 0
1168 246 1 -1.1128 -4.995848250744238 4.323662707209886 -7.324434484207136 0 0 0
1240 270 1 -1.1128 -0.8852272577156949 10.528612631820458 -6.331343526687897 0 0 0
508 26 1 -1.1128 1.0853783366657987 11.835965257922435 -9.112404948968516 0 -1 0
509 26 2 0.5564 1.3569713659689828 10.95199782883832 -9.359529552216944 0 -1 0
944 171 2 0.5564 1.1804958802205738 10.690159060910466 -6.5143233308464605 0 -1 0
460 10 1 -1.1128 6.194893798457649 10.948086625815963 -9.54569615816302 0 -1 0
437 2 2 0.5564 -7.363168747594682 7.435700030724772 -10.632422608187877 0 -1 0
438 2 2 0.5564 -6.438223793482691 8.024112928727746 -9.58832383760351 0 -1 0
949 173 1 -1.1128 -2.0266127762312705 8.678135804731365 -8.59011885734236 0 -1 0
951 173 2 0.5564 -1.6253985113143743 9.465890234757634 -8.223101540402444 0 -1 0
510 26 2 0.5564 1.4531600922414354 11.96439920403517 -8.238063410173899 0 -1 0
805 125 1 -1.1128 -2.41565236629313 4.548197976374135 -9.481596074021631 0 0 0
807 125 2 0.5564 -1.8981347846854377 5.197468167126968 -9.957889672583395 0 0 0
447 5 2 0.5564 1.0408034768280532 6.027656113724202 -8.872912816617541 0 -1 0
482 17 2 0.5564 3.3213515059693086 5.27284492763927 -6.2866389410170935 0 -1 0
446 5 2 0.5564 0.92413819918362 6.367775676192638 -10.343491974035794 0 -1 0
448 6 1 -1.1128 5.77569137923542 7.711165700522981 -7.23897921321527 0 -1 0
450 6 2 0.5564 5.390384011474319 8.400576020464637 -6.698161809112967 0 -1 0
483 17 2 0.5564 3.041300671033379 6.639027861715902 -5.697562784595239 0 -1 0
954 174 2 0.5564 2.185196792570206 8.236696877982409 -9.196134265412567 0 -1 0
445 5 1 -1.1128 1.3457380197570807 6.6510529021133005 -9.532172430353864 0 -1 0
953 174 2 0.5564 2.1970046958425815 9.407227958989 -8.236127975993659 0 -1 0
952 174 1 -1.1128 2.4051666663203286 9.166517688523422 -9.138878664222123 0 -1 0
471 13 2 0.5564 3.889413121314407 7.340268271523856 -9.20239189130851 0 -1 0
950 173 2 0.5564 -1.3131514266041626 8.238753626198585 -9.052880105915804 0 -1 0
829 133 1 -1.1128 0.8110984571711096 3.7750130741992263 -5.510603374214129 0 0 0
1239 269 2 0.5564 -1.8324616441724013 3.2434655061414928 -7.012127616801509 0 0 0
469 13 1 -1.1128 4.3207116713446 6.8466733251842005 -9.899942908390159 0 -1 0
1237 269 1 -1.1128 -1.4718387725365865 4.12589530914305 -6.925521515214317 0 0 0
481 17 1 -1.1128 2.6117319260157057 5.823594004664788 -5.955961894049173 0 -1 0
945 171 2 0.5564 2.438601683373898 10.600440470759647 -5.677056657239097 0 -1 0
943 171 1 -1.1128 2.116644444021841 10.499268413281534 -6.57279074926697 0 -1 0
462 10 2 0.5564 6.903844889181675 10.305067994902105 -9.533564845186955 0 -1 0
1278 282 2 0.5564 3.70408964828816 4.979128736139924 -9.929811363244466 0 0 0
830 133 2 0.5564 1.3183994587772536 4.5853848208105585 -5.463964543892612 0 0 0
453 7 2 0.5564 -2.6535075591143213 -10.529252261933458 -5.391146749170476 0 0 0
901 157 1 -1.1128 2.7572929646225974 10.172161495898417 -3.609296563098206 0 -1 0
449 6 2 0.5564 6.418015111163638 7.289280265632017 -6.6683087833563315 0 -1 0
1241 270 2 0.5564 -1.2546444752526493 11.362967996843159 -6.620504151831892 0 0 0
831 133 2 0.5564 -0.024237557174736534 4.036757527031433 -5.89781836421981 0 0 0
494 21 2 0.5564 11.65245784367046 9.700427615394533 -9.504376797533665 0 -1 0
834 134 2 0.5564 3.4053115919771666 12.080192542603262 -7.199357487994936 0 0 0
470 13 2 0.5564 5.164421100721094 6.591300378996361 -9.526886755096184 0 -1 0
915 161 2 0.5564 8.694390699405892 8.37104007564386 -9.943827332929876 0 -1 0
773 114 2 0.5564 -11.344877028226332 5.907018153183667 -9.607507636977331 1 0 0
484 18 1 -1.1128 8.786266812517365 6.488561088236608 -9.664412854800926 0 -1 0
485 18 2 0.5564 7.971382117855557 6.261824684495267 -9.21632215727927 0 -1 0
486 18 2 0.5564 9.246540839741463 5.654961057077273 -9.761832681887276 0 -1 0
913 161 1 -1.1128 8.35909497191896 9.244607815382142 -9.742114625543591 0 -1 0
914 161 2 0.5564 9.109813082950776 9.824872741554666 -9.868395150354205 0 -1 0
828 132 2 0.5564 8.202828145752306 4.699420518362777 -5.968634427424622 0 0 0
774 114 2 0.5564 11.56128329038858 5.26975931668737 -9.934108293432269 0 0 0
817 129 1 -1.1128 5.128608178045712 4.453538577476247 -6.00190496629045 0 0 0
819 129 2 0.5564 5.675086226978116 4.381273756033035 -5.219363348419078 0 0 0
772 114 1 -1.1128 11.957677385034774 6.094793586678901 -9.654069073347447 0 0 0
852 140 2 0.5564 9.193625305208446 11.868005059328391 -5.198124252129889 0 0 0
780 116 2 0.5564 9.447835524037634 7.380989143106486 -6.9503177827803855 0 0 0
489 19 2 0.5564 -12.002414550604925 -11.18970233297598 -6.238439399601982 1 0 0
488 19 2 0.5564 11.256406752076753 11.904458538328315 -6.365860948484943 0 -1 0
778 116 1 -1.1128 10.203160810404949 7.536307463927909 -7.517408403581171 0 0 0
493 21 1 -1.1128 12.004145269782246 9.313044932817329 -8.702826781709602 0 -1 0
850 140 1 -1.1128 9.894284515263276 11.253741125960676 -5.417186650127084 0 0 0
495 21 2 0.5564 11.267658579615837 8.831830177611687 -8.325664309593513 0 -1 0
779 116 2 0.5564 9.930292534950492 7.21060405145921 -8.375133323248452 0 0 0
847 139 1 -1.1128 9.878714159050432 3.9636349594652347 -9.902317194951776 0 0 0
848 139 2 0.5564 9.964599808758283 3.9394301649849495 -8.949285391484477 0 0 0
849 139 2 0.5564 9.168710733669322 3.351238164995776 -10.094923114448706 0 0 0
851 140 2 0.5564 9.465044475894006 10.576699253281928 -5.94025367894751 0 0 0
862 144 1 -1.1128 6.457846509299087 5.225712463103484 -8.880475051103053 0 0 0
863 144 2 0.5564 6.671471642124433 4.301529966794573 -8.75208950453932 0 0 0
864 144 2 0.5564 5.992708024395678 5.477581388072133 -8.082703177903463 0 0 0
1291 287 1 -1.1128 11.008143065526719 5.4520251303643565 -4.400039371651196 0 0 0
1292 287 2 0.5564 10.274429321049805 6.014567034179016 -4.647915401234857 0 0 0
1293 287 2 0.5564 11.605807888532526 6.031427010435933 -3.9274697481439604 0 0 0
2392 0 4 -1 8.1089594562427 6.727281564696787 -5.315328681326866 0 0 0
1721 430 2 0.5564 9.922980970926856 11.059674160974849 -3.5325714839574847 0 0 0
1194 254 2 0.5564 7.972079795432672 9.013615432360226 -6.1748508504107535 0 0 0
1192 254 1 -1.1128 7.981357010948244 9.71634355677644 -6.824711495386072 0 0 0
1193 254 2 0.5564 8.060558681788624 9.265018329979192 -7.665106827766516 0 0 0
839 136 2 0.5564 5.609974726226245 11.3775781284634 -7.069265874109844 0 0 0
1151 240 2 0.5564 3.7716699924592643 5.823752698813478 -3.5658149278938915 0 0 0
1719 429 2 0.5564 6.148688068613963 8.835415770425358 -3.3527284831173327 0 0 0
1717 429 1 -1.1128 5.373929518301828 8.45950406986706 -2.9347913884769055 0 0 0
840 136 2 0.5564 5.774152710535163 10.687961706569643 -5.7315925428523276 0 0 0
838 136 1 -1.1128 5.125806666028568 11.126318894256954 -6.2827025206276055 0 0 0
1595 388 2 0.5564 8.27639055244903 5.538474478579295 -2.9194899071854845 -1 0 0
1433 334 2 0.5564 -6.949302943343144 -11.540819280089197 -4.547638280350538 1 0 0
970 180 1 -1.1128 -4.008964367849792 -8.897612401181693 -1.2701891398347331 0 0 0
972 180 2 0.5564 -4.230804147448891 -9.300720151107633 -0.43083041434580815 0 0 0
1432 334 1 -1.1128 -6.782042321570635 -10.62572264585669 -4.322130190121 1 0 0
960 176 2 0.5564 -7.971263842628645 -8.987858289359975 -1.9104990654600444 0 0 0
2381 0 3 1 -4.704115549157382 -10.317047519400097 -2.8744405999424094 0 0 0
958 176 1 -1.1128 -7.064152731485564 -8.846869612412137 -2.1816142748620164 0 0 0
959 176 2 0.5564 -6.98557567887422 -9.31810919266708 -3.0110663544198917 0 0 0
1402 324 1 -1.1128 -5.659328565672428 -8.27362783291321 2.588563999642824 0 0 0
1403 324 2 0.5564 -6.2510203984005015 -9.02563040250912 2.6135585850540237 0 0 0
1404 324 2 0.5564 -6.040998843563766 -7.647403660719025 3.203708583923937 0 0 0
1063 211 1 -1.1128 -8.85257277068022 -6.582628652568593 -5.1889225094160905 1 0 0
1455 341 2 0.5564 -3.7392360821946786 -8.937300734254434 2.8932390731285995 0 0 0
1453 341 1 -1.1128 -3.3287123349895182 -9.789677608649663 2.7477890542501515 0 0 0
1454 341 2 0.5564 -2.4918250656897496 -9.584947293158853 2.330731546009032 0 0 0
1532 367 2 0.5564 -10.461552731263238 -9.031024830287402 0.25321290764119236 0 0 0
1531 367 1 -1.1128 -9.933784901113627 -8.322829808313376 -0.11577588678831353 0 0 0
1533 367 2 0.5564 -9.178893999287611 -8.256349607816976 0.46899068036618313 0 0 0
1313 294 2 0.5564 -8.034583806816359 -11.17867989290661 1.5793629502929722 0 0 0
922 164 1 -1.1128 -11.515394196571272 -11.058468286590557 2.1576137471868413 1 0 0
923 164 2 0.5564 12.041133687959476 -11.534887020571572 2.6289129122646524 0 0 0
1873 481 1 -1.1128 -7.949014641458297 -12.118819921533182 0.1386824759469465 0 0 0
1875 481 2 0.5564 -7.21944738257109 -12.069650436404475 -0.4790114325591908 0 0 0
1456 342 1 -1.1128 -6.829998609895122 -7.627580334222364 0.21435639716649554 0 0 0
1458 342 2 0.5564 -6.478565925722765 -7.918022507125676 -0.6272909477757757 0 0 0
1535 368 2 0.5564 -8.708465329818926 -4.524443891795339 0.9125028556541055 0 0 0
1908 492 2 0.5564 -3.1751007475887096 -6.244850330454432 1.6210595256540412 0 0 0
1906 492 1 -1.1128 -3.1890895851516787 -6.057252435057046 2.5595919497530497 0 0 0
1907 492 2 0.5564 -4.000676474037002 -6.457067312813056 2.872172516582351 0 0 0
1899 489 2 0.5564 -5.9055741549918075 -5.176967690628923 4.26357868289543 0 0 0
1464 344 2 0.5564 -10.965255615195321 -4.734236101566666 -1.35796243014855 0 0 0
1534 368 1 -1.1128 -9.56035230075154 -4.431909971183858 1.3390680994805253 0 0 0
1514 361 2 0.5564 -8.306930387726194 -6.311403245686451 -3.1563382260271844 0 0 0
1457 342 2 0.5564 -6.170898697924216 -7.895160889346967 0.8548404280441609 0 0 0
1953 507 2 0.5564 -6.854136246854035 -5.964863253593782 0.8359988628266235 0 0 0
1462 344 1 -1.1128 -11.543610716530948 -3.999848589965788 -1.1520202384772706 0 0 0
1513 361 1 -1.1128 -8.260247303940561 -5.8374398854766065 -2.3260303077903006 0 0 0
1515 361 2 0.5564 -7.713142046952442 -6.387995083686204 -1.7658547759571452 0 0 0
1951 507 1 -1.1128 -6.879268713906543 -5.015323525198921 0.9542121352866506 0 0 0
1042 204 1 -1.1128 -5.4575615979205665 -11.812043832267753 -1.4511360480726905 0 0 0
1874 481 2 0.5564 -8.00726246564722 11.193668870383375 0.36794630950609003 0 -1 0
1312 294 1 -1.1128 -7.804377116473063 -10.524273129623662 2.238899549327333 0 0 0
971 180 2 0.5564 -3.535392665102248 -8.099579316517575 -1.0354448949763837 0 0 0
1817 462 2 0.5564 -11.100724105603035 -7.4409675315003705 0.5168095686140122 0 0 0
1816 462 1 -1.1128 -11.988267470653518 -7.10673929434762 0.6463862231494094 0 0 0
1876 482 1 -1.1128 -11.785148558084723 -4.861279407321373 3.3028152880745036 0 0 0
2391 0 3 1 -11.800788972804572 -4.839126986493746 1.0541007691473345 0 0 0
1878 482 2 0.5564 -11.162395639213331 -5.271727439724322 3.902767837614122 0 0 0
1163 244 2 0.5564 -7.799499004010172 -4.128260124985598 -2.057375923705417 0 0 0
1952 507 2 0.5564 -6.0879902198570415 -4.814686252506775 1.454066982224304 0 0 0
538 36 1 -1.1128 0.8125603311158122 -8.334177856776138 -3.8812699517043505 0 0 0
539 36 2 0.5564 -0.10616242176673454 -8.547073906384247 -3.717393114929393 0 0 0
540 36 2 0.5564 1.0175874665465485 -8.774739082634925 -4.7059526285360755 0 0 0
1686 418 2 0.5564 -3.4286419432084325 -10.71776989206481 4.248828951891555 0 1 0
890 153 2 0.5564 1.256375344280739 -4.846975339900335 -3.493742198944624 0 0 0
891 153 2 0.5564 0.8897639342765755 -6.302045527633126 -3.2930886265534793 0 0 0
527 32 2 0.5564 -1.8522371563254725 -6.848140108312555 -0.05574616730335573 0 0 0
526 32 1 -1.1128 -2.769746875687119 -6.789965485406541 -0.32224843421397087 0 0 0
1026 198 2 0.5564 -0.9043695162977007 -10.200871690556838 0.2661946757003463 0 0 0
1024 198 1 -1.1128 -1.1764417973704506 -11.000387769223776 -0.1843410694868176 0 0 0
1025 198 2 0.5564 -1.8261143035288157 -11.394602022398146 0.39768319229669635 0 0 0
1469 346 2 0.5564 -1.8524322806171694 -6.11114217497961 3.898550372013462 0 0 0
1470 346 2 0.5564 -0.3842062079536827 -6.07469874609001 4.265809394396252 0 0 0
528 32 2 0.5564 -2.8432100962033267 -5.934061629586713 -0.7444611503615733 0 0 0
881 150 2 0.5564 4.457935844701547 11.922473922574625 0.693283125481856 0 -1 0
880 150 1 -1.1128 4.554918813757644 -11.78739019746025 1.4843470517144042 0 0 0
982 184 1 -1.1128 -0.745374620932785 -4.736023557541982 -0.23028098058042465 0 0 0
983 184 2 0.5564 -0.08874024852881353 -4.59763988705607 0.45229724442653146 0 0 0
963 177 2 0.5564 0.984127618539297 -8.505705780865867 -2.0508949253158644 0 0 0
962 177 2 0.5564 1.7970994072378816 -7.965314025756661 -0.893765371287882 0 0 0
961 177 1 -1.1128 1.0682167317223663 -8.551024333692702 -1.0984732356224407 0 0 0
889 153 1 -1.1128 0.7806138558465575 -5.433569568429796 -2.905703090426535 0 0 0
984 184 2 0.5564 -0.3134570758041685 -5.3056483771719805 -0.8668393957411559 0 0 0
1418 329 2 0.5564 2.2927367125408122 -10.624850753673948 2.491770884738478 0 0 0
1035 201 2 0.5564 1.7052389099869139 -10.291661555904884 -0.8055837938292146 0 0 0
1033 201 1 -1.1128 1.4439731803400202 -11.21056154750651 -0.8655410543538677 0 0 0
1034 201 2 0.5564 0.489869296279428 -11.194180645449624 -0.7903792748167945 0 0 0
1922 497 2 0.5564 2.3409908471821184 -7.230794027607933 2.1698147363978117 0 0 0
1923 497 2 0.5564 1.8472071272137365 -6.1505304329085995 1.2311436688143278 0 0 0
1481 350 2 0.5564 -1.2194822581764575 -3.1439159548865385 -1.0125842320858491 0 0 0
882 150 2 0.5564 3.8337213105832024 -12.064989287652972 2.0491874434484787 0 0 0
955 175 1 -1.1128 -2.0128658029046465 -10.121002267264041 -2.9521325181449636 0 0 0
1417 329 1 -1.1128 2.3300889048714355 -11.346262824529044 3.119784600470033 0 0 0
1830 466 2 0.5564 3.2961615535778144 -3.44847980229351 1.798560379533312 0 0 0
1828 466 1 -1.1128 3.49581267269393 -4.26379636622172 2.258593138060499 0 0 0
1332 300 2 0.5564 -0.16795506996731063 -8.022434515732396 1.7935975420637016 0 0 0
1331 300 2 0.5564 0.11661719858714552 -8.537255553609572 0.39865202745550093 0 0 0
1330 300 1 -1.1128 -0.5626347312869431 -8.513028035408858 1.0726413880018588 0 0 0
908 159 2 0.5564 3.3907027002779238 -10.16570808545778 -3.1229987517971356 0 0 0
909 159 2 0.5564 3.545655464183775 -9.454077094820443 -4.450201109795524 0 0 0
907 159 1 -1.1128 3.837411456288079 -10.227342559539112 -3.967323515722533 0 0 0
635 68 2 0.5564 4.493084610039769 -4.857179471425295 0.9790984442361362 0 0 0
1482 350 2 0.5564 -0.7334249506725166 -2.0571780788695406 -1.9478083888037963 0 0 0
1480 350 1 -1.1128 -1.4294448454801392 -2.263450675683706 -1.3239175634232974 0 0 0
1053 207 2 0.5564 1.5928205155768516 -5.059494394621148 -1.1861004856429296 0 0 0
1051 207 1 -1.1128 2.057242037346651 -4.948357938337783 -0.35652638217198535 0 0 0
1052 207 2 0.5564 2.849533341532115 -5.476866570933585 -0.45236451734892225 0 0 0
1829 466 2 0.5564 4.298505026277195 -4.074772554103732 2.7445836659190483 0 0 0
1684 418 1 -1.1128 -3.6521440707261985 -11.233793296870457 5.023424661413425 0 1 0
1685 418 2 0.5564 -3.642341616757419 -10.602824460780496 5.743156626861839 0 1 0
1921 497 1 -1.1128 1.5573488119114343 -6.735727795602503 1.9309708175008158 0 0 0
1058 209 2 0.5564 2.6817663976462165 -7.280428234164475 -4.625085337229784 0 0 0
490 20 1 -1.1128 9.992828282430294 -6.755114178820529 -4.174433808357168 0 0 0
492 20 2 0.5564 9.466859234324378 -6.081763194329517 -4.605927514922788 0 0 0
1424 331 2 0.5564 9.590171579710617 -8.117974144648997 -3.289546016593621 0 0 0
997 189 1 -1.1128 -11.12292129594849 -11.638514617946752 -4.086096622207962 1 0 0
999 189 2 0.5564 -12.026156489926317 -11.955317174432878 -4.091941586593649 1 0 0
924 164 2 0.5564 -10.87444016518014 -10.829876822843689 2.8307821608517076 1 0 0
1057 209 1 -1.1128 3.479499777438517 -7.59914965068285 -4.202865105061863 0 0 0
899 156 2 0.5564 4.3035232855790655 -8.875886870440638 0.7749542690315895 0 0 0
900 156 2 0.5564 4.056678411183834 -10.196720374002876 1.4723505953166955 0 0 0
898 156 1 -1.1128 3.7419197825122197 -9.29385309330517 1.4277464079926967 0 0 0
2395 0 4 -1 4.056330417028583 -7.116929406355286 -1.301242311753104 0 0 0
1499 356 2 0.5564 5.626528309485786 -6.3971846265964025 -2.608759617643562 0 0 0
1423 331 1 -1.1128 9.222976509093737 -8.932173848519035 -2.945338980358097 0 0 0
1059 209 2 0.5564 3.342865575026943 -7.427579370027017 -3.271132002287853 0 0 0
1118 229 2 0.5564 8.356107046899242 -6.078043684286079 3.0017641892060465 0 0 0
1117 229 1 -1.1128 9.304849033038602 -5.952983501385335 3.0236814034581494 0 0 0
2380 0 3 1 5.851794014061721 -10.69782366927597 -4.752288999731958 0 1 0
1336 302 1 -1.1128 6.445668853253372 -10.78895677737587 -0.37490628462511466 0 0 0
1337 302 2 0.5564 7.30045630230333 -10.500157789284987 -0.05527307041606287 0 0 0
1338 302 2 0.5564 5.957518026179612 -11.015616707632375 0.4166528580784101 0 0 0
1119 229 2 0.5564 9.491536668225768 -5.39950966821959 2.2653633674963243 0 0 0
1425 331 2 0.5564 8.275754627534985 -8.82233810175014 -3.0286356916162727 0 0 0
1504 358 1 -1.1128 -11.850539747984561 -6.119948141650824 -3.3756564371992397 1 0 0
975 181 2 0.5564 9.730624148367111 -3.826152216577403 0.6757045622608723 0 0 0
974 181 2 0.5564 9.880786409593755 -5.253498039752079 0.1940092557221746 0 0 0
973 181 1 -1.1128 10.17301705630661 -4.650614666509483 0.8776500487087419 0 0 0
1818 462 2 0.5564 11.881391158521346 -7.667228058108756 1.3282449856833132 -1 0 0
1495 355 1 -1.1128 10.753635677522619 -11.265814028686052 -0.47248663918723477 0 0 0
1497 355 2 0.5564 10.808640950514686 -11.59726825686145 -1.3687813923750158 0 0 0
1420 330 1 -1.1128 6.264298310606742 -9.323574820370922 -2.919035924179485 0 0 0
1421 330 2 0.5564 5.767367151962967 -8.56368849655438 -2.615945142525873 0 0 0
1422 330 2 0.5564 6.300686613737092 -9.90501622071601 -2.1595402921033906 0 0 0
1496 355 2 0.5564 11.362565119665838 -11.81299421152125 0.02352802792736961 0 0 0
1501 357 1 -1.1128 9.897609990527247 -7.050640756687738 -0.8561269683999498 0 0 0
1502 357 2 0.5564 9.752531089339536 -7.564539853527558 -1.6505396931592402 0 0 0
1503 357 2 0.5564 10.735438620954644 -7.365172430362912 -0.5165024095764693 0 0 0
1877 482 2 0.5564 11.596834305725377 -5.152848521601571 3.611077931532491 -1 0 0
636 68 2 0.5564 5.012940776640763 -5.846844512304107 -0.041787363751403676 0 0 0
1938 502 2 0.5564 12.11437339172822 -2.5420064723532176 4.534140035697782 0 0 0
694 88 1 -1.1128 6.060711566824881 -3.438271743463373 -1.691119441451515 0 0 0
695 88 2 0.5564 5.373906254053456 -3.6883404886223965 -2.30917754795841 0 0 0
1505 358 2 0.5564 -11.688370612647194 -5.355583934284566 -3.9285401320787576 1 0 0
634 68 1 -1.1128 5.298630084797294 -5.158648527990228 0.5590451968386771 0 0 0
696 88 2 0.5564 5.756495875372219 -3.7710362167240805 -0.8467543229097989 0 0 0
1378 316 1 -1.1128 8.86668230370687 -9.480684924275625 0.35703054560545916 -1 0 0
1380 316 2 0.5564 9.519541699838689 -10.134786911758694 0.10771734814543873 -1 0 0
1379 316 2 0.5564 9.262539570134948 -8.642888994695578 0.11697462242217818 -1 0 0
1834 468 1 -1.1128 11.120137018783375 -8.499594935717855 2.966642976657815 -1 0 0
1498 356 1 -1.1128 6.229940561522359 -6.322298634002978 -3.3480278740433325 0 0 0
1835 468 2 0.5564 10.209591549546168 -8.293402627730213 3.1778857334291044 -1 0 0
1884 484 2 0.5564 5.814796740603897 -6.859013198815823 2.7401443646250416 -1 0 0
1882 484 1 -1.1128 6.316157971557783 -6.239001088588293 3.269723185792372 -1 0 0
1883 484 2 0.5564 6.209036222752735 -5.39965286495766 2.8222286837294197 -1 0 0
1319 296 2 0.5564 7.854280018853169 -10.616008767808003 1.7550699171953994 -1 0 0
1536 368 2 0.5564 -9.404801815431544 -3.8152849611358355 2.054476707589808 0 0 0
1463 344 2 0.5564 11.91697398445569 -4.150916373846098 -1.6867371339094623 -1 0 0
744 104 2 0.5564 -7.617573400687954 -0.44196071872932974 -3.963276481951613 0 0 0
1971 513 2 0.5564 -4.986099121659886 -2.8164975042018208 1.633765004188845 0 0 0
1087 219 1 -1.1128 -10.79974403188841 -0.860599817959318 -3.6774566028092415 0 0 0
1089 219 2 0.5564 -10.808774877157626 -1.1305454985269452 -2.759154024940627 0 0 0
1649 406 2 0.5564 -11.200689669679994 2.1795933256183746 -5.761995896370771 1 0 0
743 104 2 0.5564 -7.375404303129601 -1.8100398205004107 -3.3619375430799594 0 0 0
948 172 2 0.5564 11.11887152805378 -0.8093162329143632 0.13184301562523523 -1 0 0
1088 219 2 0.5564 -11.459945588709282 -0.16958466561103508 -3.7309698789598986 0 0 0
1537 369 1 -1.1128 -4.977713846883929 -4.522136147306884 -1.4141524145151636 0 0 0
1539 369 2 0.5564 -5.815723302698789 -4.140716514267511 -1.6758604687859484 0 0 0
1538 369 2 0.5564 -4.9455809113105955 -4.402546641513055 -0.46499616180942194 0 0 0
1600 390 1 -1.1128 -8.2727689997133 -2.0044358707017413 -0.026811108604558025 0 0 0
1602 390 2 0.5564 -9.075420139244274 -1.68215413280502 -0.4368324163930729 0 0 0
1162 244 1 -1.1128 -7.211886379215083 -3.3767984055731097 -2.136423744637357 0 0 0
1164 244 2 0.5564 -7.307943974907654 -2.90874537898636 -1.3070075970859398 0 0 0
1540 370 1 -1.1128 -5.9669560423726615 -0.5722553350404781 -0.9579180278684628 0 0 0
1541 370 2 0.5564 -6.056160933145789 0.09782715794813888 -1.6356080181771615 0 0 0
1542 370 2 0.5564 -5.966532882074929 -0.08297517032579362 -0.13521727808585338 0 0 0
1528 366 1 -1.1128 -9.678668248766732 2.112326911273016 -0.576239466784439 0 0 0
1529 366 2 0.5564 -8.863437241430544 2.6045251303931054 -0.47943512683310635 0 0 0
1530 366 2 0.5564 -10.252574606845684 2.462133921646619 0.10530171665563993 0 0 0
1601 390 2 0.5564 -7.585160546695274 -1.427286032384167 -0.35896240058243334 0 0 0
2393 0 4 -1 -6.793199723341183 3.616802233499951 -0.3308956744606542 0 0 0
1577 382 2 0.5564 -10.887026088589183 -0.5761963736778056 -0.11019933600440629 1 0 0
1576 382 1 -1.1128 -10.680889600719468 -1.1743905757472346 -0.8284634070626029 1 0 0
1578 382 2 0.5564 -10.994371577585715 -2.0273815601434126 -0.5278519232802358 1 0 0
1188 252 2 0.5564 -3.980636296623813 2.708393678531513 -2.9875092689958183 0 0 0
2377 0 3 1 -5.689748125494221 3.3031848843343763 2.0112074546991705 0 0 0
2156 575 2 0.5564 12.08012176030919 -0.049876671105132525 2.667578070782551 0 0 0
2155 575 1 -1.1128 -11.647043868814825 0.16074733184508946 1.887276660192083 1 0 0
868 146 1 -1.1128 -7.893114269974434 1.220601771558245 -2.7997036992603688 0 -1 0
870 146 2 0.5564 -8.658668632954933 1.3290768181167796 -2.235441810480038 0 -1 0
1186 252 1 -1.1128 -4.8139702950223775 2.241638442242866 -2.924854578060022 0 0 0
1236 268 2 0.5564 11.19965590044832 2.6451120095302088 0.348334483845691 -1 0 0
1479 349 2 0.5564 -6.499452236536523 -3.007369479284213 3.2940339172241764 0 0 0
946 172 1 -1.1128 10.553863599063837 -0.5196021142572516 -0.5844415342411586 -1 0 0
1963 511 1 -1.1128 -9.523295925167297 -1.1474149261010378 2.943237827832357 0 0 0
500 23 2 0.5564 -9.764955167780721 3.866536213835365 -3.024777867862338 1 -1 0
1187 252 2 0.5564 -5.399784010975367 2.8549476405712686 -2.4811137813609907 0 0 0
1558 376 1 -1.1128 -5.411005428873657 0.5469612892945439 1.4873038745248917 0 0 0
1559 376 2 0.5564 -5.822559960646707 -0.07490473008108608 2.087418312276521 0 0 0
1969 513 1 -1.1128 -4.215804002684848 -3.0289021100182887 1.106734153474049 0 0 0
1970 513 2 0.5564 -3.540269599751561 -3.250681148026067 1.7475923044313588 0 0 0
2157 575 2 0.5564 -11.43600394168218 1.0895455984966642 1.9822912198570628 1 0 0
1158 242 2 0.5564 -7.437039244268577 4.055556515519111 -2.3177592841666503 0 0 0
2405 0 4 -1 -6.942830901601817 4.1137194570287745 4.092645720054711 0 0 0
1477 349 1 -1.1128 -6.50823376258216 -2.4824049821866807 2.4936796022484793 0 0 0
1478 349 2 0.5564 -7.426544085992856 -2.4715989434225043 2.223825624075396 0 0 0
1032 200 2 0.5564 1.700980582579298 -0.9501088116712018 -1.8266814603394668 0 0 0
1030 200 1 -1.1128 1.012193110422526 -0.9951125687992359 -2.4898392878505575 0 0 0
1179 249 2 0.5564 -2.1200710967605514 1.410675496060848 -3.8506062007471407 0 0 0
1324 298 1 -1.1128 2.3739411707282185 -0.9898530788848721 2.5875571285199346 0 0 0
1325 298 2 0.5564 1.4490336465527356 -1.2357990570272472 2.5705718863043447 0 0 0
1326 298 2 0.5564 2.5519980972777527 -0.7888985480693754 3.5063306900812683 0 0 0
1126 232 1 -1.1128 4.749550175630128 -2.857491292204674 -4.07656328326732 0 0 0
1128 232 2 0.5564 4.576337282628226 -1.9171499113556298 -4.03198489583712 0 0 0
1127 232 2 0.5564 3.926236691438595 -3.2389921990717254 -4.381266109539235 0 0 0
2385 0 3 1 -3.851204046102365 -1.843758749527287 -0.9740419272393519 0 0 0
1210 260 1 -1.1128 2.1581232078025216 1.7823431796428004 -1.2983879927589999 0 0 0
1211 260 2 0.5564 2.880044097572697 1.9118726472768128 -1.913436097803224 0 0 0
1048 206 1 -1.1128 2.661171275966933 -0.7331334864505715 -0.15751988343479514 0 0 0
1050 206 2 0.5564 2.300125957007438 -0.7293328286640947 0.7289696448412848 0 0 0
1049 206 2 0.5564 3.568434719812202 -1.0171258047455034 -0.04592597783799502 0 0 0
1183 251 1 -1.1128 -3.7338337023365598 -1.4788845147067553 -3.2896510511578616 0 0 0
1184 251 2 0.5564 -3.2700761539210745 -2.2954381311657657 -3.475126068582434 0 0 0
1185 251 2 0.5564 -3.213222683400869 -0.8032193725715323 -3.724015642023327 0 0 0
1110 226 2 0.5564 -1.5606832090743294 0.9018201093444796 0.09973844267017551 0 0 0
1109 226 2 0.5564 -1.6558008370686885 -0.08050731521453386 -1.0482513159004514 0 0 0
1108 226 1 -1.1128 -2.157601662919809 0.5856059813090346 -0.578441980434827 0 0 0
1549 373 1 -1.1128 -2.153429058367439 2.769737945381225 -2.8070449071595713 0 0 0
1550 373 2 0.5564 -2.5055375006361755 3.5509843621298924 -2.3805410834152845 0 0 0
1551 373 2 0.5564 -1.8707144817765207 2.208814833625096 -2.0847779310762937 0 0 0
1622 397 2 0.5564 -2.23096577872579 2.9101800729758853 1.7216273715833155 0 0 0
1621 397 1 -1.1128 -1.5404332469553295 2.247327516642378 1.71680977746576 0 0 0
1623 397 2 0.5564 -0.7850933941196292 2.6904617874550754 1.3303834167579178 0 0 0
1426 332 1 -1.1128 -2.269878721093652 -2.7990201329696816 2.9687257614099547 0 0 0
1427 332 2 0.5564 -2.3426713578957172 -1.8593213056746385 3.1357561929596174 0 0 0
1635 401 2 0.5564 -2.3454175509786404 0.9454841766423447 2.986267533012172 0 0 0
1995 521 2 0.5564 2.3322516057120954 3.387095536213156 3.9637369130642877 0 0 0
823 131 1 -1.1128 1.6117738180444747 4.360419427849285 -1.8128911565001882 0 0 0
1212 260 2 0.5564 2.4808062816540355 1.1219359707223062 -0.6852242393166047 0 0 0
824 131 2 0.5564 1.5798635777240615 3.451087240441227 -1.5156900875258645 0 0 0
1581 383 2 0.5564 3.7569809457333676 3.4985186429017205 1.6059123748898223 0 0 0
1993 521 1 -1.1128 1.5039718607587507 2.917413689289472 4.061631669985004 0 0 0
814 128 1 -1.1128 4.739997081425412 0.000189347428868376 -3.59903142685332 0 0 0
1493 354 2 0.5564 5.676649516205665 -1.898339846821588 -0.5923945164351265 0 0 0
1560 376 2 0.5564 -4.482879944071029 0.5272548562747618 1.720598927698104 0 0 0
1925 498 2 0.5564 1.8204911313720722 0.7111499273692733 4.030552022575572 0 0 0
1924 498 1 -1.1128 1.8239176981400274 0.2780410053288018 4.88415409990931 0 0 0
1926 498 2 0.5564 2.5634734988949823 0.6695324392038693 5.348937376750727 0 0 0
2080 550 1 -1.1128 9.732102573559716 2.6348391036192265 -2.9110715277585046 0 0 0
995 188 2 0.5564 5.506568172351941 -2.4130703970045717 3.5275564410096822 0 0 0
996 188 2 0.5564 5.743577319332762 -2.605925889590453 2.04481285292552 0 0 0
994 188 1 -1.1128 5.878555886860997 -3.026594719595367 2.893959688750255 0 0 0
1078 216 1 -1.1128 12.055110813877537 -2.635217893160723 1.4449225459422896 0 0 0
1203 257 2 0.5564 9.59017127824822 -3.217196513002022 -3.5901057072278584 0 0 0
1447 339 1 -1.1128 8.672746952208302 -2.7088408434885443 -0.9253603486408724 -1 0 0
1448 339 2 0.5564 9.079240328122822 -3.1382683879241213 -1.678080060551295 -1 0 0
1543 371 1 -1.1128 9.932442260349358 1.3939382280313226 3.6746542521169965 -1 0 0
1232 267 2 0.5564 10.31051788673862 0.04871780150279474 -2.7975014432324206 -1 0 0
1544 371 2 0.5564 9.316651315328919 1.623769585687208 4.370506882623333 -1 0 0
1235 268 2 0.5564 10.192672886181581 1.5909597809787417 -0.059885410863453635 -1 0 0
1234 268 1 -1.1128 10.447533186964757 2.4986522516929983 -0.2253316253709782 -1 0 0
1500 356 2 0.5564 5.7334721787383485 -6.651385502811161 -4.097329427536339 0 0 0
2402 0 4 -1 3.8760425931792066 4.649946382179097 3.915993949748391 0 0 0
1130 233 2 0.5564 7.289542293974771 -2.2082153903836192 -3.49568720798639 0 0 0
1129 233 1 -1.1128 7.6153042016949435 -1.3211879974275385 -3.6483090406102714 0 0 0
1131 233 2 0.5564 6.970096195762001 -0.9261620157796006 -4.234732750590287 0 0 0
1574 381 2 0.5564 7.536098329520549 2.047913952500364 -4.30567138306311 0 0 0
1575 381 2 0.5564 6.441526888883138 2.9342366954213017 -3.750477297735459 0 0 0
1449 339 2 0.5564 7.7568139858157545 -2.985032690804282 -0.9572454486130029 -1 0 0
1079 216 2 0.5564 11.524238117859497 -2.7109068953848117 2.2378142122198805 0 0 0
1545 371 2 0.5564 9.400490351185747 1.3780357509332781 2.879037458303177 -1 0 0
1231 267 1 -1.1128 10.188551595464338 -0.4296613849002158 -3.6175681571430296 -1 0 0
2066 545 2 0.5564 5.296780765121146 1.3615192828957245 4.301952768458463 0 0 0
2065 545 1 -1.1128 5.6107676842060865 1.9953602452936334 3.657057772069628 0 0 0
2067 545 2 0.5564 5.1363075323631175 2.8010969343444807 3.861771546282886 0 0 0
947 172 2 0.5564 10.156840841232897 -1.3243921023725669 -0.9174848310802164 -1 0 0
1573 381 1 -1.1128 6.594105868006833 2.2098383843406664 -4.357270912856526 0 0 0
1510 360 1 -1.1128 5.62436258307532 1.3649035890083896 0.0045047612908805604 0 0 0
1511 360 2 0.5564 6.486435096414415 1.3614039635664985 0.4204982191860966 0 0 0
1067 212 2 0.5564 9.645541494954264 -1.1866114983535572 2.4180021159539287 0 0 0
1512 360 2 0.5564 5.6986465638790476 2.0127717687230797 -0.6961952848516766 0 0 0
1567 379 1 -1.1128 7.35717014527461 0.016136686890632572 2.4300425345660046 0 0 0
1568 379 2 0.5564 6.612097463514601 0.5841343069179076 2.6261987038824337 0 0 0
1569 379 2 0.5564 7.205329858737822 -0.7690946880829292 2.955958873938713 0 0 0
1492 354 1 -1.1128 5.344206484020392 -1.5978020103112929 0.25341305156532845 0 0 0
1494 354 2 0.5564 5.734144194024695 -0.7314979298513699 0.37044994691447697 0 0 0
1066 212 1 -1.1128 9.99771673216793 -1.706790133153341 3.1402337897308374 0 0 0
1068 212 2 0.5564 9.227440131917161 -1.9724679657629303 3.642549392028322 0 0 0
2018 529 2 0.5564 5.341971669821212 3.9901128911560315 -1.8776347033416834 -1 0 0
1080 216 2 0.5564 -11.757889267636648 -1.7820598995686596 1.5225391031657447 1 0 0
803 124 2 0.5564 9.064499840562151 2.5902803644582733 0.809809486108987 -1 0 0
2019 529 2 0.5564 6.854828970927155 4.019078754759351 -1.9257897939127309 -1 0 0
815 128 2 0.5564 5.503260033828496 0.5740372525166306 -3.6650621801245222 0 0 0
2081 550 2 0.5564 10.179970267286246 2.468130757535492 -2.0817014641113922 0 0 0
2097 555 2 0.5564 8.18719863726608 1.648393513600829 6.469300010248012 -1 0 0
2270 613 2 0.5564 8.73992383130972 3.5204092627624717 3.7064442767672787 -1 0 0
2271 613 2 0.5564 7.383873354083402 2.986845281377966 4.116726452419092 -1 0 0
2269 613 1 -1.1128 8.015821485821341 3.67872260609113 4.312121079568575 -1 0 0
2095 555 1 -1.1128 8.251163902581865 0.8606395536347518 5.929314862467192 -1 0 0
1605 391 2 0.5564 10.633305077873722 3.0139829201243877 3.6586359995242375 -1 0 0
513 27 2 0.5564 -3.3476208073873712 10.211935443811782 -6.175324020880777 0 -1 0
511 27 1 -1.1128 -3.6216737705512148 9.614723053538015 -5.479289457194331 0 -1 0
1304 291 2 0.5564 -8.844060778239347 9.385208291846883 1.6265409081653792 0 -1 0
1314 294 2 0.5564 -8.051105530096418 -10.92602050112568 3.0719397187188595 0 0 0
1044 204 2 0.5564 -5.145228602184671 11.619885626103345 -1.858200919495976 0 -1 0
1043 204 2 0.5564 -5.172628258497675 -11.876807692851914 -0.5396261023586958 0 0 0
1305 291 2 0.5564 -7.433064343702564 8.859375208889698 1.7830134793498218 0 -1 0
1303 291 1 -1.1128 -8.006103509840198 9.318220378873535 1.1687505073389584 0 -1 0
1243 271 1 -1.1128 -11.224902252204467 3.2812898383957827 1.3377571957153367 0 0 0
1392 320 2 0.5564 -3.6642560878882753 11.697894004126217 -4.075247700894616 0 -1 0
875 148 2 0.5564 -10.340647281494384 4.9370269438814205 -0.9865897567453212 0 -1 0
874 148 1 -1.1128 -10.26889747676969 5.232523969061234 -0.07897456659928392 0 -1 0
499 23 1 -1.1128 -10.463746070331018 4.056905461815965 -2.3989323406720313 1 -1 0
1307 292 2 0.5564 -7.006281120653325 8.746701138387511 -0.8397621751530925 0 -1 0
938 169 2 0.5564 -10.26861422388305 7.0878313681973975 -3.183354959885434 0 -1 0
1306 292 1 -1.1128 -6.982130158673723 8.195924706454742 -1.6222542367626955 0 -1 0
879 149 2 0.5564 -7.532134437604402 5.675021778636357 0.23664992325989762 0 -1 0
878 149 2 0.5564 -7.685819657282514 6.907657055366286 -0.6287322462280904 0 -1 0
877 149 1 -1.1128 -8.047386192307862 6.476561102789265 0.1456434568973593 0 -1 0
1662 410 2 0.5564 -4.152809072738717 9.731458866774071 -3.358915580687863 0 0 0
876 148 2 0.5564 -9.401114824565944 5.632838012566476 -0.024809640369077374 0 -1 0
937 169 1 -1.1128 -11.147207229569577 6.7141330735620475 -3.1151222816433677 0 -1 0
939 169 2 0.5564 -11.011655239593821 5.85286421044573 -2.7200609966679825 0 -1 0
1363 311 1 -1.1128 -11.808950382824733 7.145820373932069 0.9248865353490513 1 -1 0
1364 311 2 0.5564 -11.32832605585627 6.361716950418413 0.6595303460386992 1 -1 0
1619 396 2 0.5564 -9.683187325770708 4.161895497203577 2.361660526481992 0 0 0
1308 292 2 0.5564 -7.717834202045506 8.500946709427312 -2.153227837074624 0 -1 0
1365 311 2 0.5564 -11.314620789254183 7.871057369462035 0.5429162645138123 1 -1 0
1660 410 1 -1.1128 -4.692914477642488 10.010020887695946 -2.6193744189102808 0 0 0
1661 410 2 0.5564 -5.450796520552256 9.425789896052086 -2.6421936968446267 0 0 0
1683 417 2 0.5564 -5.498842234230182 6.501806423185795 -1.34423605067453 0 0 0
1682 417 2 0.5564 -5.213511727636933 5.398297200605041 -0.34786825451364056 0 0 0
1620 396 2 0.5564 -8.775005495892035 4.815844605158721 3.3811953746778647 0 0 0
1411 327 1 -1.1128 -4.959037095921795 -11.26340951508358 1.1080589164683468 0 0 0
1412 327 2 0.5564 -4.295667871216856 -10.764385118622588 1.5846591363012161 0 0 0
1681 417 1 -1.1128 -5.0769346826336035 6.333121653574774 -0.5017568456779535 0 0 0
1690 420 1 -1.1128 -4.837549407882179 9.436339178611426 3.0641734560614893 0 0 0
1618 396 1 -1.1128 -9.677147713242215 4.815181399268751 3.061240974560397 0 0 0
1245 271 2 0.5564 -11.109903618461091 4.108349520737202 0.8698048252714953 0 0 0
1244 271 2 0.5564 -11.457201752873345 3.540371400628106 2.22946650698428 0 0 0
1692 420 2 0.5564 -4.782701382531106 8.598510420982523 3.5238108673921746 0 0 0
1691 420 2 0.5564 -4.529215414995425 9.244800781198562 2.1784674806305104 0 0 0
2056 542 1 -1.1128 -5.484421423152239 6.919865384011933 3.6101000407847055 0 0 0
986 185 2 0.5564 -9.409714796149022 11.750589778255113 -1.0510931308319458 1 -1 0
1658 409 2 0.5564 -10.179850883434776 10.39190402167437 2.7484743910453093 0 0 0
1657 409 1 -1.1128 -10.501302779385703 9.541784430501256 2.4481459461506825 0 0 0
1659 409 2 0.5564 -10.618498788062269 9.032558576142335 3.250134670293251 0 0 0
2028 532 2 0.5564 -10.7193275972847 6.077400327282396 3.7381920977681835 0 0 0
1413 327 2 0.5564 -5.6441834020185775 -11.43096817405922 1.7551527709590815 0 0 0
1703 424 2 0.5564 -0.3261212076821978 10.215207328253394 -3.271650579566485 0 0 0
1704 424 2 0.5564 -1.541544039945761 9.515151094909557 -2.701945644142044 0 0 0
1713 427 2 0.5564 -11.714324198549704 8.754066361674179 -2.1118383236642133 1 0 0
1711 427 1 -1.1128 -12.034786478754889 9.369693524357592 -1.4526426437865299 1 0 0
1712 427 2 0.5564 -11.410977241104408 10.095245153016581 -1.4785017181886189 1 0 0
2026 532 1 -1.1128 -11.148084742448022 6.687646636423207 4.338190936126328 0 0 0
1706 425 2 0.5564 -2.8792939618526106 6.942109912022043 -6.870568132232009 0 0 0
1705 425 1 -1.1128 -3.7480472597562993 6.791412133549708 -6.498023317443042 0 0 0
1707 425 2 0.5564 -3.595426973119445 6.715787951954573 -5.55609981846578 0 0 0
956 175 2 0.5564 -2.0199148067903665 -9.95766583711285 -2.008997709600769 0 0 0
957 175 2 0.5564 -1.278722760171349 -10.720364381195452 -3.0864114569794 0 0 0
1419 329 2 0.5564 1.5791051428310947 -11.896734952149796 2.897893564669093 0 0 0
1629 399 2 0.5564 2.3157661906542186 5.348956802929924 1.1004372938634785 0 0 0
1627 399 1 -1.1128 1.4294793848230456 5.482470215091489 0.764428818329842 0 0 0
1628 399 2 0.5564 1.4067918505907282 4.989018201142414 -0.05546274453830799 0 0 0
825 131 2 0.5564 2.400003909217007 4.408584667850923 -2.3538210935634423 0 0 0
1579 383 1 -1.1128 4.102118600651751 3.520764763572896 0.7133783836555351 0 0 0
1182 250 2 0.5564 -2.665344331636262 5.0461876292511665 -4.7507996858469195 0 0 0
903 157 2 0.5564 2.2020885447831655 9.493056653275259 -3.2261563092630317 0 -1 0
902 157 2 0.5564 2.5927961901303886 10.947606899572227 -3.0727734464399648 0 -1 0
1855 475 1 -1.1128 -3.7540565855073385 8.764513264332333 0.6333819463251281 0 -1 0
1857 475 2 0.5564 -4.232066613353803 8.034709792501438 0.23952265827178856 0 -1 0
821 130 2 0.5564 0.6911368114617008 7.6477879450152795 -2.3650267647705 0 0 0
1180 250 1 -1.1128 -2.7983521931765885 5.726857143390202 -4.091080230028485 0 0 0
1181 250 2 0.5564 -2.071125775493694 6.334962321757323 -4.223676133529887 0 0 0
820 130 1 -1.1128 1.1824671205202493 8.469244949982677 -2.370919699477127 0 0 0
1869 479 2 0.5564 0.48907636203837584 10.317045936039229 3.1227693228802615 0 -1 0
1867 479 1 -1.1128 0.15387167131169613 11.03185595802706 2.5815519406668437 0 -1 0
1370 313 2 0.5564 -0.936682601418467 8.19833733551919 -5.350666655732036 0 -1 0
1369 313 1 -1.1128 -0.7557305419862814 7.259199521429113 -5.389504187318297 0 -1 0
1371 313 2 0.5564 -0.0987724357958718 7.113031144114587 -4.7088628448681416 0 -1 0
1321 297 1 -1.1128 -0.370623080537102 5.863563733747173 -2.8993720490681496 0 -1 0
1323 297 2 0.5564 -1.2590085039600625 5.507430077769346 -2.912486608368896 0 -1 0
1322 297 2 0.5564 0.18890034458051305 5.106468416953674 -2.7262478282669025 0 -1 0
1255 275 1 -1.1128 -2.5010258425697414 4.9673376072182975 -1.149097595179074 0 0 0
1256 275 2 0.5564 -3.1650380483911302 5.653500252904762 -1.2161831383321327 0 0 0
1257 275 2 0.5564 -2.586378891507025 4.637409217924188 -0.25461787440248346 0 0 0
1715 428 2 0.5564 0.9872303209101804 -11.763787521065307 -2.594183052194751 0 1 0
1584 384 2 0.5564 -0.0655506004757982 6.72209160830102 0.09430475987602872 0 0 0
1716 428 2 0.5564 1.1094218821498039 -11.55565305932422 -4.0887212593136235 0 1 0
1714 428 1 -1.1128 0.5420806571374069 -11.943324080550688 -3.4223377706560076 0 1 0
1582 384 1 -1.1128 -0.8609145096488383 7.163787219012056 -0.2032402812980403 0 0 0
1583 384 2 0.5564 -1.2767285007788045 6.536595357964841 -0.7948152222664032 0 0 0
1702 424 1 -1.1128 -1.1874527818819423 9.875793987472843 -3.5148342621858006 0 0 0
2072 547 2 0.5564 0.8463185063950935 9.732699381523709 0.9924495400218526 0 0 0
2073 547 2 0.5564 1.4353509532806932 8.362237944050092 0.7340483270052514 0 0 0
2071 547 1 -1.1128 1.439941635422985 9.261973535552139 0.40741920009960086 0 0 0
1856 475 2 0.5564 -2.9278707136681237 8.798363302263427 0.15119639429335682 0 -1 0
2404 0 4 -1 -3.3023016799034113 4.557814909866995 1.8788498608515456 0 0 0
822 130 2 0.5564 1.1823020651384895 8.755540323981023 -1.4575376512496139 0 0 0
927 165 2 0.5564 5.475145618015726 6.234057475185111 0.34011874462640124 0 -1 0
1718 429 2 0.5564 4.7518322798391885 9.185315170290576 -2.885545973134117 0 0 0
1868 479 2 0.5564 -0.7969261721233161 10.982060162233578 2.6802214230457944 0 -1 0
2330 633 2 0.5564 0.06479758470704428 4.0887364654597915 3.3299846643569726 0 0 0
2082 550 2 0.5564 9.195519322726785 3.409388646096688 -2.742598574391757 0 0 0
1282 284 1 -1.1128 6.5513130418692995 11.805017740289188 -3.2783369704107628 0 0 0
1580 383 2 0.5564 4.67973780313133 2.7593320527447665 0.660387046988054 0 0 0
802 124 1 -1.1128 8.452433156604027 2.9426856014553313 1.4558872942180738 -1 0 0
2017 529 1 -1.1128 6.112091929403784 3.4245328409324136 -1.820487608540887 -1 0 0
804 124 2 0.5564 8.310603361878723 3.849044183363961 1.1827018886146392 -1 0 0
1655 408 2 0.5564 5.521997560260377 5.626677171795634 4.3913551086281455 0 0 0
1654 408 1 -1.1128 6.228712819032476 6.1747669214160545 4.732504732073164 0 0 0
1656 408 2 0.5564 6.857651758899489 5.553980389039198 5.10032495947507 0 0 0
1260 276 2 0.5564 4.507247447219945 9.628512429942466 -0.011051778441855044 0 0 0
926 165 2 0.5564 4.58410043918004 6.330452810029975 -0.8799802740255643 0 -1 0
1259 276 2 0.5564 3.1692406067395185 10.27408182167513 -0.302381554587802 0 0 0
1709 426 2 0.5564 5.092289500242395 8.36913888517645 2.373168050062513 0 0 0
1710 426 2 0.5564 6.237813535856433 8.174499662065227 3.34362429901168 0 0 0
1708 426 1 -1.1128 6.033190419278181 8.19689997421282 2.408819858974733 0 0 0
925 165 1 -1.1128 4.734468443176125 6.7221287919877435 -0.019624981009714815 0 -1 0
1720 430 1 -1.1128 10.58240890395657 11.319918747091132 -2.889407915011348 0 0 0
1258 276 1 -1.1128 4.1111796893532695 10.4434438559987 -0.31967604141316286 0 0 0
1862 477 2 0.5564 3.4793518200778513 7.112724954385684 1.5950317788752235 0 -1 0
1861 477 1 -1.1128 3.3652606599522064 7.415418498521586 2.4959155559637893 0 -1 0
501 23 2 0.5564 -10.413957317012533 3.345892542483002 -1.7600164772794014 1 -1 0
2150 573 2 0.5564 9.585116320321942 9.866916276140172 1.2540734503497473 0 0 0
2151 573 2 0.5564 10.932786165162657 9.966492657297806 0.5716032583411068 0 0 0
1603 391 1 -1.1128 10.822213395092033 3.950386381742191 3.7194147608476533 -1 0 0
1604 391 2 0.5564 11.252180795541918 4.0538625777944635 4.568327315953693 -1 0 0
2383 0 3 1 11.310869314983195 7.803124801632663 2.745369650437003 0 0 0
1284 284 2 0.5564 6.466399162065926 11.83835343267077 -2.3254937585588618 0 0 0
1596 388 2 0.5564 9.04103816307484 5.489978671174086 -1.6137881132979228 -1 0 0
1594 388 1 -1.1128 8.431158323976524 4.986440760454435 -2.152980092398357 -1 0 0
1283 284 2 0.5564 7.143735687467464 11.070970377437531 -3.4409459360724544 0 0 0
2010 526 2 0.5564 6.850082620474945 6.7120309674915575 1.5989054404700218 0 0 0
1652 407 2 0.5564 7.837043497411531 8.342888478756247 -4.1846155413898725 0 0 0
1651 407 1 -1.1128 7.8005670491733925 9.222870681628098 -3.8097386270874556 0 0 0
1347 305 2 0.5564 8.922394378314877 8.173027819045508 -0.9967760921376053 0 -1 0
1348 306 1 -1.1128 9.968526217797747 6.615961598809273 -0.4151728924971117 0 -1 0
1349 306 2 0.5564 9.724063808957933 6.128374704977105 0.3714203934315823 0 -1 0
1350 306 2 0.5564 10.914043384421834 6.741865050283227 -0.33531392238927427 0 -1 0
1653 407 2 0.5564 8.073629627591526 9.107509698053837 -2.8995954495529253 0 0 0
1345 305 1 -1.1128 8.345257939942256 8.875726965032904 -1.2957062670802524 0 -1 0
1346 305 2 0.5564 7.532727406999595 8.743001853855437 -0.8074338056785768 0 -1 0
1722 430 2 0.5564 10.735380309621439 10.530745173327505 -2.3697574027648347 0 0 0
2149 573 1 -1.1128 10.518400630919466 9.707364661238987 1.3946276202777612 0 0 0
2009 526 2 0.5564 6.631100771617528 5.382792055688927 2.2896050255263627 0 0 0
2008 526 1 -1.1128 7.098946158062355 5.788577921450574 1.5597486455001868 0 0 0
1863 477 2 0.5564 3.3567493746874204 6.613915455709632 3.0191289843931965 0 -1 0
2085 551 2 0.5564 10.184074233772987 5.387633320653301 2.7866217880158017 0 0 0
2084 551 2 0.5564 8.874240687226399 6.077320727280369 2.4695059346912682 0 0 0
2083 551 1 -1.1128 9.819857050136957 6.152906868172428 2.341724005459472 0 0 0
1666 412 1 -1.1128 11.079992345414885 8.851597860786448 4.908557404974853 -1 0 0
2193 587 2 0.5564 7.49713880300845 11.370708275930106 1.7661070536638988 0 -1 0
2192 587 2 0.5564 6.772548913723571 10.056044551222607 1.9623822000074713 0 -1 0
2191 587 1 -1.1128 7.564384084954978 10.434190692919204 1.579976154779181 0 -1 0
1897 489 1 -1.1128 -5.611582639543426 -6.077640947006563 4.127238970120837 0 0 0
1898 489 2 0.5564 -5.418223756142354 -6.402681402484515 5.006552816857919 0 0 0
1813 461 1 -1.1128 -6.217463307664716 -10.61003237316968 5.3661655701894695 0 0 0
1886 485 2 0.5564 -8.912521607263647 -11.293766126226654 5.337211964636032 0 0 0
1802 457 2 0.5564 -10.539401461574073 -9.29546893320249 6.470847339950165 0 0 0
1801 457 1 -1.1128 -9.636641101366973 -9.209945118642969 6.16434907629476 0 0 0
1887 485 2 0.5564 -7.571267986173021 -11.79454205940111 4.8451172277866155 0 0 0
1885 485 1 -1.1128 -8.501976324984517 -11.779686217374707 4.6219735375999305 0 0 0
1803 457 2 0.5564 -9.67272881640768 -8.520997995295668 5.500812064059982 0 0 0
1396 322 1 -1.1128 -10.189098015900214 -7.838124896537548 8.88283481505326 0 0 0
1398 322 2 0.5564 -10.309484642274 -6.911423609358194 9.09011144262608 0 0 0
2208 592 2 0.5564 -6.484526525855123 -5.057385200640706 10.822161072208594 0 0 0
2207 592 2 0.5564 -6.755314085190484 -6.358710229228681 10.097507745886784 0 0 0
2206 592 1 -1.1128 -6.048445736523741 -5.761507559378944 10.342289155076404 0 0 0
1823 464 2 0.5564 -11.472444173005268 -8.668446471935551 8.101014083071451 0 0 0
1764 444 2 0.5564 -4.206007050640098 -6.137256678968564 9.792824151855603 0 0 0
1752 440 2 0.5564 -8.157929349894298 -8.474868638142935 6.845426867018139 0 0 0
1751 440 2 0.5564 -7.77615609041968 -7.010790398656955 6.896605374580075 0 0 0
1750 440 1 -1.1128 -7.406449604574881 -7.8918871800051855 6.953327983681934 0 0 0
2213 594 2 0.5564 -7.56792463805526 -4.0818100919940585 5.185798832630791 0 0 0
2212 594 1 -1.1128 -6.763891519621335 -3.7258521975047882 4.807570788272608 0 0 0
2394 0 4 -1 -8.484236120711651 -4.881439150789601 7.246531033984325 0 0 0
2175 581 2 0.5564 -7.3659819449455695 -7.64508445366154 8.895361418483628 0 0 0
1824 464 2 0.5564 11.860783599094978 -8.425244154495394 6.9133643248298595 -1 0 0
1822 464 1 -1.1128 -12.029777189457151 -9.12214964919379 7.4687441868525495 0 0 0
2173 581 1 -1.1128 -7.52747779966557 -7.930432545871847 9.794654139252419 0 0 0
2174 581 2 0.5564 -7.067547447570564 -8.76674273255678 9.867325752567263 0 0 0
1397 322 2 0.5564 -9.39729440263585 -8.089501077178374 9.358322668681017 0 0 0
2012 527 2 0.5564 -9.898983714567073 -5.861080378312107 5.613059188183182 1 0 0
1762 444 1 -1.1128 -3.309699630932155 -5.899434576747291 9.5555365187318 0 0 0
1763 444 2 0.5564 -3.305663806295165 -4.942265019278424 9.562016723655956 0 0 0
1329 299 2 0.5564 -2.6355449392020867 -9.865570365973777 10.155071860844744 0 0 0
2011 527 1 -1.1128 -10.133958222649552 -6.508746009189618 4.948568394890803 1 0 0
1327 299 1 -1.1128 -3.2199816985147556 -9.299402361820924 9.650969389493566 0 0 0
1328 299 2 0.5564 -4.082667107734263 -9.70432222435525 9.740666691594614 0 0 0
2108 559 2 0.5564 -6.00389630743793 -11.71150533383397 6.822928593820314 0 1 0
2013 527 2 0.5564 -11.015073585319294 -6.7930495278387175 5.191547771536942 1 0 0
1815 461 2 0.5564 -6.334052409786464 -9.660411142173603 5.336869301596266 0 0 0
2106 558 2 0.5564 -5.763897498366647 -10.928330418330079 8.821426473116187 0 1 0
2104 558 1 -1.1128 -5.8637398150727185 -10.47430649670753 9.65816156789276 0 1 0
2203 591 1 -1.1128 -11.540179346026788 -12.031087973085112 10.155390580484275 0 0 0
2105 558 2 0.5564 -6.180833087878234 -11.147553824071954 10.260176267304882 0 1 0
2205 591 2 0.5564 -11.277127734228195 11.63148732488936 10.872060942519148 0 -1 0
2204 591 2 0.5564 -10.802277359965446 -12.05332502319312 9.546097527985856 0 0 0
2107 559 1 -1.1128 -5.625054990618659 11.797609751989798 7.311311915293954 0 0 0
1468 346 1 -1.1128 -1.2307536128699565 -6.408297356315624 4.562964601565708 0 0 0
1814 461 2 0.5564 -5.272097305346431 -10.73827169344022 5.288257585259844 0 0 0
980 183 2 0.5564 3.7208794712389275 -8.593791210852212 8.531577618717872 0 0 0
1334 301 2 0.5564 -2.6599793006993515 11.102720363991741 4.272514549632279 0 -1 0
1770 446 2 0.5564 1.3793732805411616 -9.93271968817237 4.853155013312858 0 0 0
1339 303 1 -1.1128 -1.0589009885521623 -7.983303648073868 6.644519357744207 0 0 0
1340 303 2 0.5564 -0.8456504137899272 -7.53433089471718 7.462553247633501 0 0 0
979 183 1 -1.1128 4.452563580452578 -8.594704501381585 7.914431480773039 0 0 0
1400 323 2 0.5564 -4.615860102225932 -4.292444493087227 6.509015249515499 0 0 0
1768 446 1 -1.1128 0.42442009449043294 -9.979137824501821 4.899432599587984 0 0 0
1769 446 2 0.5564 0.14289457226601712 -9.066916952584675 4.968918836459674 0 0 0
1341 303 2 0.5564 -1.2624613541086156 -7.278335424331285 6.029852932354554 0 0 0
1758 442 2 0.5564 0.7607927388506265 -3.440700253121443 4.193350426004903 0 0 0
2184 584 2 0.5564 1.284799113638844 -7.542991328626649 9.653088016660565 0 0 0
2182 584 1 -1.1128 2.1179577203890743 -7.9326116038702255 9.38799446345022 0 0 0
1788 452 2 0.5564 1.9249724747759693 -9.797008599031946 10.051883061932182 0 0 0
1786 452 1 -1.1128 1.9210392922154256 -10.749112602737346 9.953321786690571 0 0 0
1787 452 2 0.5564 1.025888351380824 -10.959136482774179 9.687189111116378 0 0 0
2122 564 1 -1.1128 -0.4835197297012992 -6.845919779484619 9.371715386806802 0 1 0
2124 564 2 0.5564 -0.0829912564440669 -6.012147391384153 9.12547892803373 0 1 0
2130 566 2 0.5564 -4.297403704185768 -6.193701262936119 7.667206812236293 0 1 0
2129 566 2 0.5564 -5.468594145459902 -6.967232430510929 7.099881867437374 0 1 0
2128 566 1 -1.1128 -4.962343161819297 -6.163861367937562 6.97931371439216 0 1 0
2141 570 2 0.5564 -1.4528527033771423 -10.221598086502457 7.078363615377686 0 1 0
2370 646 2 0.5564 -3.390398880046635 -9.377187722892677 7.9403402840816115 0 1 0
2368 646 1 -1.1128 -3.3459513639887817 -9.352961394020507 6.9844798567863275 0 1 0
2140 570 1 -1.1128 -0.8879238480163282 -10.993097150050453 7.121679485935945 0 1 0
1315 295 1 -1.1128 1.3351099164122588 -5.166594163979067 4.698756754758585 0 0 0
1317 295 2 0.5564 1.493474258668754 -5.673895771845489 5.494870842468054 0 0 0
1316 295 2 0.5564 2.0643422374288622 -5.392369219096515 4.121281504325014 0 0 0
2369 646 2 0.5564 -2.6333050438776433 -8.743367530737707 6.792744790307433 0 1 0
2183 584 2 0.5564 2.772333420487372 -7.266823138438817 9.599536334516655 0 0 0
981 183 2 0.5564 4.2651586435762905 -9.322075225855608 7.321099334334429 0 0 0
2123 564 2 0.5564 -1.3113198978107659 -6.601555016791114 9.785556633686008 0 1 0
2363 644 2 0.5564 3.959492672378993 -11.765959040282914 10.767525255076436 0 1 0
2231 600 2 0.5564 3.4869224219817956 -4.677133147804869 9.736892824531767 0 0 0
2230 600 1 -1.1128 3.3815620087063 -5.628512266670095 9.739852042139512 0 0 0
1399 323 1 -1.1128 -4.177847449689798 -3.576521241937457 6.048764658782706 0 0 0
1780 450 1 -1.1128 -1.2154173710271055 -4.047044123294407 6.501289641823164 0 0 0
1781 450 2 0.5564 -1.0360325918585427 -4.526852428817717 7.309891465715804 0 0 0
2142 570 2 0.5564 -0.3531936795170969 -10.943782534745825 6.329301077328691 0 1 0
1739 436 2 0.5564 2.3477470538313416 -11.750218852499481 8.69877112120176 -1 0 0
1738 436 1 -1.1128 2.8219291053285924 11.956867292104674 8.060503080899862 -1 -1 0
2069 546 2 0.5564 3.2657632712287907 -10.962068306688547 5.020584255615521 0 1 0
1740 436 2 0.5564 3.638540552512681 11.723591607107837 8.502045837249705 -1 -1 0
2068 546 1 -1.1128 3.444648993168518 -10.583410996676525 5.881310805645623 0 1 0
2070 546 2 0.5564 3.3213205830579486 -11.309169018017247 6.4931091567903385 0 1 0
1936 502 1 -1.1128 -11.903912070788449 -2.054012005025372 5.327194772430545 1 0 0
1937 502 2 0.5564 -11.015648724761279 -2.3378589533445466 5.54318314780322 1 0 0
1836 468 2 0.5564 11.09809591878121 -9.410465009829714 2.6732801759375584 -1 0 0
2272 614 1 -1.1128 7.251326967386003 -4.481384268917151 6.4922960612140965 -1 0 0
2274 614 2 0.5564 7.43129742761209 -4.546304705125714 5.554411397060579 -1 0 0
2351 640 2 0.5564 10.815141100125803 -9.898581502156695 8.772055505852574 -1 1 0
1893 487 2 0.5564 8.32765421079435 -6.16636736841727 6.61074593072195 -1 0 0
2352 640 2 0.5564 11.17326133559143 -11.119139220302534 9.592959805710521 -1 1 0
1352 307 2 0.5564 6.045411724772877 -9.797540634168957 5.089593985620382 0 0 0
1351 307 1 -1.1128 6.31046829313531 -10.71658984333061 5.053188117809183 0 0 0
1353 307 2 0.5564 5.486707761672726 -11.20408303467681 5.052399705164599 0 0 0
2364 644 2 0.5564 5.256262298236148 -11.206618892209743 10.222160932340236 0 1 0
2228 599 2 0.5564 3.618537996137537 -6.931141865419772 6.897749832566547 0 0 0
2227 599 1 -1.1128 2.99666261240885 -6.205016012028674 6.850378173546641 0 0 0
2229 599 2 0.5564 2.49074861697751 -6.269090883638145 7.660425871600992 0 0 0
2186 585 2 0.5564 5.644040211607348 -9.627987362807087 8.788916403512038 0 0 0
2232 600 2 0.5564 4.260789693998003 -5.966810392521965 9.909395413584155 0 0 0
2362 644 1 -1.1128 4.82165623236203 -12.029581103784448 10.445952259032634 0 1 0
2350 640 1 -1.1128 10.435056169531952 -10.683166344893259 9.16726909557088 -1 1 0
2196 588 2 0.5564 9.568524169459675 -11.669806690297907 3.0210954428222863 0 0 0
2195 588 2 0.5564 9.951978693086865 -11.073628528013877 4.358790965468697 0 0 0
2194 588 1 -1.1128 10.325655750437509 -11.394758397570737 3.538137070389523 0 0 0
1778 449 2 0.5564 5.764566933163949 -7.75354206670277 6.125555196190784 0 0 0
1777 449 1 -1.1128 6.209249082263792 -8.028452931525397 5.323736257953731 0 0 0
1779 449 2 0.5564 5.953960693400389 -7.375682594120019 4.671853977770678 0 0 0
2187 585 2 0.5564 7.114615863615835 -9.47862712538635 9.116015691398296 0 0 0
1811 460 2 0.5564 8.486331776639322 -7.4900218999662656 9.45141344043094 -1 0 0
2185 585 1 -1.1128 6.326805094749898 -9.95761958967773 9.373216473536322 0 0 0
1821 463 2 0.5564 10.377245405724414 -6.645178114414904 6.242346112868048 -1 0 0
1820 463 2 0.5564 10.741604381751321 -6.937265140010736 4.802268765802237 -1 0 0
1819 463 1 -1.1128 11.041838514331097 -6.463430750187714 5.577879642181656 -1 0 0
2198 589 2 0.5564 6.300822354269053 -7.054684103146178 9.69627642825023 -1 0 0
1812 460 2 0.5564 8.232741785267132 -7.791955164029389 7.989762484551112 -1 0 0
1810 460 1 -1.1128 7.919581338080369 -7.997634616574778 8.870590648509971 -1 0 0
2197 589 1 -1.1128 5.916175661748491 -6.30099305790956 10.143745460564858 -1 0 0
2199 589 2 0.5564 6.657580384076001 -5.7210677776979955 10.317634878921611 -1 0 0
1892 487 2 0.5564 7.884561940486262 -7.4168607125602835 5.881478633702024 -1 0 0
2099 556 2 0.5564 8.451744390339423 -10.791096121518443 6.313617675060996 -1 1 0
2100 556 2 0.5564 8.39469422379565 12.002834819804805 6.758055185287121 -1 0 0
1891 487 1 -1.1128 8.532030537541832 -7.09596507440161 6.509206471599068 -1 0 0
2165 578 2 0.5564 7.668940414073443 -11.510467784849553 10.352008965630636 -1 0 0
1320 296 2 0.5564 7.564194019006577 -10.95088538954902 3.2026896662263287 -1 0 0
2098 556 1 -1.1128 8.938486061397661 -11.614426274990992 6.275646154714581 -1 1 0
2273 614 2 0.5564 6.298785812870247 -4.406185443326803 6.549237541905436 -1 0 0
1872 480 2 0.5564 4.110116925711279 -4.68799638395211 7.104438308045188 0 0 0
1797 455 2 0.5564 7.202588332175796 10.77273522905508 4.559774448532893 0 -1 0
1318 296 1 -1.1128 7.977841057191459 -11.299972354863481 2.4132175359223424 -1 0 0
1964 511 2 0.5564 -10.127030198517064 -0.6887598288605937 2.3589671137733346 0 0 0
1471 347 1 -1.1128 -8.965835437159614 -1.9435681156898936 6.718178855470853 0 0 0
1472 347 2 0.5564 -8.18704324232762 -1.4338332718196274 6.941528238332973 0 0 0
1965 511 2 0.5564 -9.4425113644866 -0.5724765867151775 3.704257900399141 0 0 0
2214 594 2 0.5564 -6.263714997224555 -3.4104803150314735 5.560296376214039 0 0 0
1848 472 2 0.5564 -8.087909950601055 -2.5942841625325177 9.954464582449924 0 0 0
1473 347 2 0.5564 -8.668636525890312 -2.8533866431559956 6.729794085613844 0 0 0
1992 520 2 0.5564 -10.40596530846679 -4.484148414588097 8.786227294266382 0 0 0
1991 520 2 0.5564 -11.212824944829874 -3.3780842367248525 9.432365484000158 0 0 0
1990 520 1 -1.1128 -11.300243187152034 -4.239476673110281 9.024207521068789 0 0 0
1846 472 1 -1.1128 -7.264786289382528 -3.0707699002973357 9.846480227827858 0 0 0
1847 472 2 0.5564 -7.378940221804753 -3.566287605960574 9.03551604707413 0 0 0
1958 509 2 0.5564 -7.723864383661975 1.4890171945756976 7.130591531444726 0 0 0
1959 509 2 0.5564 -7.862270217303173 0.390192775820913 8.162736795768897 0 0 0
1957 509 1 -1.1128 -7.521622261103861 0.5663777422026092 7.285725031589533 0 0 0
1754 441 2 0.5564 -5.675080088156728 -1.5857959511457427 9.743509489220166 0 0 0
2244 604 2 0.5564 -10.663320586701895 -1.3233292836294024 9.393346348006526 0 0 0
2243 604 2 0.5564 -9.645391912826485 -2.094513029141785 8.580332307747634 0 0 0
2242 604 1 -1.1128 -9.769611231381125 -1.664532212561991 9.42645156299222 0 0 0
1980 516 2 0.5564 -10.40392621321135 2.8481639848043865 5.221336452386834 0 0 0
1900 490 1 -1.1128 -9.885426156530807 2.2870558003010424 9.547727035483149 0 0 0
1487 352 2 0.5564 -7.438721513682038 0.014771342069197887 10.820754289926667 0 0 0
1902 490 2 0.5564 -10.109333161508847 1.944158461920883 8.682557186215915 0 0 0
1901 490 2 0.5564 -9.15612756955825 1.7408366922946963 9.840984779627087 0 0 0
1488 352 2 0.5564 -7.02576324302378 1.243485826124342 10.038692033116886 0 0 0
1486 352 1 -1.1128 -7.651235158125457 0.5189133078880614 10.035317683735549 0 0 0
2292 620 2 0.5564 -5.535930070273681 1.82131623386387 4.665336648917797 0 0 0
2290 620 1 -1.1128 -4.59286907793893 1.9300190766257876 4.542652348664822 0 0 0
1979 516 2 0.5564 -10.65777313725082 1.5301696976517714 5.92158497265902 0 0 0
1978 516 1 -1.1128 -10.696361269009103 1.9506656635014976 5.062558811561692 0 0 0
2291 620 2 0.5564 -4.431725698896799 2.8550624879833113 4.72855359502978 0 0 0
1753 441 1 -1.1128 -4.940674074105383 -0.97414515927564 9.690947459068687 0 0 0
2217 595 2 0.5564 -4.6876435834087475 2.6449616791304487 10.103155014544598 0 0 0
2216 595 2 0.5564 -5.335582802115647 2.389937262571727 8.758895940907259 0 0 0
2215 595 1 -1.1128 -5.5326224468140595 2.6661638445331723 9.653941238491049 0 0 0
1956 508 2 0.5564 -11.653728136289804 0.8238637818449684 8.163640847226354 0 0 0
1954 508 1 -1.1128 -10.927242566516789 0.688090498194806 7.555351309838789 0 0 0
1955 508 2 0.5564 -11.010984246666352 -0.22528839613570162 7.281566502047434 0 0 0
1914 494 2 0.5564 -5.687441686826 1.1452278649983292 7.040146637724344 0 0 0
2033 534 2 0.5564 11.489744323295378 2.088508309508875 6.1655162349042145 -1 0 0
2333 634 2 0.5564 -5.358037330952633 4.836256677763702 10.077807357728775 0 0 0
2332 634 1 -1.1128 -5.154217895448125 5.727418010522192 9.794045219876706 0 0 0
1467 345 2 0.5564 -2.098046854030538 0.3939896041633222 5.41843629467169 0 0 0
1465 345 1 -1.1128 -1.9888713498171586 0.20298967536723359 6.350011059225171 0 0 0
1633 401 1 -1.1128 -2.81817613015852 0.2631467560771504 3.462866712439755 0 0 0
1428 332 2 0.5564 -2.771612035505089 -3.207711729880548 3.6740389520266694 0 0 0
1756 442 1 -1.1128 0.36879540758577095 -2.650164612871284 3.8223742644804335 0 0 0
1757 442 2 0.5564 -0.47668267341918547 -2.9397202343115083 3.479509604065345 0 0 0
1839 469 2 0.5564 -0.27404140095882784 -2.057186569269441 5.985828310884548 0 0 0
1755 441 2 0.5564 -4.1744322510098515 -1.5305924700091655 9.551406528474901 0 0 0
1634 401 2 0.5564 -3.5583852968193406 0.7191045464443152 3.863397269747762 0 0 0
1401 323 2 0.5564 -3.8709477172754165 -2.9957984582923944 6.7450443590893085 0 0 0
1466 345 2 0.5564 -1.122019755531624 -0.19808456969646349 6.412777487772393 0 0 0
2288 619 2 0.5564 -2.0148324906328954 4.079713309335788 9.06331155263249 0 0 0
1838 469 2 0.5564 0.7199545597214702 -0.9378891748959455 5.759906908532676 0 0 0
1054 208 1 -1.1128 -2.6469436081299285 -2.0372860631467824 7.935923195253022 0 0 0
1056 208 2 0.5564 -2.4685722115881528 -1.180530176854412 7.548128392556142 0 0 0
1055 208 2 0.5564 -2.034217424461938 -2.6300040892915932 7.500625859795859 0 0 0
1837 469 1 -1.1128 0.18223939768992986 -1.3473693494560761 6.437712349677815 0 0 0
1782 450 2 0.5564 -1.366376427928067 -4.728539568619237 5.846303277909632 0 0 0
1994 521 2 0.5564 1.2763865375745505 3.022221076372557 4.985456379003597 0 0 0
1913 494 2 0.5564 -5.052083240361834 0.5102884474647416 8.258779756239983 0 0 0
1912 494 1 -1.1128 -4.872920050161518 1.1191525919069252 7.542248625446281 0 0 0
2252 607 2 0.5564 -2.166644354864981 0.8060157169887954 10.594109855647403 0 0 0
1845 471 2 0.5564 1.3332783902433232 -4.4188138536731 10.398414493237718 0 0 0
1844 471 2 0.5564 0.785636610003734 -3.475575516339302 9.34851691817786 0 0 0
1843 471 1 -1.1128 0.7419094466373469 -4.384146343236662 9.646541664304744 0 0 0
2251 607 1 -1.1128 -1.8649603624907867 1.363192958110535 9.876633645186226 0 0 0
2382 0 3 1 -2.9423113117462725 2.235143953292912 7.2151387307166575 0 0 0
2287 619 1 -1.1128 -2.8805448705809047 3.890070193949304 8.701635671742851 0 0 0
2253 607 2 0.5564 -1.251749590383764 1.9725834734759313 10.287544315867093 0 0 0
1988 519 2 0.5564 -0.4015919135966968 3.0346975868975936 5.919137492468308 0 0 0
1987 519 1 -1.1128 -1.3061719764322237 3.0188559357477174 5.60654231379529 0 0 0
2264 611 2 0.5564 0.8206790752996584 3.3313552874872063 7.734905994018383 0 0 0
2265 611 2 0.5564 1.2566016890789793 1.9275649934182721 7.372636099117466 0 0 0
2263 611 1 -1.1128 1.0540515127899468 2.780291389137571 6.987846572250695 0 0 0
2255 608 2 0.5564 0.8253076555845068 1.760325442531821 10.075808419702613 0 0 0
2254 608 1 -1.1128 1.4065053920391795 1.0471163606284795 9.811661135363714 0 0 0
2256 608 2 0.5564 2.2707495118496364 1.3129961444851523 10.125702268877122 0 0 0
2118 562 2 0.5564 1.2199931851971668 -1.5361145873526718 8.009020097787197 0 1 0
2116 562 1 -1.1128 1.70053116422925 -1.5534178148118571 8.836676856028946 0 1 0
2117 562 2 0.5564 1.4765020894429683 -0.7254822224344415 9.261606837564942 0 1 0
2289 619 2 0.5564 -3.410949635966842 4.651353657373104 8.936901703316858 0 0 0
2060 543 2 0.5564 1.598424789853198 6.230794462397827 6.697657558387157 0 0 0
2237 602 2 0.5564 11.065214768587543 -0.8440367294723661 6.259367191891119 -1 0 0
2236 602 1 -1.1128 10.470544807549006 -0.31218800556034004 6.788268318247629 -1 0 0
2224 598 1 -1.1128 8.042656185829873 -4.418879272981539 10.055704716255546 0 0 0
2226 598 2 0.5564 8.996926429237067 -4.394928519587809 9.984807011428272 0 0 0
2311 627 1 -1.1128 11.45937060479195 1.691845244238707 9.799982002022025 -1 0 0
2313 627 2 0.5564 10.981828477744584 2.517407518655308 9.718543219908522 -1 0 0
1896 488 2 0.5564 7.6965069680908265 -0.8462225751933647 5.31723158990124 -1 0 0
1644 404 2 0.5564 4.270182204032036 -0.1893983174928846 5.825228942018817 0 0 0
1894 488 1 -1.1128 7.643227189413952 -1.7396472772549638 4.977841823968847 -1 0 0
2225 598 2 0.5564 7.748082526543453 -3.6323051648476383 9.596619367901532 0 0 0
2238 602 2 0.5564 10.353544698052078 -0.8135642115664262 7.595216079145013 -1 0 0
2312 627 2 0.5564 -11.896949162573584 1.9505531911003895 10.061537449393288 0 0 0
2337 635 2 0.5564 3.670931322136244 4.472058507249834 6.0619932113750945 0 0 0
1450 340 1 -1.1128 5.008901893405275 -1.8757745649311395 5.300669054560999 -1 0 0
1643 404 2 0.5564 4.874300045225286 0.8770043667434274 6.713892025345744 0 0 0
1642 404 1 -1.1128 4.355226815280353 0.759463349952613 5.918292313270148 0 0 0
1451 340 2 0.5564 4.786797961361831 -2.451561639552655 6.032359492701601 -1 0 0
1895 488 2 0.5564 7.718973860292704 -2.295818723108008 5.753191772209308 -1 0 0
2336 635 2 0.5564 2.416862215881242 3.951996738581183 6.731874839879661 0 0 0
2335 635 1 -1.1128 3.2496764370630995 4.385944481332774 6.917189420618075 0 0 0
1943 504 2 0.5564 10.999307194819918 -6.103164996375258 10.618432662473223 0 0 0
2039 536 2 0.5564 8.29593143298301 4.290655666833604 6.362344705640893 -1 0 0
2038 536 1 -1.1128 8.521459223935617 4.914251107683148 7.052632830133168 -1 0 0
1452 340 2 0.5564 5.9653855572487995 -1.8391225067340546 5.305899244460472 -1 0 0
1871 480 2 0.5564 4.312885277207396 -3.4903921385597365 8.008055596760656 0 0 0
1870 480 1 -1.1128 4.654875864677386 -3.909196967592249 7.2181969351446575 0 0 0
1523 364 2 0.5564 6.532566962102816 -0.5255129481352898 10.65036438513083 -1 0 0
1808 459 2 0.5564 4.5695342300288955 -2.171754693370672 10.187431532519097 -1 0 0
1944 504 2 0.5564 11.296940640827101 -5.087931770070811 9.535561078955986 0 0 0
1942 504 1 -1.1128 10.58411525048645 -5.59931239623624 9.918446972081567 0 0 0
1809 459 2 0.5564 3.2032967843222924 -2.2746679967049643 9.543460027765418 -1 0 0
1807 459 1 -1.1128 3.8997274476561277 -2.80534810280656 9.930234909080408 -1 0 0
2235 601 2 0.5564 5.449283374170036 2.6572793646502473 7.682192420511159 -1 0 0
2245 605 1 -1.1128 11.620866343609912 -1.2253179543039296 9.582333004541258 -1 0 0
2246 605 2 0.5564 11.614367545973503 -1.3835559569420555 10.526340518361193 -1 0 0
1522 364 1 -1.1128 5.991370416846446 -0.8832466503084057 9.946542887192876 -1 0 0
1524 364 2 0.5564 5.417068566645723 -0.1602206080110616 9.6942681497658 -1 0 0
2234 601 2 0.5564 4.696199626322067 2.185005397099324 8.907638167118398 -1 0 0
2233 601 1 -1.1128 5.462714774006937 1.9901322199071914 8.368462119586603 -1 0 0
2301 623 2 0.5564 7.37759672106264 -3.1173170191242936 7.739642308775022 0 0 0
2300 623 2 0.5564 6.953908022420645 -2.0751612757313307 8.75270419551639 0 0 0
2299 623 1 -1.1128 7.634361358895247 -2.272421116521671 8.109039982855442 0 0 0
2247 605 2 0.5564 11.388821837435009 -0.30104216255929034 9.49232505731634 -1 0 0
2096 555 2 0.5564 9.061685182825352 0.4390724718299692 6.214916544693371 -1 0 0
2040 536 2 0.5564 9.118006379288934 4.432575155076167 7.625652560918629 -1 0 0
2000 523 2 0.5564 7.1792689174299715 4.804464032266374 9.414476066578764 0 0 0
2058 542 2 0.5564 -6.260691614659271 6.538789338886882 4.020487024278051 0 0 0
1854 474 2 0.5564 -4.493910138847909 8.556673702559056 6.783613167122227 0 -1 0
2057 542 2 0.5564 -5.355349524816984 6.4031944566380155 2.8147238872126894 0 0 0
1115 228 2 0.5564 -9.054191700478679 -11.455603325699355 8.536965519446355 0 1 0
2032 534 1 -1.1128 10.877758468026089 2.6978272380936987 6.57835467488587 -1 0 0
2279 616 2 0.5564 -10.00181178605686 4.408046168236587 10.261034378093541 0 0 0
1920 496 2 0.5564 -7.642823446400347 5.925589647051913 5.259005642966311 0 0 0
2034 534 2 0.5564 11.36697581228098 3.06854836514806 7.312836841229217 -1 0 0
1918 496 1 -1.1128 -7.465719301362974 6.705156692277883 5.785447589820774 0 0 0
1919 496 2 0.5564 -7.200463436236304 6.363050060451758 6.639165460686381 0 0 0
1673 414 2 0.5564 -5.521663904688908 10.280508960910907 6.3651054909824465 0 0 0
1853 474 2 0.5564 -3.276471686155196 9.345812234259585 7.216046899686135 0 -1 0
1852 474 1 -1.1128 -3.616451065014989 8.453328180080812 7.1518753557465455 0 -1 0
1672 414 1 -1.1128 -5.769042953653982 9.570999286478864 5.772120368100181 0 0 0
1674 414 2 0.5564 -5.50556435664462 9.879849390353755 4.905274149958334 0 0 0
2049 539 2 0.5564 -7.491723444527827 3.4052328257525826 5.714586228268706 0 0 0
1116 228 2 0.5564 -9.29780374555473 11.398231674301714 7.979206868217898 0 0 0
2043 537 2 0.5564 -8.058695472979485 8.29536873117427 5.196518596561547 0 0 0
1114 228 1 -1.1128 -9.17943498458666 11.873134137443405 8.80181743326592 0 0 0
2280 616 2 0.5564 -10.73208403885567 5.723438348235258 10.09268669493968 0 0 0
2278 616 1 -1.1128 -9.863341910472164 5.326503337646745 10.0297459660028 0 0 0
2041 537 1 -1.1128 -8.507670087104932 8.968673789424265 4.6853298258821345 0 0 0
1616 395 2 0.5564 -10.2918801407337 4.919134026961825 7.196023639594789 0 0 0
2102 557 2 0.5564 -7.8747098655568735 6.853376540768722 8.63545231970118 0 0 0
2103 557 2 0.5564 -7.969052348987001 5.429473166061071 9.140916167379252 0 0 0
2101 557 1 -1.1128 -7.582747386518493 5.96180372081779 8.44548502392538 0 0 0
2046 538 2 0.5564 -11.149935304658541 7.792838701261876 9.659393333804783 0 0 0
2045 538 2 0.5564 -10.489233456870437 8.790921458930615 8.73246344510829 0 0 0
2044 538 1 -1.1128 -10.53557314302397 8.526818344294359 9.65133994561879 0 0 0
2048 539 2 0.5564 -7.600554017773187 3.6801525122269356 7.199332103918033 0 0 0
2047 539 1 -1.1128 -7.85956986714881 3.0523662618740968 6.524775173099945 0 0 0
2120 563 2 0.5564 -9.205072379086214 9.412817406423082 6.327962210141704 0 0 0
2119 563 1 -1.1128 -9.469004537714262 9.672520570426551 7.2106432953456965 0 0 0
2121 563 2 0.5564 -8.73504003310592 9.411861118813324 7.767046584608865 0 0 0
2042 537 2 0.5564 -7.862759901731534 9.669991456128813 4.593263417045804 0 0 0
1972 514 1 -1.1128 -7.772579881541138 8.726945215786115 9.03597698941944 0 0 0
1973 514 2 0.5564 -7.22333625907125 9.08734586685754 9.732162744797208 0 0 0
2295 621 2 0.5564 -5.75190248784911 10.724587772515353 9.06790480692367 0 0 0
2293 621 1 -1.1128 -5.714356046800224 10.470032232449043 9.989872041880194 0 0 0
2294 621 2 0.5564 -5.15392762696874 9.694142374705217 10.001983752810832 0 0 0
2334 634 2 0.5564 -5.946824800782393 6.024064567087378 9.346823912048995 0 0 0
1974 514 2 0.5564 -8.614394812845728 8.556372223208038 9.458450980954536 0 0 0
2126 565 2 0.5564 -3.8965707741045046 8.285818360999706 8.96529656480339 0 0 0
1615 395 1 -1.1128 -11.22073311115206 4.7752474614931 7.015024694454169 0 0 0
2027 532 2 0.5564 -10.735231501292304 6.521016691898919 5.1855506215028715 0 0 0
1335 301 2 0.5564 -3.378019206323232 9.993807175142626 3.5331733174647297 0 -1 0
2354 641 2 0.5564 -4.542713957692994 5.315238036591756 4.845634735903607 0 0 0
2331 633 2 0.5564 -1.0856569880388014 4.881608525698299 2.7471438895153213 0 0 0
1333 301 1 -1.1128 -2.505693757567622 10.28631010826607 3.797222982535992 0 -1 0
2396 0 4 -1 0.04163550265014522 3.978771438149874 9.554341709555885 0 0 0
2340 636 2 0.5564 2.5525364963335626 3.351859080430209 9.888940201805202 0 0 0
2127 565 2 0.5564 -3.9976818732108232 7.4424158892159795 10.218430040380087 0 0 0
1356 308 2 0.5564 -2.025096641023407 11.769246044249993 7.132058162941492 0 -1 0
1989 519 2 0.5564 -1.3556121621561812 3.7392843881741027 4.978234810733452 0 0 0
1982 517 2 0.5564 -2.909076027979475 7.615671563968495 5.851308959872661 0 0 0
1981 517 1 -1.1128 -2.422984877317955 7.1189845801993 5.193092224786566 0 0 0
1983 517 2 0.5564 -2.9890913234389527 6.375045069620774 4.987400123417915 0 0 0
2061 543 2 0.5564 0.561553501115367 5.494771123700666 7.519279591197458 0 0 0
1354 308 1 -1.1128 -2.702337170064921 11.270449832793735 7.588982057432679 0 -1 0
2297 622 2 0.5564 0.45463682648258547 6.914424036003202 10.148007776132793 0 0 0
2296 622 1 -1.1128 0.8973563453010657 7.647742367258125 9.720836287262058 0 0 0
2298 622 2 0.5564 0.6917831893634652 7.543900419625257 8.791757067216077 0 0 0
2109 559 2 0.5564 -4.686106696857125 11.982672268161654 7.330278106533412 0 0 0
2125 565 1 -1.1128 -3.777357719452751 8.322874042400148 9.91432060257099 0 0 0
2324 631 2 0.5564 -1.1071639074510848 11.90455519844694 9.96532957086355 0 0 0
2323 631 1 -1.1128 -0.842433137660636 -11.420627726052125 9.869105423993105 0 1 0
2355 641 2 0.5564 -3.5639801807388 4.609672630834924 3.9312208927254715 0 0 0
2378 0 3 1 -0.28498113152581805 6.881864538388823 4.545912765227502 0 0 0
2353 641 1 -1.1128 -3.8803079312397104 4.624349847019461 4.834522180730832 0 0 0
2133 567 2 0.5564 -1.6295310753309962 8.081608397755872 1.9535676702954314 0 0 0
2329 633 1 -1.1128 -0.4125859209442574 4.912702305630718 3.4270264916975415 0 0 0
2373 647 2 0.5564 -0.08651513168492117 9.046796393372272 9.402824211666054 0 0 0
2371 647 1 -1.1128 -0.7747512958267428 9.711910604711987 9.389189418623571 0 0 0
2372 647 2 0.5564 -1.5906773197916289 9.21404912009113 9.440477761516595 0 0 0
1355 308 2 0.5564 -2.241972759543679 10.850390485957764 8.315512570105266 0 -1 0
2131 567 1 -1.1128 -1.275123115878759 8.191807519175109 2.8358844827811596 0 0 0
2059 543 1 -1.1128 0.6662993659200096 6.229946543008449 6.915311671829118 0 0 0
2132 567 2 0.5564 -1.8208207432041559 8.872061881176007 3.2304728012052815 0 0 0
2325 631 2 0.5564 -0.768702199208315 -11.290301094535023 8.923689925568613 0 1 0
1792 454 1 -1.1128 1.395400089363882 8.353325012467284 4.3057551530321065 0 -1 0
2088 552 2 0.5564 4.053147187298815 7.847912726258607 9.860784803102677 0 0 0
2112 560 2 0.5564 2.0786092122194555 10.071488124288198 7.434086981889404 -1 0 0
2110 560 1 -1.1128 2.1568308431828425 9.222314949333004 6.999324936987714 -1 0 0
1793 454 2 0.5564 2.134676325284897 8.24870603782594 3.7067916691357494 0 -1 0
1794 454 2 0.5564 1.7772566203010582 8.742137563527113 5.092674611375772 0 -1 0
2087 552 2 0.5564 2.7390730858579 8.599600904070861 9.869096940337814 0 0 0
2086 552 1 -1.1128 3.6662931502403717 8.693621075396706 10.087397036942553 0 0 0
1667 412 2 0.5564 10.780433595283014 8.086564176683764 5.399698803147505 -1 0 0
2024 531 2 0.5564 9.349360365273514 6.484123834598444 6.671303017402773 -1 0 0
1668 412 2 0.5564 11.20385752260616 9.529716502014683 5.572669123089271 -1 0 0
2023 531 1 -1.1128 9.885329349388948 7.247254733643227 6.887174016048202 -1 0 0
2025 531 2 0.5564 10.334691546074836 7.00373452301372 7.696496822511969 -1 0 0
2338 636 1 -1.1128 3.442004915164765 3.0030181851939446 9.947144998271506 0 0 0
2305 625 1 -1.1128 9.917333159367772 3.958734476064764 9.45846946356642 -1 0 0
2306 625 2 0.5564 10.410310252742757 4.753529259632768 9.254737458845904 -1 0 0
2113 561 1 -1.1128 11.453579511263008 10.663845350365863 7.257012107920172 -1 0 0
2115 561 2 0.5564 11.056936063414724 11.520524548180655 7.098877748847967 -1 0 0
2114 561 2 0.5564 11.544580980554164 10.613475688216775 8.208544259981924 -1 0 0
2346 638 2 0.5564 11.491069531739768 9.039364178133477 9.698305955769952 -1 0 0
1865 478 2 0.5564 5.434323160146717 7.398826236619422 5.751044892551408 0 -1 0
1796 455 2 0.5564 7.346139257173541 10.084203981460055 5.900376142068274 0 -1 0
2401 0 4 -1 11.539792660428022 6.555633538352165 9.327501368526054 -1 0 0
1617 395 2 0.5564 -11.677302687580688 5.32473141504551 7.652083121842715 0 0 0
2345 638 2 0.5564 11.617241335448984 10.469502529450388 10.178597376595958 -1 0 0
1795 455 1 -1.1128 6.7606865387877635 10.159280156528233 5.146824292316249 0 -1 0
2339 636 2 0.5564 3.9149455876149633 3.63979972949216 10.4829324584118 0 0 0
2307 625 2 0.5564 9.609980475455972 4.090257338005155 10.355390812556081 -1 0 0
2344 638 1 -1.1128 10.970846559028455 9.808663016524545 9.93020931978219 -1 0 0
1866 478 2 0.5564 5.3281043610884 8.891740948496851 5.978681268228591 0 -1 0
2166 578 2 0.5564 9.129194393715032 -11.585599174217169 9.959697167544098 -1 0 0
1864 478 1 -1.1128 4.921690486274091 8.058764084152841 6.217865604664661 0 -1 0
2164 578 1 -1.1128 8.384316821893018 12.1090243230684 10.212587900893462 -1 -1 0
2310 626 2 0.5564 9.420072054456563 7.254294968687998 10.515318018540858 -1 0 0
2001 523 2 0.5564 5.991113034539334 5.66667364043014 9.78430740781077 0 0 0
1999 523 1 -1.1128 6.903941424506254 5.495975826935921 10.01633821818123 0 0 0
2348 639 2 0.5564 9.146242443699846 8.900894387611805 7.3792090303776305 -1 0 0
2347 639 1 -1.1128 8.92479576890931 9.83175806557854 7.353020441065964 -1 0 0
2111 560 2 0.5564 3.0413804847690216 8.924522051848298 7.2117467746798845 -1 0 0
2388 0 3 1 8.552870499742866 9.723519515751518 9.665451842491517 0 0 0
2349 639 2 0.5564 9.762543234669021 10.273965976905803 7.215677070918872 -1 0 0
2161 577 1 -1.1128 6.341702196781094 10.027208342368446 10.228678973309423 -1 -1 0
2163 577 2 0.5564 5.60706287157506 9.431017220941913 10.37391279533394 -1 -1 0
2162 577 2 0.5564 5.9393265657863745 10.893628410547429 10.168330092617312 -1 -1 0
2309 626 2 0.5564 7.963958082955042 6.988637642795102 10.197429252031673 -1 0 0
2308 626 1 -1.1128 8.605299259740248 7.69504579350506 10.274245890823638 -1 0 0
2341 637 1 -1.1128 4.463572214557417 6.193784389901796 8.927706724700592 -1 0 0
2343 637 2 0.5564 3.924260670686408 5.51206467407841 8.526916115788183 -1 0 0
2342 637 2 0.5564 4.723726582043005 6.754581444051312 8.19691386299513 -1 0 0
222 0 5 0 -11.858351719010132 -6.074604774564322 12.581284261973689 0 0 0
249 0 5 0 -9.905437570518163 -4.005736032367243 12.648496873391698 0 0 0
225 0 5 0 -9.87284547466303 -8.015633526217293 12.60463490225884 0 0 0
226 0 5 0 -7.8990263715912645 -6.02352033574801 12.591078407818626 0 0 0
342 0 5 0 -11.868743734340507 -10.016294990560374 12.6033722840561 0 1 0
346 0 5 0 -7.852441063984127 -10.033174603660106 12.656083613402167 0 1 0
247 0 5 0 -11.88631310620884 -4.04104566820425 14.615978946225049 0 0 0
364 0 5 0 -11.908271153745057 -5.989268217356787 16.596881795781243 0 0 0
377 0 5 0 -9.887034710035625 -3.984921633065315 16.600053420114993 0 0 0
223 0 5 0 -11.857691091402963 -8.020649218146204 14.639943056230264 0 0 0
228 0 5 0 -9.888555022513357 -6.016427589399714 14.651897414728179 0 0 0
365 0 5 0 -9.886921558052217 -8.049333487201086 16.658148425138233 0 0 0
251 0 5 0 -7.863742525644881 -4.004431572709589 14.587053932543656 0 0 0
366 0 5 0 -7.879821543459853 -6.046440840585988 16.63044664676618 0 0 0
227 0 5 0 -7.8754032360807855 -8.01308556529183 14.609995319790416 0 0 0
424 0 5 0 -11.924755724149007 -10.037097835045977 16.68390622311153 0 1 0
348 0 5 0 -9.88442432760952 -10.018915200314195 14.661180791503591 0 1 0
426 0 5 0 -7.801445128091818 -9.98804794703068 16.592382487900753 0 1 0
253 0 5 0 -5.912752677774381 -4.018388565626488 12.526334001999567 0 0 0
229 0 5 0 -5.8428277744661905 -8.005048206281872 12.524019810466202 0 0 0
232 0 5 0 -5.852666663300905 -6.041283735103592 14.519051471013201 0 0 0
379 0 5 0 -5.878739403462868 -3.988010361984158 16.518752982834354 0 0 0
367 0 5 0 -5.812890625037249 -7.928321862218806 16.6134906904619 0 0 0
352 0 5 0 -5.847185847643954 -10.006227626635503 14.620328091550874 0 1 0
261 0 5 0 2.266284089050598 -3.9025412666765766 12.54237895756857 0 0 0
237 0 5 0 2.183339677224284 -7.960926262422781 12.487500622041521 0 0 0
230 0 5 0 -3.8050356075657663 -5.9961667227076205 12.461915810619493 0 0 0
257 0 5 0 -1.828968021031568 -3.948360952938082 12.476262759454464 0 0 0
233 0 5 0 -1.7411996725137107 -8.023275124325474 12.452386122802007 0 0 0
255 0 5 0 -3.8678746874308563 -4.003081498762759 14.466721154044643 0 0 0
368 0 5 0 -3.7949186138938598 -5.9400672867820035 16.537385589522465 0 0 0
381 0 5 0 -1.8401717781124876 -3.886830939084333 16.46516990729517 0 0 0
231 0 5 0 -3.7941469406667756 -7.978349297592429 14.54985779922148 0 0 0
369 0 5 0 -1.8433777460211964 -7.965843614596077 16.57221227839378 0 0 0
236 0 5 0 -1.7936817441573598 -5.9279058584220765 14.4656730764768 0 0 0
234 0 5 0 0.20435356220425213 -5.966027300893423 12.490568277315731 0 0 0
259 0 5 0 0.2127650829235775 -3.894603020067947 14.535988125690212 0 0 0
370 0 5 0 0.14721462364853777 -5.896078434052881 16.45060987875242 0 0 0
235 0 5 0 0.15596171518259652 -7.98847542551198 14.531007430806122 0 0 0
350 0 5 0 -3.8147398648637343 -9.981757781543934 12.475102880230871 0 1 0
428 0 5 0 -3.778185765743592 -9.96566452334981 16.57874119347205 0 1 0
356 0 5 0 -1.832856383876839 -9.991142038608553 14.483980932129091 0 1 0
354 0 5 0 0.24882047014885086 -10.079242207013383 12.605343824291715 0 1 0
430 0 5 0 0.2028888328912598 -9.973075226228966 16.515088404668255 0 1 0
371 0 5 0 2.145568812160429 -7.902163778996281 16.533160492767415 0 0 0
240 0 5 0 2.1983277664872545 -5.9518504913800925 14.497728207426123 0 0 0
383 0 5 0 2.189046019593364 -3.9569064536542364 16.54919736254886 0 0 0
360 0 5 0 2.2607107388498013 -9.946560991147644 14.580081543891081 0 1 0
245 0 5 0 10.355360150975018 -4.030393934608463 12.649664672669003 -1 0 0
221 0 5 0 10.344381979394996 -8.068788254466357 12.65158862599461 -1 0 0
218 0 5 0 8.339345634053185 -6.054761015842665 12.559214715877351 -1 0 0
217 0 5 0 6.263756923941631 -7.966731322325066 12.555269516101914 -1 0 0
241 0 5 0 6.2669038689489645 -3.9416435666060776 12.60886652153866 -1 0 0
238 0 5 0 4.2391285365740226 -5.957859786845163 12.567954841269524 0 0 0
338 0 5 0 8.27265304699077 -9.993176582077902 12.697301006137286 -1 1 0
358 0 5 0 4.248684412280923 -10.001671758052058 12.549938604892839 0 1 0
224 0 5 0 10.301696172563739 -5.999616545544505 14.64377021724678 -1 0 0
363 0 5 0 10.341467543816211 -8.0640067227961 16.620549049673308 -1 0 0
344 0 5 0 10.266153145868584 -10.040983618073176 14.648397420904647 -1 1 0
375 0 5 0 10.36887695597624 -3.993619621717734 16.678113575528794 -1 0 0
219 0 5 0 8.269784492088638 -8.005551417365897 14.660801383821962 -1 0 0
243 0 5 0 8.324546208064865 -4.004861066041894 14.637722032059798 -1 0 0
362 0 5 0 8.337293254353076 -5.958622848113728 16.636298879232157 -1 0 0
361 0 5 0 6.269202395132361 -7.916941828784192 16.627852300363593 -1 0 0
373 0 5 0 6.267152071038958 -3.97204178684725 16.601841507074425 -1 0 0
220 0 5 0 6.28881772122377 -6.003479573251394 14.589764372305002 -1 0 0
263 0 5 0 4.279723537201501 -3.950724143583041 14.596154727387306 0 0 0
372 0 5 0 4.251621724291412 -5.972728998963815 16.576798251475093 0 0 0
239 0 5 0 4.215597416637125 -7.9735983921172355 14.529105603827158 0 0 0
422 0 5 0 8.259171222616976 -9.941933284907899 16.71053695826426 -1 1 0
340 0 5 0 6.23444516954942 -10.021314388197457 14.685791355540282 -1 1 0
432 0 5 0 4.187543636938108 -9.884146869653984 16.699610788579037 0 1 0
246 0 5 0 -11.896260079425284 -1.988070981137994 12.610454211222486 0 0 0
250 0 5 0 -7.898173441477292 -1.9322697318546376 12.546164667249236 0 0 0
273 0 5 0 -9.94477075735793 0.08237505412119027 12.59916738142995 0 0 0
270 0 5 0 -11.948150936079074 2.0710253228660633 12.620216912405755 0 0 0
274 0 5 0 -7.953046987865721 2.098070660898668 12.606793731082238 0 0 0
376 0 5 0 -11.918426704137184 -1.9418919087403248 16.706333799924135 0 0 0
252 0 5 0 -9.929335201090527 -1.9449232812341037 14.643500832331647 0 0 0
378 0 5 0 -7.854556754561696 -1.9725619472168336 16.572384266359805 0 0 0
297 0 5 0 -9.972798119501862 4.118902810509285 12.681149119770538 0 0 0
271 0 5 0 -11.955880403035522 0.05867819849210683 14.684962019446274 0 0 0
295 0 5 0 -11.860753924666241 4.1093793752799215 14.671999351018563 0 0 0
388 0 5 0 -11.95465845976079 2.086473645204007 16.741929881121486 0 0 0
276 0 5 0 -9.916035269059481 2.088470672039626 14.707958318390782 0 0 0
389 0 5 0 -9.88999139653944 0.04376709702392896 16.656298530988167 0 0 0
401 0 5 0 -9.86419044786569 4.196960201798567 16.683046402675807 0 0 0
275 0 5 0 -7.9097013920076025 0.060099583281191984 14.606925872300707 0 0 0
299 0 5 0 -7.869279078187183 4.100320086980237 14.612718228375861 0 0 0
390 0 5 0 -7.87382357535853 2.0951646385023843 16.623508668228048 0 0 0
256 0 5 0 -5.87825611590986 -1.977794646068151 14.513723578622258 0 0 0
277 0 5 0 -5.88728942339329 0.026509054534821958 12.606021481807543 0 0 0
301 0 5 0 -5.889569064589846 4.085458481129416 12.566822136312998 0 0 0
391 0 5 0 -5.8626903469366844 0.05303788272443652 16.551171417208835 0 0 0
280 0 5 0 -5.83962522813647 2.1353024567456806 14.583913787825281 0 0 0
403 0 5 0 -5.849348849351634 4.124487465148023 16.65534218122087 0 0 0
258 0 5 0 0.2501812851327272 -1.9326206923664155 12.54949222966458 0 0 0
254 0 5 0 -3.868746782519315 -1.9179546683255984 12.582554013029403 0 0 0
380 0 5 0 -3.899498235983578 -2.0189075419907514 16.478122089841712 0 0 0
260 0 5 0 -1.8438816685504205 -1.924469064340444 14.51807029102503 0 0 0
382 0 5 0 0.11987604971791055 -1.8778322003145627 16.66890961073931 0 0 0
278 0 5 0 -3.8716499685419374 2.0876255570478874 12.585763025448104 0 0 0
281 0 5 0 -1.8076885524982604 0.09066482101164856 12.450178680807879 0 0 0
305 0 5 0 -1.842678640258403 4.025238411587805 12.547405209241004 0 0 0
279 0 5 0 -3.806587974287467 0.09690318092180834 14.575066277834035 0 0 0
303 0 5 0 -3.8206336888493055 4.114490247620258 14.624927960553826 0 0 0
392 0 5 0 -3.9021099442739 2.0805054020336913 16.60637872950468 0 0 0
393 0 5 0 -1.8877368617153156 0.07528879435892087 16.632364211358475 0 0 0
284 0 5 0 -1.8756614340261728 2.0896964268301566 14.611958074025878 0 0 0
405 0 5 0 -1.8379174746700313 4.088826842190643 16.672089415578455 0 0 0
282 0 5 0 0.23456887378402003 2.0583476304877477 12.596421213909645 0 0 0
283 0 5 0 0.15881568462606624 0.09853475372675187 14.567990818714946 0 0 0
307 0 5 0 0.14272348539521781 4.097249408089045 14.550049552166147 0 0 0
394 0 5 0 0.16964620185811738 2.0417974221304798 16.550174399088924 0 0 0
264 0 5 0 2.2426920090998457 -1.9180168406853346 14.611258299734825 0 0 0
285 0 5 0 2.2300361262181694 0.08840111425633873 12.567789266670879 0 0 0
309 0 5 0 2.2464283701995833 4.123706621763621 12.599396934380119 0 0 0
395 0 5 0 2.204704201630834 0.026841533621732097 16.52956441049749 0 0 0
288 0 5 0 2.273574108292462 2.1313067101386207 14.623045692444126 0 0 0
407 0 5 0 2.187662451348339 4.093885790811234 16.575486916455706 0 0 0
269 0 5 0 10.353168652039644 0.08886308847884876 12.630552376885804 -1 0 0
293 0 5 0 10.304901756554429 4.1652946300300915 12.707164406896117 -1 0 0
242 0 5 0 8.379913397540069 -1.9151750393510563 12.687835031178388 -1 0 0
262 0 5 0 4.26340024616621 -1.853690646281154 12.598057429120363 0 0 0
266 0 5 0 8.341938830107761 2.107124067613644 12.660345458312932 -1 0 0
265 0 5 0 6.372001186457526 0.09857279846530839 12.592220049745668 -1 0 0
289 0 5 0 6.280560590213532 4.101986518707875 12.615338878235917 -1 0 0
286 0 5 0 4.245952466792557 2.1197205025041184 12.610850203641416 0 0 0
248 0 5 0 10.318641233486884 -1.9639549192829169 14.663845252165405 -1 0 0
387 0 5 0 10.270789068621411 0.047063853345525916 16.715239145934053 -1 0 0
272 0 5 0 10.317200500638455 2.1276829813032108 14.642157560293159 -1 0 0
399 0 5 0 10.319630254392555 4.137559994629273 16.7072836104494 -1 0 0
374 0 5 0 8.29947375575825 -1.9795609708138058 16.68253787330751 -1 0 0
244 0 5 0 6.28542577128206 -1.922846697072554 14.628960408763703 -1 0 0
384 0 5 0 4.259116977361719 -1.954654818974682 16.62636803349281 0 0 0
267 0 5 0 8.283570051211491 0.08693557190845938 14.660778685606884 -1 0 0
291 0 5 0 8.293132650603608 4.150312680335422 14.6354950536906 -1 0 0
386 0 5 0 8.302932517719848 2.11757683091401 16.604245156259292 -1 0 0
397 0 5 0 6.28135458218051 4.086420596430543 16.64218281573305 -1 0 0
385 0 5 0 6.254773120650827 0.10436935815936539 16.693826944019815 -1 0 0
287 0 5 0 4.248151415437057 0.13990730054522452 14.648692335570159 0 0 0
268 0 5 0 6.249482998702008 2.115002282447989 14.655871720785388 -1 0 0
311 0 5 0 4.26304175202209 4.14457886456169 14.610219485111413 0 0 0
396 0 5 0 4.239635834341783 2.126773272899862 16.672194714362895 0 0 0
294 0 5 0 -11.921872290982186 6.220883446282191 12.760487921108625 0 0 0
318 0 5 0 -11.910400982460814 10.246853418228891 12.619828964070798 0 0 0
345 0 5 0 -9.864556643657108 -12.026841531912059 12.6935342538447 0 1 0
400 0 5 0 -11.911365235613053 6.157230834617492 16.635700082716852 0 0 0
300 0 5 0 -9.855047036732435 6.202508586874821 14.714046072474064 0 0 0
298 0 5 0 -7.9211905228745385 6.107009787389626 12.67089381033018 0 0 0
402 0 5 0 -7.831905401828262 6.176901090570094 16.642300923440562 0 0 0
321 0 5 0 -9.871002281132126 8.22552284405843 12.663146306292035 0 0 0
319 0 5 0 -11.911000356983514 8.29928814618162 14.758006117863669 0 0 0
343 0 5 0 -11.819344218788338 -12.031808114426463 14.65538314654641 0 1 0
412 0 5 0 -11.892226518467707 10.296483928671242 16.786887003924317 0 0 0
324 0 5 0 -9.851621139191563 10.175288307514926 14.68250569304758 0 0 0
413 0 5 0 -9.850346674471876 8.202898471386998 16.727475760424657 0 0 0
425 0 5 0 -9.807799488270529 -11.993275316728951 16.735032242344563 0 1 0
322 0 5 0 -7.862569015498092 10.185683592698878 12.541765478122683 0 0 0
323 0 5 0 -7.837579691079464 8.167241083637784 14.669048127750527 0 0 0
347 0 5 0 -7.8091539236811025 -12.036553790162413 14.619672253996534 0 1 0
414 0 5 0 -7.812874035210046 10.148439730484982 16.642311042600863 0 0 0
349 0 5 0 -5.800398388075431 -12.005059362701038 12.61538779781496 0 1 0
304 0 5 0 -5.810520765135095 6.101625494151788 14.622278805685022 0 0 0
325 0 5 0 -5.839472146471429 8.118136774796447 12.627783402669213 0 0 0
415 0 5 0 -5.8183857575180165 8.190780569523787 16.646189096758278 0 0 0
328 0 5 0 -5.840056136477666 10.161383292047573 14.611637576672804 0 0 0
427 0 5 0 -5.8084052358931215 -12.045601296682824 16.6502379084185 0 1 0
357 0 5 0 2.2243341870981386 -12.042403333916518 12.675224831766785 0 1 0
302 0 5 0 -3.833044371667484 6.0694338935646615 12.655156228643467 0 0 0
404 0 5 0 -3.8456003877010843 6.17835009980235 16.58799673018586 0 0 0
308 0 5 0 -1.8193139387968473 6.127310119881516 14.652709438123365 0 0 0
306 0 5 0 0.18403976698897687 6.15120868306159 12.533284383244304 0 0 0
406 0 5 0 0.19899866634263033 6.0929448457048 16.615588841993382 0 0 0
326 0 5 0 -3.885252271643381 10.165835875874562 12.623033017925259 0 0 0
329 0 5 0 -1.864711688957883 8.164316688978387 12.638757375344886 0 0 0
353 0 5 0 -1.8703707005001593 -12.024575124258623 12.531337954248995 0 1 0
327 0 5 0 -3.7926555530562185 8.192726430996341 14.612975002835762 0 0 0
417 0 5 0 -1.7918737294335256 8.160694441365118 16.624366532385643 0 0 0
332 0 5 0 -1.8005242646572293 10.205233517000245 14.648571294749047 0 0 0
351 0 5 0 -3.846426451417116 -12.054981537835536 14.602985613107688 0 1 0
416 0 5 0 -3.825330145822221 10.243385581192339 16.676118189956146 0 0 0
429 0 5 0 -1.8161419394409188 -11.949630301909263 16.546260286151277 0 1 0
330 0 5 0 0.17660779302608115 10.218580785449632 12.580505526356172 0 0 0
331 0 5 0 0.15939576546014228 8.127042857381138 14.576658616269096 0 0 0
355 0 5 0 0.17963599708434708 -12.01063702807561 14.53452405796882 0 1 0
418 0 5 0 0.21025328200693905 10.185779928405323 16.605327416665094 0 0 0
431 0 5 0 2.235350401293898 -11.962092239527323 16.574477763372606 0 1 0
312 0 5 0 2.195048365561221 6.140287974202074 14.606196266523298 0 0 0
333 0 5 0 2.2040488731533214 8.182879290482024 12.582679965842381 0 0 0
419 0 5 0 2.1587216820972706 8.163108322309455 16.62984742215674 0 0 0
336 0 5 0 2.199142655938646 10.190835841273449 14.620710273704002 0 0 0
317 0 5 0 10.323390055291902 8.212956620055182 12.724693847957232 -1 0 0
341 0 5 0 10.307080801206768 -11.988752590699773 12.722529576460838 -1 1 0
290 0 5 0 8.271906496656783 6.1332236381155365 12.704280869581886 -1 0 0
314 0 5 0 8.273249289228357 10.1900237282034 12.782367951151752 -1 0 0
337 0 5 0 6.290951148561579 -12.037204602203785 12.67739291795276 -1 1 0
296 0 5 0 10.254931284766018 6.171227235262668 14.74923344325647 -1 0 0
411 0 5 0 10.301324907984643 8.240574520158793 16.700791485793516 -1 0 0
320 0 5 0 10.323282481296122 10.234984400154177 14.697562636486714 -1 0 0
423 0 5 0 10.334612722007007 -12.0733272258494 16.72006313487816 -1 1 0
398 0 5 0 8.240038978678841 6.113589138080854 16.77968427154963 -1 0 0
310 0 5 0 4.239949249634167 6.13936607353118 12.631476415367777 0 0 0
292 0 5 0 6.260658329430454 6.109784332182841 14.6664499721501 -1 0 0
408 0 5 0 4.2057632379522625 6.0482530244150485 16.647918857326626 0 0 0
315 0 5 0 8.270647594619279 8.147060771116339 14.745147939924362 -1 0 0
339 0 5 0 8.256183174884885 -11.977942966020818 14.720171520951942 -1 1 0
410 0 5 0 8.252651287296054 10.275684342699291 16.67466120353879 -1 0 0
313 0 5 0 6.250458087529255 8.15747689432125 12.642704374954347 -1 0 0
334 0 5 0 4.249357994695151 10.212009423359476 12.623932846498535 0 0 0
409 0 5 0 6.191133270056727 8.175954032254483 16.644908051976813 -1 0 0
421 0 5 0 6.202980970884085 -11.98305430138446 16.7670832100944 -1 1 0
335 0 5 0 4.175878916551553 8.132557948467527 14.616980863935758 0 0 0
316 0 5 0 6.216150719822269 10.194626122363132 14.675210971015513 -1 0 0
359 0 5 0 4.255021170975995 -11.957030770398877 14.62104431114582 0 1 0
420 0 5 0 4.174124822955187 10.164043177914689 16.63476640330761 0 0 0

Velocities

2 -0.0011083041062008483 0.0002912668558906518 0.0011816168064943142
4 0.0013922258605921682 -0.0010458107763823392 -0.0012226216870706139
25 0.001634783976282649 0.0002321554893928507 -0.001028380925989492
26 -0.004943649381025048 -0.003946868204997861 -0.0027094586599411136
27 0.003104929538354089 0.00015301847908589885 -0.0003900335134934478
28 0.0020972435819993436 -0.0023328578150400977 -0.002157205055158438
157 -0.0002094083992044573 -0.0014000255579688467 0.004452943213671651
49 0.0018665161117345217 0.00026679065542668334 4.71791776990849e-05
51 -0.0018636196333316822 -0.002288946795041811 -0.002414366362033497
169 0.001039550600866603 0.00022464791552712912 -8.495638346320092e-05
22 0.0017860405279724512 -0.0012422547703598151 0.0007746550569136428
46 0.0017190074207617662 -0.003937632548378668 -0.0009394654182155579
47 -0.00046502698396943116 -0.003072110975251551 -0.0056032555009394415
71 -0.003251800470140562 0.0023705237726328494 0.002146897485945145
24 0.0031623171419940233 -0.0048987234409060415 0.003987756061284931
45 -0.0028380461391737917 -0.00035885315069657806 0.0015940737614036954
48 -0.0012125285155703538 0.000423301016159468 -0.0010229094754461816
69 0.001391346096730713 0.0010083596258040162 0.0005311861392864962
179 0.0004906189110701895 8.937554190943018e-05 -0.0017214294096541383
146 -0.0034535564729944526 0.000889156249078054 0.001230359030400407
158 0.000791312697664506 0.0009106485719744237 -0.0009416439140039633
156 -9.428718193273231e-05 0.00015212328785999424 0.003227499852283903
168 -0.0015892907048338858 0.001485608211521748 0.004217937818831755
167 -0.002803791450186368 0.0028781968854909015 0.00011954196686938513
8 -0.0003992478398437696 -0.0012826645405637149 -0.004720508758307383
29 0.004819645862767612 -0.001883169564983063 0.0012986350561617743
32 -0.00026767996506977284 1.0491136850258242e-05 0.0007653032603047687
159 0.004219526208809405 -0.006180244153801498 -0.0018504736718145433
53 0.003066985715798059 8.5562469350753e-05 0.0012427911516063523
6 0.0030522074844681205 -0.0013856916126476404 0.0017070970811852253
30 -9.070168810642259e-05 -0.0015985603679495454 0.003711378794691408
31 -0.0003517759071273361 -0.005486558298536459 0.0008248926194510079
148 -0.0007437128613881683 -0.0009200373359128962 0.001536848317287708
160 5.385834759237388e-05 -0.0013904686094177218 -0.003502388984451306
55 0.00032179196328494344 -0.0021425376861771107 0.004011014829305954
10 0.0054433705095616024 -0.00017899226259568217 -0.0009350176706505679
12 0.0033550852482130992 -0.0011420951565033312 0.0015558211983602197
33 0.003163723819342624 0.002575721399499863 0.00014375529517899596
34 0.00022222579975865093 0.00010326159150993111 -0.0006678860289936649
35 -0.001580863389674488 -0.0015782245538535288 0.0033385751441186834
36 0.0027000049229644624 -0.0013154107233440092 0.002948190884359881
150 0.0038008699835983414 -0.0013738760716458308 0.0006806467314314461
161 0.000701499906972753 0.001444936541844033 0.0011210775012028644
162 0.0017088451036896602 0.002151474268652307 0.0018317456185283894
57 0.0010822481383168992 -0.001849154858836598 -0.0021781112652104733
59 0.003818436355060898 -0.002584281822025359 0.004005475640521028
171 0.0002867738424836711 -0.0005139878111573865 0.0011350991493449313
173 0.0020747348960419997 -0.0004229775795235455 0.0008759553744072757
37 0.0011982898413635675 -0.00486697404401279 -0.0016897587193746802
40 0.0010886388486737592 0.000843452356382564 -0.0003075628459905807
61 0.0011122071429144767 -0.0017768068127349114 -0.0006106046908093229
16 -0.003416256839534782 0.001255878868876612 -0.0011942815899341987
163 0.0015970708085798902 0.0002482358220034723 -3.0165013318399992e-05
175 0.0015268918898991624 -0.0010732919489582148 0.0010681061942985882
14 -0.0009120066106178726 -0.0006929085560418851 -0.000832353787970504
38 0.0014636820186850895 -0.0018492128866641902 0.00023021773141090556
39 0.00033503553357126645 0.0013053066730989223 -0.001082923873488669
152 0.005041826602829823 -0.003167370119055807 -0.00245028381631724
164 0.0018701914216452547 -0.0003198518726089658 -0.0016431859104419088
63 -0.0010962457795781811 -0.0018460900980726792 0.0004663710235999262
20 -0.0013153206230843264 -0.0027191253594474924 0.00037484880088445153
41 -0.0006365772815201354 0.00011987912024892035 -0.0013485955542871233
44 0.0015168870404243817 -0.0010182420754621235 0.0014250580490601588
18 -0.0014904827843376601 0.0021498019239670116 0.00065099132390482
42 -0.00013166062139518747 0.00042620729478601055 0.003872601615401323
43 -0.0008825608253013413 0.0004094175732466617 -0.0005028740535215666
65 0.0016111240698760145 -0.0002976373034477162 0.002893802797008205
67 0.00230598045585421 0.0018384695872248448 0.0011069891739526243
177 0.0008013219379729502 -0.0009296839070780218 0.005385266649549312
165 0.0040759045998370776 0.00019708636684260904 0.0005864715574646855
154 0.0007376575044520146 0.00041422668007492206 0.0017097423029160243
166 -0.0019028569541100842 -0.00017785107916406837 0.0007230969350804365
50 -0.004179670980563869 -0.0030752543441562342 -0.0015116849008239431
52 0.00023848197462886735 -0.003206115554910282 -0.001098600135303248
73 0.00031084586123012185 -0.002440311430042349 0.0021657431396937547
74 -0.0016049190614409613 -0.0026705883782372933 0.001097492011581103
75 -0.001120090721102941 0.0002536551790918997 -0.0011864485471359454
76 -0.001854641580990428 -0.0023247407626087696 0.0022905408905450246
97 0.0016084398418649715 -0.0006189194292006137 -0.0006994603359248274
99 -0.0033485082177556057 -0.0005683877540722049 -0.0016991808609360395
70 0.002788210663318971 -0.0009841203288803175 0.0006851982582367471
94 -0.0005068244155273313 0.00021428642142417678 0.0016119199931581521
95 0.0013775406263800201 0.000211272176843724 0.0009520048568626494
119 -0.0026862472191881647 -0.0012735221101005847 -0.0014022590914832638
96 0.0011150487549188173 0.00014953576584931456 0.00032139726190215135
117 0.0012735699219150072 0.0005759453510567382 0.0029811433310827948
72 0.0018501744971921518 -0.0015159806734772322 0.000545255238995783
93 -0.0014032828403118672 -0.001664231112394634 -0.0031347285870989864
181 0.0018990162333266988 -0.002229873567352875 0.0023290750863067355
182 0.0005108639946148768 -0.0014088089606564785 -0.0004767366315528931
193 -0.0012459059339670847 0.0007503270072733033 0.004086614667674803
180 0.003932613295279867 -0.002453956532345353 0.00128238645246264
192 0.001523623145500793 0.0035192286644601754 0.0024226940661395764
191 -0.00021625768509615366 -0.0017023321654823225 0.0035368367914760165
203 0.002355938871056042 -0.001054985310346331 -0.0017724479894979089
170 0.0006337106274073376 -0.003075126220942306 -0.003138284991025402
77 0.00046580680816487376 0.00031500734309535894 0.0013889015326779197
101 4.743352287852013e-05 -0.0019861102789354348 0.0007442429500578245
56 0.0013510456304332134 -0.0012529197019513756 -0.001149880754565445
80 0.0009719752525825222 -4.271458542364115e-05 -0.0007493047104823749
54 0.0027231916439053997 0.0015395983032362268 0.002682243507902946
78 0.002912752452825412 0.0005827071330402711 0.00010055596469610134
79 -0.0012995594352223283 0.0026030575051903533 0.002146413228881363
103 0.001765797796622833 -0.0042350972761269826 0.0016923116743796564
58 0.00222015504265168 -0.0003010633856060284 0.0022422395743557253
60 0.0024777410163557543 -0.002629607107791268 -0.0021390233335076042
81 0.00014288170511735773 -0.0011760709904080314 -0.001032971237091173
82 -0.000350422084184537 -0.0005484425320743134 -9.648883130192904e-05
83 -0.0016145908258536255 0.00029752249402318883 0.003784834945376567
84 -0.002184995950321933 -0.0009572076355003288 0.0004159220146396718
105 0.0009491458224317039 0.004105661296921894 0.0005665021549048193
107 0.0015551412707167545 -0.00057597871131976 0.0022540278345073643
183 0.003507672498996609 0.0001393693850083111 0.0014958929781435071
195 -0.00011003920366298115 -4.208849798179402e-05 -0.00029587909108520804
172 0.002240816553238032 0.00013878678156313602 -0.0012014540999562013
184 0.00024650646041823475 -0.0021775686867851513 0.0034203340811462773
197 -0.0014647762581875053 -0.0023978675514260985 0.0006905588720982342
174 -0.003600445160786283 -0.0012261221627910893 -0.0008645756497089196
185 -0.0005983224538565297 -0.0019413491009074818 0.0015476524137784987
186 -0.0019958726153006656 0.002804659396002958 0.0010882528119793746
64 0.0028974778875212135 0.001707091639960517 0.0029062071323081168
88 0.0026531852276394513 0.0041204150872250255 -0.0026742707398951845
109 0.0010734384921995248 -0.002494668849055475 0.0026280641886571774
85 0.0040210833204307895 -0.0007929964169937356 0.0014299392049186438
62 0.003342160164819971 0.0015148807672480092 -0.0024320753051409946
86 0.0005838666049887676 0.0009541608140433201 -0.0003224646997421565
87 0.0022633299095011143 -0.0018273846944831915 -0.0012096908047914186
111 0.00018846333414209034 0.003170691738699891 0.00024332115580136685
68 -0.0015238424780392506 0.0006394224045649071 0.0012830458133118304
89 0.004681863967580994 -0.0004055523278564441 -0.000912101883040649
92 0.0005348658295695176 -0.0025928474955436596 -0.00022324333321968503
66 0.0003481485881545827 0.0014761033195630326 -0.001388268100662394
90 0.000588548562733273 -0.0033522522831471867 0.00018832688423803533
91 -0.0023037079752626565 -0.0013509835530787038 1.690626451573144e-05
113 -0.00040020460287583143 -0.0017978928342821004 -0.0019738989508652233
115 0.0011893884001665596 0.001365766704680704 2.9780053863733595e-05
187 0.0024170890877951517 -0.0016316681067104794 0.0013701143004152638
176 0.0003434876233353613 -0.0023044657562552545 0.003698231159799727
188 -0.002992159972758492 -0.002225676144741892 -0.006353980578034698
189 0.0001395100295596007 -0.0004402186541065099 0.0038535908835583598
178 0.00137510619019709 0.001196020211086478 0.002921476544341855
190 0.0005035239854653463 -0.0015444390981962492 0.001078719001521023
201 -0.0008330713030722749 -0.003321734148777408 -0.00032811450937254264
199 -0.0004646444051799648 0.002354248038917831 0.0010045319630724511
1 -0.0010446966747580794 -6.691391277423409e-05 0.0006109935740305424
3 -0.0016980019635654247 9.301869485601441e-05 0.00047329203936771297
98 -0.0032355140602056583 0.0002327059046718963 -0.0001139919796714291
100 0.0014991424895603922 -0.0010165395362337468 0.0015866460996554665
121 -0.0022258753905512138 0.001290203732681396 0.0006720945015872724
122 -0.0018124746324459414 -0.003111078081415344 0.0022163509256077343
123 0.00331861571586974 0.0013887387777299887 -0.0021195675288272725
124 -0.0005487666454491657 0.0026566208392610445 0.00202698906671521
23 0.0022919799666066354 0.0032372894549787413 -0.002626512652008205
118 -0.0011754656393330838 0.0027275236467635563 0.0009870789749107294
142 -0.003326096548694227 -0.00019474202769816914 -0.00044267797099734545
143 0.001547564361727859 0.001872102127295845 0.0016596262595675421
21 0.003644812439255665 -0.00443588608580182 0.0026212147380390727
120 -0.0014134191616157294 0.00044092108638314254 0.003824532987749854
141 0.0014731496788124231 -0.0014680503732559815 -0.004514902790828182
144 0.0023133423573644153 0.0005374048697944225 0.0008127483576329672
145 0.0032578580231630984 0.00045800313925272785 0.001129226570876453
194 0.0006184873568556008 0.0014055384377960807 0.0019305513212327077
205 0.002017216123047275 -0.0006560635992363484 0.003025361724456705
206 -0.0010094045151671917 0.0016939871111694774 0.0021872161094750766
204 -0.0023108051358077123 -0.0001787523192421399 6.394342994491922e-05
216 0.0012515968701300043 -0.0019903786678179105 -0.0005917605664587252
215 -0.0003426816426562675 0.0005521145503535036 -0.0024445868130724166
155 0.0027351435972328988 -0.000486065115795103 -0.0005186496798543226
5 0.0006535902453511948 0.0006270352975052045 0.0024017992867001767
125 0.0006747419184099168 0.0017570001456978348 0.0002765378551692051
128 0.0012413315404549675 0.0011910104595449817 0.00173201509494008
104 -0.0037057248563655706 0.0004505337705253035 -0.0011229926840339885
7 0.0013846478624908766 0.0009277019933456094 0.003239350460761088
102 0.0032866187664275922 -0.00035575221512622714 0.0009192612990748716
126 0.0037425566986477596 -0.000659078830166904 0.002603277539123917
127 0.0011279186224074126 -0.002679315674353909 -0.0002024786615323174
9 0.0013808645520625971 -0.0029893320083044747 -0.0004260464874471789
11 0.0024137864624563486 -0.0012268568042038313 0.002439142463752486
106 -0.0009644174814207522 0.0016050466051872189 -0.0028705501219974732
108 -0.004033490960555345 0.0005294456976985572 0.0014342543332903654
129 -0.001903965802787908 -0.002690083642762903 -0.004176618462343856
130 0.002306732572507518 0.0023310565631320334 0.0007965567632397352
131 -0.00027879826599090684 -1.5762451588528957e-05 0.0009195907486738921
132 -0.0010698701529697368 -0.005384570344250373 0.0026022329336630357
210 0.0026000896247554664 0.0002546633249922076 -7.454277414022981e-06
147 -0.0005664128952347244 0.003662566534682318 0.00271069328125807
207 0.0007583753241043778 -0.00027111456855340805 -0.003173445065986922
196 0.0018746545080680294 0.0022640759890996585 0.00014443895266840552
208 0.0006298031264035956 0.001000045705335984 0.00020994269159483868
149 -0.0007491460549006794 -0.0012949487978903267 9.920201566764847e-05
198 0.0028285213254483125 0.0012109674642107751 0.0020178142916606016
209 0.0014521403747309305 0.001575108414135521 0.00019954670160737763
112 -0.00424046857730144 0.00025344013569889327 -0.00121233569631411
133 -0.0036260658893361598 -0.0016420409199079395 -0.003721393455605952
136 0.0006061571367537136 -0.003742357990760974 -0.001070608740302322
13 0.0005560020134505851 -0.0019865069494622773 0.0017163501509099165
151 -0.0003622709531386536 -0.002171716946253986 -0.0033632587697455443
15 -0.002523103345596545 0.0002686483811426788 -0.0006790880588141167
110 0.00027922686768104115 0.00014874702202465767 0.0007961468181074276
134 0.002491033619113455 -0.0014524492276447281 -0.0005786772864226933
135 0.002411202355642352 -0.0014965498233037527 -0.001814101175784322
17 -0.0034947775764983167 0.002304741418403043 0.002649674129571585
19 0.000890908543003505 -0.006400277940677575 0.0005976405283258631
116 -0.0034681029341678696 0.0010631689514034187 -0.000976831699005223
137 -0.0006132516142888861 0.0015376845624971408 -0.001844226144964253
140 0.001455453437477472 -0.0013931173820661122 0.0005363126063995807
114 0.0016007568955160837 -0.0002145861650297606 0.0028704241041445566
138 -0.0013810051629447827 0.001055149468943952 0.0010480947940356446
139 -0.0013221614393900817 -0.00245672003318711 -0.0008837015587115331
211 0.0037127959605707216 -0.0009429801032185482 0.0012810536804682738
200 -0.0016058512129167324 0.0005372948893284412 0.0028173338209729728
213 -0.0011266060421182735 -1.1907319787274636e-05 0.001800753906875815
202 0.0018926348236043334 0.00048202060096020017 0.00502251033334895
214 0.0004160566523304259 0.0004051790080259631 0.0006517794521287648
212 -0.0002914162116375458 -0.0010907846164333033 -0.0002875154343687708
153 -0.0038465572882431147 0.0033485380734602876 0.001625878018688857
640 -0.001244496829096293 -0.0025676277671220693 -0.0032397946612176885
641 -0.007738163251603191 -0.006667434999287149 0.014460069894994126
642 0.0006935421400298458 0.0025076120382145073 -0.000931882260633746
2400 0.00012457842840072933 -0.004596878595961385 0.0015875857463790249
1071 0.0016099594639564824 -0.0005080255437032965 -0.008633109768895508
1069 0.00519324656918791 0.003036278819437146 -0.003494778995370054
647 -0.016977396656617367 0.007507552342234364 0.004540654919379007
648 0.003448049195834656 0.012307431824325176 -0.011500524328782106
715 -0.0020545418641896994 -0.0016061512971253897 0.00019881090568119993
716 0.0193759598822881 -0.02194288537404894 -0.004558794994785404
646 -0.005817165739694597 0.002979254583064035 0.0005545145840735295
1434 -0.0009353918504787024 0.000275582784481854 -0.0041610814737042985
1070 0.01116254919615905 0.022004466850752653 -0.003214015182784653
703 -0.0029114335607970995 -0.002644002697839944 -0.0005325807773849749
704 -0.0017355895018582638 0.0016448543413348365 -0.013875908316538359
557 0.01638575120983379 0.0017348727003270942 -0.03733798470286205
573 0.009483213692558575 -0.009614783021903812 -0.002632137767065183
705 0.020580097353834346 -0.0035725397281300155 0.01060192548887772
1143 -0.04175641284224651 -0.012637206250512107 0.00408257101029953
714 -0.004831229253352499 -0.01333615104034992 0.014248334536386803
556 -0.001123205260393094 0.003923409101650464 -0.005536759644548212
712 -0.0022575792316650548 -0.0086263801629416 0.0006693551375149753
713 0.015396739831458641 -0.0007404703130393194 0.0016120412345293788
571 0.0016526491010993808 0.004629544826480017 -0.004236521930141825
1141 0.007329552374819833 -0.002847713604641576 -0.005742331511776704
1142 0.011988149411811193 -0.007349297855945061 -0.01082413803014783
600 0.03182583317168751 -0.0038148892387770256 -0.002919111269958724
572 -0.01206519765440534 -0.0134555283806846 -0.0035145366936810874
1430 0.0012995233646312739 -0.00203830048004616 -0.0030075758460893455
1429 0.004615866954587426 0.005083099943511472 0.0024954111175458657
1431 0.004318912979619077 -0.01861009475311699 -0.01462561191261231
558 -0.005128491735022774 -0.0029186550428439845 -0.015716978218440755
580 0.0025107234752384778 0.00010356378353024935 0.0002868089586063027
598 0.00791576514603078 -0.0023778893004402406 0.002239575631240395
567 -0.019754479567535416 -0.0003732086603513347 -0.010319372043847426
566 0.004959268780886029 -0.015103776297167219 -0.023574229170020965
565 0.0015016238820195359 -0.006185121486245434 0.0015763165879278745
1064 0.008338346832184568 -0.01563152732287204 0.01274809805998507
1065 -0.0005646657158955037 0.003224038246502728 0.004460840983735971
934 0.0051167077281069236 -0.005754013275034506 0.002274331702571474
935 -0.016191328569214253 -0.01054439230170158 0.0032871035716336315
644 -0.013165609988928653 0.01544119910968776 -0.0023276549639719116
942 -0.005732870776139035 0.010847460207988442 0.010646146569085637
717 -0.0041757322660715785 0.027380869792808443 -0.0003905791403004698
941 -0.008072582382613045 0.00829380161798701 0.0019349975258248322
940 -0.002439807591134183 -0.0005408836565518925 -0.0028181748702187023
1442 0.00917152235179701 -0.0232454378240726 0.015027186037811679
1013 -0.009595258794253096 0.009840619673314736 -0.011277022143894687
1012 0.0019878692559489692 -0.0022251969255215522 -0.003052934897301812
966 -0.005653102987350854 -0.003613475302303272 -0.0031386603001252837
650 -0.015165089113348183 0.007108507390696229 -0.01060717939546935
649 -0.002966190949223499 -0.001986746073845378 0.002883185084530811
651 0.009205138957495005 -0.00792436377951618 -0.007466640254282752
964 -0.0016992040639761698 -0.001128550374835606 -0.0005067568745878473
595 0.005000477501388451 0.010844299083755508 0.001056639291551054
965 0.020097350886561165 0.009973559253214581 0.004774696533973304
596 -0.0026873902933615503 0.008921130099859703 0.027451048211947687
592 -0.0012703545686994252 -0.002186748669729544 -0.0019477868776935216
454 0.0035282513070288347 -0.0008970639433647144 -0.009187859191427497
455 -0.0022979386500162624 0.0179355650719114 0.013613084926765641
456 -0.004994338289566611 0.00485581443836214 0.028540674726301573
523 -0.007947531447685948 -0.00353612039216738 -0.009780559609964708
524 -0.0032639751592493348 0.0066220836617251365 0.02223223265826716
525 -0.005145673941064279 0.013169240372592808 -0.019088919551120066
593 -0.018194175952689545 -0.0052554983639574076 -0.03366325051251812
451 0.006667155789959105 -0.0008316860659357722 0.0059368129112520466
452 0.016192341899288875 -0.01134574219684181 0.013608496345647727
594 0.00021886292338868047 -0.010069993849913058 -0.010777731064513572
673 0.005860348550336253 -0.010465295626891899 -0.0037005273483754963
675 0.0009943546236478857 -0.013599727400570711 -0.007872969153973543
674 -0.014243205495748045 -0.012036349258218833 -0.04440505482646591
620 0.0043481952217497314 -0.0017951969678142693 -0.003275802294735428
597 -0.006379034737717896 -0.011480471838923223 -0.011162144618708215
621 -0.003558437915483632 0.00032633270218799057 0.0038001393071256423
653 -0.016787144623191173 -0.01481603063777709 -0.004205412451267637
478 0.0027034658679872406 0.0071257327833585205 -0.0016563417793137452
480 -0.005909176704447585 0.012115893365562035 -0.010024485853399061
619 0.00039526040974594516 0.00037697181402162553 0.0012880846088590553
479 -0.011305980702999655 -0.017513408403618504 -0.005931885626202384
535 -0.0013703740910090624 5.359631106706472e-05 -0.005131640092404518
536 -0.01633446228064872 0.006513117545114988 -0.00045434466169209627
537 0.01607252477165919 -0.0031205224545892514 -0.005755713372904978
1014 -0.0003189852519991261 -0.01478696416367701 -0.0006033988885873162
652 5.6990629344621543e-05 0.006675507428786892 -0.007461370112089262
643 -0.0018593924306411923 -0.013347344929482663 0.005455924530504806
645 -0.0023191863457797373 -0.01666139006494143 0.015902732178103583
461 0.005394655091136982 -0.006537952331429743 -0.017752897098882624
1441 -0.002252201397205364 -0.0011597696519762871 0.005677905095609148
1443 -0.007176145882590676 0.04284963807795001 -0.020923152881233285
936 -0.003538328377532988 -0.008606643631631125 0.0002968646169124809
998 0.019654936555319025 -0.013416085367954717 -0.022297686914260092
532 0.0001349684877372575 0.004434781823724222 -0.0008577911841174206
533 0.0003001749955654282 0.004092200660602568 -0.005295750415064629
534 -0.0006457422705449723 0.0058245214811280845 -4.865564446144874e-05
2399 -0.0040160221904625435 0.0026668657229618727 0.006865162956318069
542 -0.01217947699418861 0.007625516533865828 0.004366199368095669
491 0.017226149248238416 0.01900889768594214 -0.0024100099687477546
541 -0.0020968979544285387 0.0032815195090802204 0.00028102075131125555
543 0.01083853688731482 -0.003961617592098572 -0.0038343640887107725
555 -0.005610363926638126 0.0008384416846824767 0.00848072999234464
553 -0.0025217760334841277 0.003920730919540079 -0.0020648326440571617
2386 -0.0012348509839324485 0.005354178677267193 0.002862566143618992
554 -0.007667730494268237 0.011999463845244859 0.006334747943019716
916 -0.003967345453242272 -0.0008812350918936293 -0.008509808982637755
918 -0.0025805103169392234 -0.005285448466358172 -0.004287519070038044
989 -0.0006013950327875933 0.010152825554471936 0.020940802685355885
990 0.0003242258679680429 -0.0038371524985905694 0.005581471930762977
988 -0.00015519143707439157 -0.007216223713032548 0.0016417479009369768
917 -0.0077958887269249585 -0.018016560578965987 0.017539175548506414
616 -0.0015764389844448454 0.003994993101100127 -1.6627116967559782e-05
617 -0.010024822293501868 0.009136287367560197 -0.032989345201440236
618 0.0007818133495897307 0.004415653743975658 0.005379217451876262
626 8.906807696526956e-05 -0.006501591490247296 0.002341135565383364
625 -0.001845427243470608 -0.0028027699546191486 -0.0016804448533156101
627 -0.006434882997156923 -0.005108057198916392 -0.0035470399774994218
685 0.002044315455610308 -0.0029005044038732776 -0.0017639401222463436
687 0.007923595461167722 0.00043824356041717116 -0.021696457962010918
686 -0.014213418012909278 0.00762544917270553 0.013779790415289738
769 -0.005798684022698277 0.0012342214404694133 0.007413705470179135
770 -0.0019796782263084107 0.00018692376277963332 0.012416493635917535
771 -0.004068473817580149 0.0027063189402052753 -0.0035825512617397937
463 0.00038596177534508093 -0.0005054462638134025 -0.0038550781087443777
464 0.0005638918627666751 0.011967502740028639 -0.018339428908678106
919 -0.0038007073397816546 0.003442953041906992 0.004461191350322052
920 -0.014824763078668899 0.001814478401595759 -0.0009652898285682996
465 0.015830787759505645 0.005255262521031691 -0.006410910755859009
832 -0.005471957380496635 0.0009397721994287507 0.0028003218829882656
833 -0.026828136768444606 -0.01000151391978105 0.0022308547558138395
921 0.009393441599321383 -0.018262900630624825 -0.005251470431569991
487 0.001495318304061366 0.0028507412290433884 -0.001042045348364974
1506 0.01082931398482782 -0.0001295842894377302 -0.01846948147480011
581 0.0072725550466236815 0.0012370192621638837 0.003455693966360661
2387 -0.0015802898766604971 0.00860784770081057 -0.00106605859136411
2398 -0.0034739043821835924 0.002082130741506641 -0.0020764392748521066
599 0.05711125500753067 0.017378250209527903 0.020004686912864597
660 0.008599183298108293 0.025389809892018687 0.004646792251760796
739 0.0011862002538224894 0.0026282023723019168 -0.00015734528901397958
1093 -0.00714751214942386 0.001375936563436993 0.0034910310187714353
1094 0.007914517427776184 0.015194461991264507 -0.004072077445814557
658 -0.0024708361682911606 -0.002090422613592396 -0.007652491516069338
659 0.0036404872026775574 0.0011036462077902898 -0.02719187631898792
724 -0.0005978823823814793 -0.0020550161606607124 -0.003882319910146443
726 0.008695473021527872 0.005852166571691493 -0.013809422176157996
741 0.0054792874095450275 0.015662363640561974 0.005773797916096535
2384 0.004555087504044879 0.003998188279914794 -0.0023025062970039984
1101 -0.0016509278643023122 -0.002576777337894146 -0.005103396914186094
1100 0.0020091079911620097 0.010126791351618755 -0.007903150378009123
747 -2.852335019369673e-05 -0.019511884323543893 0.0022995696643849863
1099 0.00021065126881168985 0.00502635472206575 -0.006743305288241424
1144 -0.0003268145313091487 -0.002961122029634436 0.0018912063794671746
1146 0.004323870037284613 -0.006917887876900477 0.02056445328100112
1102 -0.0014400139226291974 0.0017126511203640088 0.0043266379328742045
2390 0.0073185007452090875 -0.0036409470565441095 -0.002374204370867277
745 0.005174329328111347 0.0011438495413613034 0.008580070776468328
725 -0.008290251081521533 -0.014533555709097985 0.017244408502203264
1095 -0.024142156480771317 0.009564403594925263 -0.00046512877944284223
1103 0.0056234128177899585 7.204713347942701e-05 0.00528286319813033
1153 0.0009121806539178377 0.010870037824184163 -0.003399154606334927
1154 -0.003773734010066646 0.006149847318213537 0.0009404675486452804
1145 0.0105851646430071 -0.016211882603705298 -0.007804861049309534
1155 0.0036137012399267416 0.009247149635252265 -0.009644928047649716
727 0.006315644178136775 0.0024189252136322414 0.002741698453627526
729 -0.006471328863483407 -0.005636465075064793 0.011950975425524648
728 0.005154134619100685 0.004244641022417373 0.012100388256661576
799 0.0024419008220036773 -0.005709240272059956 0.00034281524841752814
786 0.0013041155031335505 0.006428448557623112 -0.0051181436455137366
785 -0.0036308233341594445 0.010456727907410299 0.0041576274950918595
1104 -0.009831365511285129 0.002716211358376739 0.005981363716214054
859 -0.009869521401819764 0.004003172822938829 -0.00952919813021572
784 -0.0019400045201246295 0.002157907880715291 -0.0044307954523823525
861 -0.015064898291761214 -0.012218742794474515 -0.00578221614819125
800 -0.012932138285889011 -0.014990696242586693 0.025053256570771294
742 -7.282279266800699e-05 0.000885077973233231 0.003206598749767696
1648 0.0009460215537450086 -0.0029065729429264392 0.000383730340902605
1650 -0.01728694385564743 -0.00111495593458863 0.008643528020992077
869 0.017190336757297784 -0.006568681908280453 0.026594959880485054
1031 0.025253025902584186 0.00350011868548936 -0.004608522743004662
582 0.012306138233881766 0.002395729768498735 0.006187616985180349
733 -7.653843514101051e-05 -0.0008521601755465996 -0.0022215289841835423
606 0.004383988672951042 -0.002955677178698216 -0.007129141386065133
608 0.01278588766317219 0.025558174264757285 -0.0016044192963048805
735 0.0027494967403383854 -0.007313392521139765 -0.01635287387243543
734 -0.0025391927929178854 0.0017186201662693415 -0.002623466991055365
740 0.0017227836549864272 0.0031315531249342062 0.002014488354772288
654 0.025215023664328685 -0.006577033919732906 -6.104957531393487e-06
609 -0.008200561237681534 -0.007657317551170911 0.0033690418755206665
607 0.0012525443714338563 0.0015949435487195968 0.0023076417151504116
669 0.004975978025109619 0.013475768755472703 -0.001853599276578317
746 0.0040131045093522765 0.00786359196135622 0.005089725977074779
1097 -0.0013180847731859475 -0.00046805052594984083 0.0029179610856202988
2406 0.001101104824092786 -0.002189708715390042 0.002662151113262845
604 -0.005421891391244912 -0.0026219527017167757 -0.0014701251888171952
676 -0.005544582931580972 0.0007398965377537731 -0.004886719981777226
677 -0.01303116060547509 -0.029230561596626247 -0.007076364659394498
678 0.018811518369368393 0.024362826339767052 0.001344637446711928
690 -0.0014404846897377956 -0.0006740194667894759 0.008890105272558567
1197 -0.00486524648630072 -0.00613298960563334 -0.018230216492926585
1195 0.005004258724545737 -0.0032660685192149254 -0.0042477416045853195
1196 -0.0036384127900606746 -0.014741623564555148 -0.005909490171271228
752 -0.00343240263612538 0.007831537473077126 0.008262047413605528
751 0.0038994345784900326 -0.0038485978418137507 -0.0033748255770946643
737 -0.008925959781311282 0.006369493670938989 0.021251232053763912
753 0.01590117955709111 -0.006156174906870963 -0.015169206418779998
1096 -0.0004374454848918313 0.005401844115320783 -0.00450693627096885
1098 0.003606795377610225 0.02507760573668637 -0.010399503372025928
736 -0.0025962820890088724 0.0032925466541988283 -0.004211521212099224
1177 -0.0015728966841196646 0.0006080258637795615 -0.0008993199106169497
1178 -0.00665264251238493 -0.0007366890133610813 -0.020159810456430234
738 0.01583044177973796 -0.014924778160379727 -0.002856031140153087
748 -0.0012203616318004458 0.0004470364132921324 0.0013613634602553713
459 0.003462753373603139 0.019486599253218086 0.006438838581251801
458 -0.0037429800474263948 0.0088969545191202 -0.0021697244700303094
457 0.001241500464821882 0.00016132161146383328 0.0009195287812269971
977 -0.02166410289289002 0.012032559895164469 0.017643000179489627
749 -0.005028209424372104 0.02398886805769113 0.015498758088093739
750 -0.0038944899666935625 -0.011475537201435666 -0.007349268369406724
1276 0.01021162391457282 0.001966912761213564 -0.012387605414200264
806 -0.006968718674217198 -0.014059060467156813 -0.03600662683404547
1238 -0.010862259240023844 0.005524041710473458 0.0010665878100213756
668 0.007656182946120364 0.0013534434997473873 0.002465092207009323
667 0.003022001275539783 0.002581327274029899 -0.001607444234319845
605 -0.013084021051258431 -0.01905677646044166 0.0037480013082382435
1373 0.015631825964542066 0.007820761785514644 -0.020686239434728682
2389 -0.0006052580042089903 0.0005368462398035854 0.0011654879938032057
688 -0.004275132132237518 -0.0018647836854070621 0.0026790784409887252
689 0.009727980803153307 0.008185461962731703 0.0017459794631528823
1060 0.004464890453914986 -0.0015438147380480427 0.0047374908457194715
1216 -0.0012734861632467474 0.0038015984739191073 0.005645747775516467
1217 -0.0136723456364843 -0.011597000333039849 0.004308342687145566
976 -0.001138033853893788 0.003452251450518839 0.001527490280189796
978 5.331380494318043e-05 -0.024834266776747174 0.002618812254165426
1061 0.009866389363792229 0.014363232736299752 0.00504628882098777
1062 -0.0025997043445791764 -0.006037836157557863 -0.008930907065677474
793 0.0050641775455201685 -0.0002814088376871811 0.0012709014236424892
692 0.015106894902703201 -0.009096875215187414 -0.007204141013237433
693 0.01683914276242269 -0.009331286045180569 -0.03247765729899925
691 0.0024517747502196155 0.0025341628871083867 -0.0027182112084107985
768 0.001565173462258274 -0.020397038415886824 0.014597776524614933
766 -0.006873438979302974 -0.000368285709388749 -0.001024155389204606
767 0.00881576882542782 -0.02287259500330955 0.006502028921493006
700 -0.002827143009654608 -0.003934790910977528 -0.006869678034676679
701 0.004927646928237513 0.0005125354362006874 -0.030713534016195962
702 -0.02705358548250247 -0.003900431896382873 0.016341488122408165
1133 0.004854277014094333 0.013608341677868037 -0.009268014612771247
1134 -0.011152218047590897 0.009171501059733831 -0.009171309848433352
2397 -0.003045677931450526 0.0003829418678599841 0.00038698247912391043
1132 -0.005754138802927527 -0.0002308818928831293 -0.005386510515865143
1218 -0.011392496888634121 0.002974923536443712 0.018327161340556074
790 -0.0023446508968366577 0.000961405880591289 -0.001503566172603046
791 -0.014746210261594297 -0.01280663489666189 0.009471483317185737
792 -0.01960641004671487 -0.0016646124681055346 -0.00272534468294726
794 0.0042897039910738885 -0.02374322345487842 -0.002553825394892131
795 0.005625624958449393 0.009961175980788817 0.009885857814638977
827 -0.012108671842111134 -0.011127446209067112 0.024555494316275926
1277 0.0003935924539083656 0.010347688958020544 0.004507600070450718
1223 0.0001330151019372076 0.006454775374379977 0.0046333586265374154
1374 -0.0077034769014354436 0.008164981190358602 0.003765527857740053
1372 0.0042795678621533086 -0.005552604143003668 -0.0014136889787677914
1224 0.001929388131977714 0.0011210226272993134 0.001877922303331994
826 0.0059675494761857965 0.005075688113618156 0.001500502002212184
818 0.03386770383387356 0.026813733305090678 -0.016994094191952358
1152 0.013748730083355207 -0.007173242826502255 -0.0014293471046381732
1150 -0.005154554863629042 0.003253310348131063 0.003265979587342625
1201 -0.0021272056420791217 0.006270901139227836 0.007096912880056109
816 0.01161418892407765 0.01331451445031796 -0.02870167814422261
1202 0.013050098198940922 -0.00990263969602663 -0.03339198407597092
1233 -0.009547589867863046 0.014128608151355197 -0.004565622023021876
1222 -0.0010188354011427337 0.0030859527432081165 0.002119430028279532
570 0.016082536271625585 0.01410063311056379 0.007198943211694412
860 -0.003635532238711307 0.006410528799608914 -0.03000383607864098
801 0.0012470500747630742 -0.005917174214687802 -0.016037879006277653
1156 -0.004468131365468375 0.0010647611551224338 -0.0008651074119892683
569 -0.01599743716572212 -0.003167765821298337 -0.005895248741250313
1077 -0.008811069153163695 0.005148608512177204 0.03971766456514763
568 0.0008735881811822182 -0.004432485157872984 -0.003422371967266047
1075 -0.0030936578534129394 0.0025437261539901245 0.003840592642625142
514 -0.0018145680966762665 0.006371913492382016 0.0023704619304652113
516 -0.006685185178203611 -0.00937390314294743 -0.006070837450491244
1076 -0.013163159931415074 0.013412881834483727 0.0016353465647961493
515 -0.0010354292814493866 -0.0076095188318753395 0.003127102546406613
512 -0.01916001419874351 0.006721060832861702 0.010934929867532394
433 -0.004711668671462997 -0.0007557861505330751 -0.0033142908306802257
435 -0.010968060005621798 -0.0009256550591954717 -0.005658565638325842
811 0.005254979854222112 0.0023653909162690686 0.0007038885143477272
812 -0.028213835517372613 -0.011473741171765625 -0.013155101964596082
813 0.006069459621552433 0.004911510395100763 -0.011657498390975561
434 -0.006698427418915587 0.006818237160933291 0.0016397668214572657
497 -0.0007939321267623201 0.005659378996585621 0.00611508327977156
496 -0.004447509190365385 0.006335380094482366 0.004425472308611065
498 -0.015565773223041354 0.0005963363033089367 0.024009923265968142
856 0.005340440213613295 0.0063894618046772015 0.002062635224302324
858 0.00694243069365512 0.0041294181209477684 -0.009460440541750298
857 0.004076355850660101 -0.0002102070310523611 0.007584255196799492
2379 0.0010149337823993226 -0.0018475033371759906 -0.00687329316181953
1383 0.01574589352813773 0.05671920351272122 -0.007705067888077721
1157 0.0024152575080177386 -0.00406422514730934 0.003005543461965591
1382 0.01299275407388197 0.013716289821538802 0.011629155561100748
1381 0.0008321006847350657 0.0035162253000756366 0.003738056730514187
1390 -0.006355900378993671 0.00240524001155388 -0.0030177666676228796
2403 0.0004232210189448625 -0.0009439211236445251 -0.0014250022858385654
987 0.007590644809297178 -0.0010740753167634875 -0.001616655361428445
985 0.00215479442233368 -0.003669300831982792 -0.003864165890139091
1391 -0.028829398878675326 0.006788065684793195 0.00946076114546509
1242 -0.0073176525190194255 0.006726252733303658 -0.010612179254087572
1170 -0.0063024229086322756 -0.002225809406303195 0.004796291932523781
583 0.0012167091167499403 -0.0012191154013135453 -0.0012828781089203357
585 4.767834411192984e-05 -0.005441141555271864 0.02255848288765378
584 0.003022003653303272 -0.008671628744736617 0.03077107492224513
436 0.0035334255119034257 -0.001786774597175421 0.0014528881240215468
1169 -0.009925953798055024 0.0019106160524201298 0.002434155255677997
1168 -0.008619564310458724 -0.00019541842289305265 0.0029175320702503425
1240 0.005971390123964622 0.007899724256186418 -0.005505601315361206
508 0.003314977047683058 0.010964951355183357 0.0016171755376066092
509 -0.012288571708648234 0.0006654715789595317 0.021209043686479058
944 0.003909897393613588 0.0022416513218203662 -0.014527431871105882
460 -0.002118426692859746 0.0027512242177715725 -0.009724706231544698
437 0.011611171669102988 0.003255835777450389 -2.3313458203593755e-05
438 -0.004224506335604956 0.010325013287567195 0.010040938615813602
949 -0.0007412603337921303 -0.008169140044712626 -0.006418998945572418
951 -0.0306280946695309 0.016234570810315357 -0.026036761812593772
510 -0.006060296000391907 0.018663919197715303 0.004433778708343689
805 -0.0013366186686170674 -0.0028003964286598105 -0.007793897128117444
807 -0.00810915969321967 -0.007083850285180506 -0.020972817919203288
447 0.0033743478979836503 -0.011841755227448274 -0.01942795021263742
482 -0.001328010933008682 0.001966891341414245 -0.017693153058586895
446 0.013401013190630617 0.02088113912110525 -0.012655343885031657
448 -0.007641527599160099 6.920226194162527e-05 0.0016826640471210113
450 -0.013334843448043188 -0.008110958944929431 0.008074628919825222
483 0.015787234105359697 -0.009288360609960085 0.01667235814623966
954 0.03886113580592019 -0.007693484412647333 0.022346473557147917
445 0.003383615813125246 0.0062072120647236545 -0.0023316634799682807
953 -0.02460710679975869 0.021243491789878995 -0.011892862098398668
952 0.009478907284827118 0.0006191249271769909 0.0013994861328852325
471 0.0009916943834387094 -0.011376025624642684 -0.0027676657139247616
950 0.012715135676766054 0.01458589589740557 -0.007278301829196141
829 -0.004773952014839337 -0.0010873465699453508 0.003264768302191492
1239 -0.013917566903475785 0.0023461324825642966 -0.0053530134876277205
469 -0.0006079733960849556 -0.005785842799231274 -0.007718972180848628
1237 -0.0047401078140781 -0.001381228650697756 -0.005550931825835959
481 0.006188442636741747 0.0009797259933843564 0.00012675414464084056
945 -0.00949267729175269 0.006939806988600718 0.006147998769519927
943 0.0048029743888585285 0.0016027164886978117 0.00159829190701622
462 0.008931285994751919 0.014470210915114603 -0.03518918924049215
1278 0.015820957897859995 -0.002791199425185752 -0.02221705350990222
830 -0.004469898429456558 -0.0011030409621084296 0.00015390039198576844
453 0.017272640238844315 -0.013443641262488938 0.013668294406551226
901 -0.0009474291870903631 0.0020653001788051746 -0.0015724237541870547
449 0.001016668658531396 0.004807191850630609 -0.004563192601180992
1241 0.0005563634500223957 0.0024777653588504193 -0.014277888094127177
831 -0.004052639404189246 -0.0025680007634584128 0.0007151261672816929
494 0.008158638202726496 -0.0019335867867670928 -0.0011615019278323163
834 0.0034441799964050317 0.004372713524240665 0.008472665746272989
470 0.0033352682570590465 -0.002383600218075557 -0.014322308616276036
915 0.0063494659522857185 0.0061901504636615624 0.003676809166056323
773 0.005013601018597713 0.01381436209287722 0.006944189034407352
484 -0.005846334076727847 0.0006702227284460374 -0.0071865727404763335
485 0.011357945069655285 -0.012959405511098523 0.017289619711997432
486 0.002526024074132915 0.0075393597620223235 -0.026148068182300685
913 0.0011367509913675273 0.005693788294929446 -0.0028091996576017496
914 8.311150720418577e-05 0.008081620645988783 0.0018819484585709358
828 -0.007990655534125741 0.001279423261764476 0.004773376394772832
774 0.0161770517372214 -0.011594559849589512 0.010907530696678498
817 -0.005948675167139961 0.0026611873619234033 0.0013140560376100532
819 -0.009062245143979302 0.007444018377183401 0.0039296987244484514
772 0.002510290551210047 -0.0007675084582387624 -0.0016165860441718913
852 0.0002892199861223167 0.0063364122001189765 -0.007091191352796582
780 0.006362685949445849 0.005911753906275718 0.004955329868504709
489 -0.019602874280293274 0.019496266744754107 0.0006292897989880205
488 -0.019772583513034223 0.01993014024114624 -0.001958672920473563
778 0.002102517079401392 -0.0006325586658173519 -0.002500358593619825
493 -0.0043823464223675555 -0.004233687690590091 0.003246808776711652
850 -0.0024428593621745476 0.0009820317239426228 -0.0007651903052651443
495 -0.014659334741059361 0.007853403929727734 -0.0013583504549657035
779 -0.004241532273836825 -0.010720431307140189 0.0033681215023093555
847 0.00016084230383634686 0.0059390217200578545 -0.0034149686520731108
848 0.004361770701753196 0.014577577098490882 -0.003571959777717573
849 0.019743169685833912 -0.018720790765683448 0.002808322944750059
851 -0.007392256606567399 -0.007623810622557622 0.01444285514336312
862 0.005748395625781277 0.0012716760298350335 0.00271002154500923
863 -0.004019053730127319 0.0004879329823333598 0.013240449533359988
864 -0.02279275128346419 0.005998607926170343 -0.015412893013164836
1291 -0.007823904153166193 -0.0021801232221665147 0.0023905448316277693
1292 0.00983726988527111 0.015857892210516807 -0.008873665881779949
1293 0.003558761094747978 -0.014806487996885942 0.0034433398786626636
2392 0.0016007199851329184 -0.0014950130352231205 0.002445179020258747
1721 -0.00439256116704915 -0.01219115549980908 0.018241302280942572
1194 -0.017881398468464985 0.01768561138021961 0.022411587764875427
1192 -0.0030166939921916353 -0.00048632190525243866 0.0029470600640690743
1193 0.024899042186370464 -0.02357615589984995 0.01795330310654358
839 0.008294285366619698 -0.0016991628882103756 0.010087381046201193
1151 0.013668949539353563 -0.004017784763769314 -0.005085051704208095
1719 0.0009935273246733697 -0.0021229892266784495 -0.0051612858999738505
1717 0.006699818426654556 -0.003850346187421934 0.0038846056634760013
840 -0.00798266698092843 0.0007731729834385814 0.013361921729641082
838 -0.001772649060727403 -0.0020805709176873475 0.0037804777788775666
1595 0.041043998445521694 -0.007821732673546463 -0.019382356233384048
1433 -7.732444773374826e-05 0.0017754777211633872 -0.00013600039209374145
970 -0.0020313672236879957 0.0048720181389699645 0.005511965826211641
972 -0.011967350810649494 -0.005496799243086898 -0.002093087841932662
1432 -0.0005944635170675778 0.0025541731667642303 -0.0029293800857974825
960 0.003533980758487089 -0.001685267758755868 0.002356308008360796
2381 -0.002220359817937363 -0.0021692042233710904 0.0023864163012052757
958 -0.0002594268290178575 0.003766837769114045 -0.0074710763005698165
959 -0.006677736651269647 0.005019254170441819 -0.008783019376388649
1402 -0.00012563000658309364 -0.0018100437970237943 0.003438454283607062
1403 -0.005748984232204504 0.00210120104671908 -0.012444771755937068
1404 0.009836097787033052 -0.01586578495449106 0.02395841102279133
1063 -0.00239574987141907 0.0025248161256986473 -0.004097372404881762
1455 -0.01940609782260824 -0.013362350793517736 -0.0009884892388406165
1453 0.0030561440396362953 -0.0019355145765746712 -0.004327936198863825
1454 0.004876013284241792 0.02271304511154687 0.011519515078720847
1532 -0.0026950934627040174 0.009384955765485333 0.014015491133234503
1531 -0.0004925511087421465 0.00010875270323559213 -0.0006857836483492415
1533 -0.001152992786833268 0.01103276093714518 -0.0010731317563432766
1313 -0.0002146155151619936 0.010855651890699316 -0.002827814596318825
922 0.008442659905187291 0.004525838963616575 0.0022616372927374193
923 0.009977485301032383 0.0015004066089424502 0.0014376311474622776
1873 -0.0036936708480423946 -0.005879004751262836 -0.0014078109261870682
1875 0.01151507360266682 0.0024596158366938865 0.017251721869743573
1456 -0.0009690856459453387 0.0050403879235440055 0.0012982526381605625
1458 0.005378399062033182 0.004934390365170351 0.0039826551883514
1535 -0.004677074466596279 -0.00010816891616819094 -0.004737815571263146
1908 -0.0035818546465826518 0.022762510240935507 -0.005214559434292649
1906 0.005057003515748431 -0.0014237043559301985 -0.00024256366426848215
1907 0.008336479027215713 -0.01018505747511194 -0.0028853016391879624
1899 -0.0053125776769856956 0.0012057634218640059 -0.01906158445371577
1464 -0.009061334093882134 -0.0021212772069510925 -0.0008981987576904501
1534 -0.00237795976469376 -0.0004155232227930622 -6.57189327051641e-05
1514 -0.005784073754164172 0.012181065949721065 0.00133085271992978
1457 -0.00703832549168567 0.002794948118409798 0.006591850205515926
1953 0.023668620065663046 0.007396838681968473 -0.035745967849822015
1462 -0.0013137824993707003 0.004779315700612562 -0.0036990731978966285
1513 0.00458595683762691 0.0005828822871008685 0.007360052928388281
1515 0.005742580473488693 -0.010692005168823475 -0.004864481152901376
1951 0.0006217423221511284 0.002846143324453725 -0.004297594029284133
1042 0.0019320301692934863 -0.007494420517233297 -0.001420167403856293
1874 0.020649911326658287 -0.0019059665390022877 0.020705337295914856
1312 -0.0010023618411870371 0.006658889061049292 0.0015999915422169005
971 0.011107833275009913 -0.007381168306261948 0.02069686980284412
1817 0.006231709244702839 0.015554841607804777 0.014607550211035119
1816 -0.0030644324770998876 -0.002985632470842028 -0.0008357228155106971
1876 -0.007727902853325278 0.004080683365134485 0.0040890937061296845
2391 -0.008105660567445489 -0.000834797913246389 -0.0005400047847115364
1878 -0.00484606605866824 0.0020739560592350375 -0.00028715880159265703
1163 0.0017763119359551836 -0.004867536896275878 -0.004289266162072074
1952 -0.000507636788224552 0.006338894772833097 -0.003911134105665685
538 0.002977648787915887 -0.0016896096065886733 0.00019834188343801037
539 0.0005414488054970742 0.00668195937205691 -0.0026668541660748563
540 0.004793918297753679 -0.013136670188376857 0.0067622120657370895
1686 -0.0019422729872391692 0.003917048775168775 -0.001623153651949712
890 -0.00046047647829655674 0.022650312159268764 0.013593413987513086
891 0.006539676930220464 0.015550672756780754 -0.025143065159286822
527 -0.0038908833931183186 0.016494083895270732 0.0028325367751391626
526 -0.0033113232034006033 0.006916884581236979 -0.0012602237092905072
1026 -0.010391193139401298 -0.01281180547293764 0.022642766979572168
1024 0.0031033896685600747 -0.0013177572222756195 -0.005891584579733543
1025 0.03716699235745938 -0.05219397348997454 -0.0024507360802779902
1469 0.011591509705399633 0.005758413101229992 -0.004174871520059558
1470 0.0036478069131508284 0.01811011312315777 0.026243725683845052
528 -0.008668830705846014 0.003093774159217469 -0.008072243618509445
881 -0.005650541990775491 -0.0003083538989009439 0.006438662404467322
880 -0.0022909417949541857 -0.001217709010162028 0.006636167478719299
982 0.00021603627550005914 -0.0029348851582734954 -0.005763338253199878
983 -0.00022424365214099943 -0.027694830329361382 -0.0003056727920202346
963 0.009532258965573045 -0.016961462121257112 -0.004564746281126679
962 0.016526465412362225 -0.011001932702969848 -0.012264904341149088
961 0.004165719946999597 0.001262776525521507 -0.0032321087043505757
889 -0.002228399393689733 0.005452618278950475 -0.004984649941730121
984 -0.01250790182100452 -0.011069617010421175 -0.007123381383674123
1418 0.025463404729693422 0.011131114731611423 0.002671807093189302
1035 -0.005805273195100325 -0.00201137217820098 -0.007835545316309441
1033 3.744845829989919e-05 -0.003635561078054078 -0.00833525491870561
1034 0.0010027453613119773 -0.010915600938178184 0.005061768944016753
1922 -0.004790338938614432 -0.008114873756977893 0.008864608376907853
1923 0.008441835217727511 -0.004339941355101135 0.006242896572091642
1481 -0.006132142661658117 -0.010082697710614805 -0.011285346518155064
882 -0.020111989465164352 0.02249533091998633 -0.004497409557127459
955 -0.0023973221627779182 -0.0013872818756222977 0.0015880907094695488
1417 0.003083922550760753 0.007358849575346091 -0.00032780344664152286
1830 0.012244695428616767 0.005036186641208798 0.005536921179952773
1828 0.0034828741115653502 -0.004112484019207177 -0.00685135736686344
1332 -0.015442300206287002 -0.011628845380041575 0.0020859229486830722
1331 0.017985973604376017 -0.00780308593391976 0.007468132918272673
1330 0.0003789541577796193 -0.006192635813161064 -0.010290127692101183
908 0.01184423430585894 -0.0055319800435948375 0.002476548544838494
909 0.012762913764638777 0.019529159540135302 0.01605344306585977
907 0.005058919653844852 0.005487429123743207 -0.0019003730396557794
635 -0.003975053978154348 -0.008894056444875734 0.009909757308711773
1482 0.013878522619308838 -0.00684433953541468 0.002879141447090717
1480 0.005877947200147978 -0.005158208022450692 -0.005509287928658831
1053 -0.0005434018384630737 0.0022445222307568642 -0.0004909208461091524
1051 0.007137865918825905 -0.005042695685760588 -0.0038249825072105745
1052 0.012528784948105904 0.006123223422517613 -0.02067642218557532
1829 -0.0019433013399105146 -0.015928109002654397 0.00674113005960768
1684 -0.0020667560001884876 0.004516124384957244 -0.0012604281823026561
1685 0.01547129324514194 0.0015644356159415411 0.0010072531980708892
1921 0.00011822394482741735 -0.0025382790847562624 0.004306439074379638
1058 0.006881813712670434 0.0145614249393075 -0.0038185824215751876
490 0.010370406277513303 -0.0011925708979443608 0.00032425342645545346
492 -0.00835560323970601 -0.012779916761925313 0.005102811279513952
1424 -0.003116924802403344 0.001666650445773166 0.004521517467807433
997 0.002705069753546186 0.003411596639116953 -0.004047976024488159
999 0.0034436047130456 0.001123630322746509 0.0072748920904653
924 0.007770266486059236 0.005311694217811166 0.002635032758712151
1057 -2.588600090230704e-05 -0.002048781651433238 -0.003303139412174052
899 -0.0019336113769983913 0.006486665715246875 -0.0019648695638241273
900 0.006862343992087573 -0.0025991802933403823 -0.016071668779556608
898 0.00551087011585916 -0.0023488734594624243 -0.0012354599340485923
2395 0.001102460110980325 0.0009456341333662476 0.0008051945963520143
1499 0.003991458816255476 0.01577697067252034 0.004989378436507397
1423 -0.003921503744026999 1.2239582613642212e-06 -0.00022307519236429028
1059 0.007107583528203396 0.009787843892734804 -0.004448607392388389
1118 -0.004008284471387361 0.016557185663369237 -0.01007659886275682
1117 -0.0008330284836155992 -0.009098336923384973 -0.0014917673436816103
2380 0.002305175174252318 0.001238663462516522 -0.0009125373105180357
1336 -0.0013261300161480376 -0.0006643786979796259 0.0008052854962308078
1337 -0.0026488444134858086 0.011091988638855285 -0.006328716936549415
1338 0.00277668805626449 0.008156835516426214 0.005860292128634428
1119 0.02201386851832144 -0.021131526237274403 -0.004628602924159939
1425 -0.0018686234295844388 -0.02235051377639074 -0.05315464148745562
1504 0.007031559482806338 0.004777533345245306 0.005328640395369856
975 -0.016781073017329316 -0.005435918657540486 0.001788569141568662
974 -0.0005269857207070693 -0.0040201890696440696 0.002659500589127652
973 0.0017376813636243106 0.0029546722497547236 -0.004466322495808986
1818 0.011589958641055999 0.01660106620431941 0.023160538481494023
1495 -0.003048132415108612 0.002363766096784015 -0.0002331303048330088
1497 -0.023704436178281916 -0.017392080043404704 0.005838416373151577
1420 -6.269861895674273e-05 0.0008822702917238235 0.003720573859379634
1421 0.012032531347392818 0.0075464279465747505 0.006855461568889392
1422 -0.013309388658009047 -0.004898554110766981 -6.234201410174399e-05
1496 -0.02202770248509893 -0.013317937548594786 0.005797650990428368
1501 0.0031027968212497736 -0.004151676659862779 -0.000749658387364092
1502 -0.005174525095656399 -0.030386131641927053 0.017786011546007827
1503 -0.001049734093541034 -0.004142514169323979 0.009533574428457758
1877 -0.007155010823765038 0.016549135176052325 0.017455761403628933
636 -0.008937343920992831 0.010474367725912056 -0.011366604274799668
1938 -0.015810551900197284 -0.01776859086583595 0.01602345958566116
694 -0.007794875792087633 0.007070667095387196 0.000533549136442017
695 0.013297958735239281 -0.011478826443622218 -0.015390890674355692
1505 0.01841317649282544 0.0018712866008192145 0.004661805061529762
634 -0.006519293715864713 0.0018617187362525486 -0.0026518780999017434
696 -0.01676637379217034 -0.004016161817488695 -0.00710846264536633
1378 -0.0019662855602166547 -0.004989271973304578 0.000324778050014323
1380 -0.0003684863245579924 -0.007026897838738154 0.009817378687116915
1379 -0.002187735689088545 -0.007236814542231806 -0.007842391759753565
1834 -0.0022426595539929823 -0.00011405975082850638 -0.0028692609879126226
1498 0.006442059892687137 -0.005277719832633842 0.004851933231568547
1835 -0.006625797270208089 -0.004251752603690927 -0.01782261796752632
1884 0.01600465368090149 -0.008569555918313553 -0.001099219140934959
1882 0.0031873458700085264 -0.003907767306468786 0.005548249539053927
1883 0.010427792714743759 -0.007012818035314194 -0.00200780058822834
1319 0.015222143340596532 0.016337714908175326 0.009812996710981346
1536 0.0029158387075070014 -0.0058573905380001085 0.003480660766380065
1463 -0.0024882635739552385 0.011491085264120501 -0.0038686599387271745
744 0.020038416998781044 0.003823328852972838 -0.009800367315955117
1971 -0.0006747217228124058 -0.015416832264863534 0.01246018386279675
1087 -0.007068804836225189 0.008511133383561983 0.00679968658641832
1089 -0.006073183492353792 0.0057155899043177015 0.005990493588523699
1649 -0.013219112076365693 -0.0007116524293256236 -0.02300625956716569
743 -0.0324387959947335 0.005570791170568227 0.015522262537174803
948 -0.01942185621875829 -0.005753220869766909 0.006329020249992345
1088 -0.03225327699887578 -0.015883990775327223 0.0021716897455922785
1537 -0.003911847906059452 -0.002916193713706698 -0.0006711521818578116
1539 0.0018356051120722913 0.0019165025508820755 -0.012024540552230935
1538 -0.002889221138964229 0.023366486755597746 -0.003994696333011724
1600 -0.00017731535070023287 0.0028204725442822942 0.004809269762548181
1602 0.005593262260202623 0.010636551783254303 -0.00035770493236546785
1162 -0.004896349582886987 0.0012877432217728412 0.0050231892637211395
1164 -0.006791669611403193 -0.011475456773274087 0.011985192736358065
1540 -0.012002398324662157 -0.0019369339586475908 0.003945182258810369
1541 -0.0032029508000240995 0.01609638977252574 0.020606812245574414
1542 0.014804249741536997 -0.020744345503650216 0.015075615756629095
1528 0.0025842733964866983 -0.0015201940964213278 -0.002357916834698294
1529 -0.012362305166015738 0.024411505916861687 -0.00790222594144065
1530 -0.0072916214375025835 -0.012808737369590244 -0.004883143786379128
1601 0.009406132833245961 -0.011541666956889244 -0.0003933568793480022
2393 -0.0018647947886349723 -0.00035574896173413414 0.00020969115289762685
1577 -0.0062772451417889555 -0.005912506016327253 0.002963498327793014
1576 9.320010906240458e-05 0.0004824986653855927 -0.0005344401639169
1578 -0.008391744053149713 -0.0009861652636494985 -0.013590921713025823
1188 0.012324077384182786 -0.026840563183385742 0.031872986476600744
2377 -0.00444331888600439 -5.062658875011291e-05 -0.0072137791348170655
2156 0.004680151605368898 0.008480352980173573 0.0016115126129125905
2155 0.0019491765564773297 0.009550891499225785 0.00010512650145456626
868 0.0018032164721907655 -0.0013986273472701653 -0.0028078363659784287
870 -0.009857041871572577 -0.0019989124560460766 -0.01849043923833464
1186 -0.006363876715269673 0.0016536947498372759 -0.005829831563594292
1236 -0.003046511531824918 -0.003368229091058246 0.0010133853473811487
1479 0.0038866427794263638 0.0018188759708545152 0.006137887364154304
946 -0.0013871068744122025 0.003900187410805603 -0.003992747718870927
1963 -0.004473945278450313 -0.004061668598324539 0.006569361363965378
500 -0.00783381741052182 -0.01984152984680116 -0.004370745085214932
1187 -0.0024788665317124815 0.01748197941339907 -0.022546872439945978
1558 -0.007524472505229396 0.0031611398672335583 0.00684200356790966
1559 -0.00571663533675397 -0.009067792783743214 -0.004604895462571722
1969 -0.0002865051955920888 0.009619999122100929 0.002919477958446264
1970 0.010494679868612494 0.01705892359019199 -0.005896822572984721
2157 -0.005809258088975039 0.011742363023586541 -0.0040524259727745295
1158 0.0050181313117412035 -0.013274337526616074 -0.001351771548142904
2405 0.0032176076698793403 0.0015696488652886813 0.00012465471469897175
1477 -0.0006093814847181928 -0.0050796092034864045 0.0016730815217269074
1478 -0.00535603583624755 0.010503770349968978 0.018454608044547773
1032 0.012762231580868252 -0.00886486740549867 -0.004718431144083769
1030 0.0032024981270750304 0.0019526690774553947 0.004466530513340673
1179 0.010404472058047103 8.952554770911754e-06 0.003064780089338272
1324 0.0017230463141489545 -0.0013917784899104032 -0.000463268892782797
1325 0.0033479386429676565 -0.007216517507912575 -0.004034198740153698
1326 -0.0013848717434948275 -0.006691340868680752 0.0012979882120878652
1126 -0.002380445235625003 -0.0021560030814688795 -0.002717742318320117
1128 0.008063347170664497 -0.0003425451712651449 -0.0006809939967465597
1127 -0.00848823153943455 0.007021264127650677 0.0023588442674243467
2385 0.00546479694159526 -0.004716723916834903 -0.0013278924124097249
1210 0.004781844514092719 0.003326511434334511 0.0025186247544739444
1211 0.006974857570970212 -0.009778145369400928 0.0023384115329395474
1048 0.0029232712480970853 -0.00078066985409045 -0.003300366914402579
1050 0.008444859660329285 -0.007642319073799846 -0.0010291013284659466
1049 -0.003364312520232525 -0.02501735690267943 -0.013874672213283574
1183 -0.0005100218568439037 -0.002091013130236072 -0.0016460899308104225
1184 0.007156443157979305 0.0026474548605098006 -0.0033209002765827865
1185 0.006639251865681274 0.006587696381225754 0.020482244191109895
1110 -0.008324823550417543 0.037233076078348894 -0.015153723477869878
1109 0.012375994037479231 0.006644113790524738 0.00936387770634678
1108 -0.004227886048562617 0.002519458866939647 -0.002569388229356002
1549 0.001877768171660324 -0.005853112875127687 -0.0038223507670180424
1550 -0.009697977504495907 -0.014149035242062888 0.0018992770727628053
1551 0.0017371946416707528 -0.010879241653722836 -0.007676373560135755
1622 -0.003353407064800717 -0.007036523449245668 0.00573736594208078
1621 0.0005483289341525231 -0.0029039874773264785 -0.003346763257375448
1623 -0.017676662653921933 -0.009038361311975223 -0.046116090168172585
1426 -0.004781299007874623 0.0034886656669141057 -0.0007582422159491271
1427 0.011390710282917367 0.00430000397996546 0.0017476915077401164
1635 0.008325851190080375 0.013065900798160253 0.015245758981185405
1995 -0.01657788404768334 0.02194461499762099 -0.03133535103073357
823 -0.00269392489190981 0.0054018141326577385 -0.008517558970066593
1212 -0.0033757032597842903 0.00469019512388224 0.008282167018333638
824 -0.005055208936604344 0.01613587713755345 0.024090823560433936
1581 -0.006419552738944301 -0.013420443326708898 -0.006359936721127866
1993 0.0015956546152444547 -0.003915554363824767 -0.0021305184690786736
814 0.0011245568354773586 0.0056532639242661475 -0.004869626569825439
1493 0.00957731520334405 -0.015509982090967921 0.010276969969148573
1560 -0.007082192111089105 -0.0003121442041205771 0.004777885733920332
1925 0.018523190380416894 -0.035074661039643816 -0.02100178654058072
1924 0.0033087376581403586 0.0035785040876393404 -0.0011843620956971108
1926 -0.0017382333350572754 0.02085096069465006 -0.007713807032353107
2080 0.0028923842566530673 0.0005808890648634645 0.00885715914858666
995 0.0033507095033759437 0.017832204877238193 -0.0023592534854457504
996 -0.0015563056703719927 -0.0074139086221108414 0.00011910367650059833
994 -0.006996558593660857 0.0028293997487058 0.006065251293711383
1078 0.006799362005235577 0.0010331083346455244 0.001003104797278403
1203 0.019983974893866524 -0.016488960894990395 -0.0329648032324376
1447 -0.001007664978970455 0.0013394552541122684 -0.0008451967810393103
1448 -0.001262732830497722 0.000945023471415942 -0.0007586953926020418
1543 -0.00680807399097838 0.0011859738079180323 0.009611908024559338
1232 -0.005265061749249903 0.012095243254442369 -0.008225528872138208
1544 -0.014005059096799312 0.005353762938267907 0.001900909218811823
1235 0.004607329548130574 -0.008351433980835496 -0.004921492570274525
1234 -0.002892039643698629 -0.005150434175081006 0.0012672830906220148
1500 0.0006781020066216868 -0.004080365857935154 0.008144897007198396
2402 -0.001359865539303334 -0.0010783799759827076 -0.004759563707830027
1130 -0.0027273962881708765 -0.00893722794320349 -0.006352154240302722
1129 -0.003664709809483861 -0.008316258255110625 -0.004757498691667075
1131 -0.024868405167254543 0.00519163744479776 0.02764879957783677
1574 0.0009402542131215049 -0.001160042818851743 -0.009408530709750828
1575 0.012676214979864785 0.016659421174549806 -0.01461863817496734
1449 0.003324207223322115 -0.014489409410760781 0.01094971519534935
1079 0.0038903469091260265 0.010999391644542169 -2.7931993297070167e-07
1545 0.004273778049610707 0.011067888153167909 0.001973900027009615
1231 -0.006478540098932361 0.0031566114644340985 -0.0028391769722933323
2066 0.003561191994407466 0.023719731168433456 0.03125848684493046
2065 0.0017604072798007321 -0.004294278327145504 0.0029073722939353753
2067 0.022014583850482744 0.011878355942485763 -0.013944397827563687
947 -0.010906362184476671 0.010975530897491863 -0.009700986955245714
1573 0.0008246772288353881 0.0013434590134554572 0.00057328144732688
1510 0.0106177874123379 0.0020031918331889667 0.0008059317091337537
1511 0.010581485784102718 -0.012465229654515707 0.0007783560776762083
1067 0.0022308596645859765 0.011571609450937936 0.018508450096030846
1512 0.023729787616922807 -0.004618058981774747 -0.003916421069998027
1567 0.005206594242616742 -0.0009055971653781702 0.007387553945711527
1568 0.005025334465291672 5.3169693785088914e-05 0.003937673643559263
1569 -0.008651363938436707 -0.009001561031646777 -0.008673739947253404
1492 0.0026319563758942783 0.0020987821116857717 0.001299859805094025
1494 0.01728640417069489 -0.003697210878171763 -0.004510862430697607
1066 0.0011717076230038574 -0.006678064140380133 0.00585210209522423
1068 0.004786737499389995 0.025233572537163095 0.02813615857480583
2018 -0.014070183391648013 -0.007977391726518394 -0.012761188439053498
1080 0.0030129568574953965 0.003972929327382652 -0.010318455435786892
803 -0.028127024531149066 -0.009589375675900453 -0.028806995162588757
2019 -0.014806173978356428 0.0028066870948879738 -0.029887076024220596
815 0.009618040658063466 -0.004029817735894173 0.009159149182711485
2081 0.008886007628676968 0.02121940239334414 0.00978348247828385
2097 -0.013974159380862973 -0.0037579518782247935 0.008176298497708703
2270 0.010988816280135285 0.01626847519523323 0.02232174941468416
2271 0.007705671686398266 -0.012814869122166249 -0.026481689217651358
2269 -0.010807609470707432 -0.003845366005387412 0.001506817928525024
2095 0.0025912381344977355 0.0015997809714566739 0.0023158689561757384
1605 0.0034436126310664946 0.0033464735073335857 -0.013723655174291284
513 0.0012581309851662557 -0.011780438532561397 -0.00823376815637048
511 -0.011895941066867094 0.006128501552948744 0.0019823547942160753
1304 -0.004705791116316351 0.017602295190197452 -0.013716760444936252
1314 0.01953252079427269 -0.008053983210459229 0.000594486431248446
1044 0.03846335197461033 -0.0005477891498322285 0.01276126583050129
1043 0.017755847702841672 0.028155120428218813 -0.0038957561199926428
1305 -0.01809882289940535 -0.013399436473352552 0.00310951761525867
1303 0.0011295065970447467 0.004828130623096583 -0.0011913425697135803
1243 0.003092090020695837 0.0025415946480088075 0.005652517757360936
1392 -0.00023285283123058908 -0.0014598153747560779 -0.014817299753245538
875 0.0009942543350529378 -0.01440030700186063 -0.002877032249138068
874 -0.004006353599804988 -0.006580621588541766 -0.005030364587609092
499 -0.0014272822671209803 -0.001454720479298844 -0.002803362424100672
1307 0.01563128877823472 -0.016767673154913783 0.006498291528162102
938 0.008368380952983154 -0.023997330981795396 -0.009169477038421676
1306 0.0015268215785045709 0.0010859140385045902 -0.006502952047911546
879 -0.010030205521473842 -0.006531891748255992 -0.00217573313702756
878 -0.007329755351925877 -0.013299440862898143 -0.012327409509826623
877 -0.0015274400953517323 -0.0011309669877226894 -0.0028048849414907696
1662 0.007968954816320362 -0.018561860925699582 0.01356816069854363
876 0.004958997206909616 -0.02694648945429165 0.0023424732483567114
937 0.0015229746595700738 -0.005598272695339816 0.003509550076001257
939 -0.00995650198184182 -0.012087074209037424 -0.006714973464860717
1363 -0.002202961614945189 0.000537987620011118 2.913585309489032e-05
1364 -0.011254941149211255 0.0014758210674523597 -0.01917502068085178
1619 0.0004518614169485881 0.014171200908449309 -0.0113887218436855
1308 -0.008661651385943872 0.012533875228424238 0.014153124769620239
1365 -0.024019389736260978 0.0009400852983835487 -0.027427962480590238
1660 -0.002880409887642705 0.00048418692239169785 -0.0015413961747031356
1661 0.011205316549061905 -0.01852634381119038 0.019429713526827517
1683 0.025637652707833695 0.019173185455773303 -0.004397335636523609
1682 -0.026971854619568008 0.002861058945840152 -0.0074085090813473704
1620 -0.011359738812349146 -0.020275294049214833 0.021158312592611448
1411 0.008296498878730936 0.008027030063520018 -0.0018979373689670767
1412 0.011081226037829772 0.0023404736725582556 0.00018010587961555047
1681 0.004562665916729971 -0.00018723909034387785 0.002299203716665549
1690 -0.001517302818572602 -0.008282828380381779 0.005146480203468478
1618 -0.0070729392019158845 -0.007724438937153908 0.009111883369374463
1245 -0.015778011134336266 -0.0030440597705731582 -0.008934170026577846
1244 0.01938203863269647 0.01308173916540354 0.006832287085209879
1692 0.005767499971320043 -0.011113499006908882 -0.0008641448550182331
1691 0.0022096414399983737 0.0012086727991200735 0.004395161777037801
2056 -0.002926903919325872 -0.001732440784638141 -0.004225791330406374
986 -0.002646412964227613 -0.0030728245026773633 0.0018885663431959117
1658 0.007739644250737457 -0.0037413354873617397 0.015303500625817935
1657 0.0004612380575199848 0.002825523000455376 0.004471617144414017
1659 -0.01846609944631121 -0.0013112258080732425 -0.0008818536410127749
2028 -0.005062482028830313 0.004175657509764607 -0.002958438669850488
1413 0.013992065338746189 -0.003287870929486419 0.0012182849668309404
1703 -0.007442390446885909 0.021887965491155136 -0.008122595320012402
1704 0.011184808691325057 0.001371785562599537 0.0063461642776438095
1713 -0.0015184203194285048 0.008850534310021821 -0.005738628930435074
1711 0.00013631196754717345 -0.0016345773953277507 0.00485676280830859
1712 -0.012612605164998484 0.009129996122681009 -0.0010057572985369566
2026 -0.0010617071347374524 0.00041800093716090364 0.0037371904058865215
1706 0.0031499969276940947 -0.017627601186129875 -0.0023910974264833647
1705 -0.0022885034445441392 0.009457061090234685 -0.004030586901692071
1707 -0.007418599502042611 0.012117323045627409 -0.002983272545091862
956 -0.0033849082459677534 -0.03157519951819101 0.00681128172476708
957 -0.01696227932850823 -0.01576624660982518 -0.013725148724787792
1419 -0.006107813737575826 0.024366441174679596 -0.011382421686750507
1629 0.0058826183260126 0.014932299230260154 -0.001667125845052578
1627 0.004290276224643764 0.002991857077669284 -0.00222550971674323
1628 0.003625757625205329 -0.017717855669356887 0.010224211495675524
825 0.011329722549567694 -0.009682327536185436 0.010559979158481817
1579 -0.0008950596898385523 -0.0012945315159566895 -0.003939263655144236
1182 0.014487215304335537 -0.004774219986524347 -0.009224786831588486
903 0.024002023160951267 -0.008937228309776632 0.015072617307155934
902 0.008328573202107614 -0.0042324419271574385 0.010373768439108368
1855 -0.007589276749042164 -0.0018196456960164501 0.005921888412805897
1857 0.0008209801766104449 -0.0030925889574588633 -0.0019368758407916878
821 0.011455143669061444 -0.006320514545566224 0.018130451405632454
1180 0.004248698940096706 -0.0067094566540211505 -0.009289926945284143
1181 -0.007515715704795112 0.006664724943728889 -0.012416027465101988
820 0.001058984347910284 -0.00020099862110893054 0.0043350193224763085
1869 -0.007207775518153744 0.014546372859088426 0.019630652832886453
1867 -0.0017040104504697654 0.004509240508122398 0.0029671282915968225
1370 0.0021736590459012738 0.0014696555774390825 -0.010082829631211834
1369 0.0013926932008543364 0.0010337972183320989 -0.0031949748797229153
1371 -0.015603886465233403 0.0015947602217811808 0.013323331335463033
1321 0.005068401319020924 0.003388024087532455 -0.0017442505182005952
1323 0.0033693218728538302 0.0072120416909226956 0.009763732502252829
1322 0.0010981645201704683 0.007102063400728087 0.02712376783947368
1255 0.0032136396912612604 -0.00022865226656630796 0.002122684690295078
1256 0.005297911153152384 0.0016643086949110584 0.0008417850959548185
1257 -0.005351719908398807 -0.005976832745083104 -0.000805013832619857
1715 0.0003153890488664291 0.006788667582030384 -0.0001592106766445881
1584 -0.0028104565075369094 0.012291227435765056 0.015413406686685826
1716 0.006674643284963393 -0.004501650157055269 -0.0012060957145976026
1714 0.006190963483565883 -0.003553080597529725 -0.0010660490282872956
1582 -0.0021524582479026558 0.00141407485938836 -0.002438005777392605
1583 0.009701607955928247 -0.011991430712664852 0.0034550488671326028
1702 -0.002934003766166172 0.003746723396976566 0.001263100441690643
2072 -0.026091334362524476 -0.01989906732171435 -0.011152919200962189
2073 0.01700032235070962 -0.0020116417702851948 -0.007847054924084388
2071 -0.003157240876964541 -0.00036859084893675604 -0.0036143663131370813
1856 -0.004154741870470234 0.00707775233529886 0.012424573735171585
2404 0.0023698826841279763 0.0013624229197055572 -0.0032872487791470797
822 0.005855382041918582 0.010119842990488093 0.0011037016367542204
927 -0.005261436720730767 -0.006764915033294479 -7.529704020635094e-05
1718 0.0029365223821113395 -0.007110122717164824 0.004411869683834738
1868 -0.0029651931711418573 0.003186859096809674 -0.009796875304593382
2330 0.002705789307667487 0.0027822171431693913 0.0013774605300346313
2082 0.03159777071026786 0.026101679080417238 -0.01710012676782643
1282 0.00574931268394263 -0.0007820194955427093 -0.0007574848011242321
1580 -0.016842331485126455 -0.0124465911715803 -0.017269069604030095
802 0.007693158535654691 -0.007962221520723758 0.004273427219497572
2017 -0.008665603567493955 0.0010886615162800704 0.004412344452052387
804 -0.008355127975530861 -0.009013791839577222 0.009262007222841607
1655 -0.0038119943644487233 0.01130396601483761 -0.004022068545631945
1654 0.0010658458122016349 0.004248979251118384 -0.002811030743963821
1656 0.0008260311903535903 -0.002749140648586786 -0.014246472439898761
1260 0.00324727281580183 -0.005450262416727835 -0.0065088990385628615
926 0.0007507190691613212 -0.0025487391252343103 -0.004132146717016401
1259 -0.0015845967845863809 -0.013951700210724805 -0.0031343965131620387
1709 -0.000950405396103236 -0.0030526782635500265 -0.0020601067203440265
1710 -0.015388429093400156 -0.025608933702602314 0.010523354134360983
1708 9.040488464329008e-05 0.004827396863032882 0.007896824242077903
925 0.0006260795303980451 -0.0012557535665735763 -0.004699250819809236
1720 0.0013687253032670901 -0.008221227027542596 0.010761381418430895
1258 -0.0030445070146570092 -0.005298771940949414 0.0019935729226766923
1862 -0.032052642540771455 0.008918235726475739 -0.00794775662680286
1861 -0.004595736078257701 0.0015254445556813123 -0.0019414531875811276
501 0.00323785780704959 0.015681804902806608 0.015974438457855494
2150 0.0034939306758096198 -0.019479540220265917 0.014494299450224138
2151 -0.0039466020457474315 0.016669001596472353 0.005017361222698115
1603 0.0012085718686763128 0.0027572131536726325 0.002403477134263049
1604 0.00991251197190947 -0.012374158924855298 -0.00014042440906718567
2383 -0.0021053309161156086 -0.0004692926255455863 -0.00022081244678127094
1284 0.003974770317337526 -0.014068741953230313 -0.00044647788071081556
1596 0.0017389318899720906 -0.011954882567691012 0.0034770261732329734
1594 -0.00632538423736176 0.0033993113608295038 -0.0017257426058882356
1283 0.019128718324813568 0.011845268612203015 -0.009096297605221241
2010 -0.021795011253218904 -0.004188163552818817 -0.009237136599843015
1652 0.006418495550956884 -0.0015054344298217513 0.007106158152002098
1651 -0.0024139240959732363 0.0008110281166670754 0.0007910073507382149
1347 -0.0008599017874144018 -0.010082507787454563 -0.017461190328703854
1348 0.0024510636682503117 0.001948950523377934 0.0033955228553407056
1349 0.003082032890658528 0.0015507390172765179 0.0033458410770584295
1350 0.0015109540287290956 0.00740982859421754 0.005783003282936599
1653 0.00564913602790803 0.011207477203339738 -0.00030984819242765616
1345 0.0053238048899834555 0.0012143919558806656 -0.002859571513310117
1346 0.0009329854157912506 -0.007367247380530882 -0.012484361347854703
1722 0.011208152312142894 -0.006981126871479173 0.009732365639683964
2149 0.008053132326659704 -0.0006844711186852701 0.00560922175571039
2009 0.0070719083045090855 0.0013106025733958938 0.010553072846412053
2008 -0.008927395097672456 -0.0010802875589749814 -0.001040447579908928
1863 -0.007289305643416368 -0.00392172842808312 -0.010321495851121867
2085 -0.01747152065586991 0.0016894977111912822 0.0198679665937502
2084 -0.0008924714672297832 0.023091403237279033 -0.001945432814117618
2083 0.0011340028059030984 -0.0020333406650129456 -0.0017383367996341673
1666 -0.0009526622596609594 -0.0005654507238984177 0.0018734441807022751
2193 0.006260403548078009 0.005257798984865485 -0.007511887037550424
2192 0.0008159338402792629 0.01114596655249366 0.011924005519068671
2191 0.0015210706134955857 0.00245863771611851 0.0047871344962829064
1897 0.00035640340486689536 0.00020393656663583308 -0.0001167341074074771
1898 -0.019819029644846383 0.012329012674031862 0.00880593824151094
1813 0.0007539443659683391 -0.0012418120736339571 0.002975403863506232
1886 0.01149786529171151 0.016615014155324147 -0.011250812849659106
1802 0.00574727148738913 -0.017410243375720627 -0.00964665189145445
1801 0.006747910101780953 0.006742141997930034 -5.34654490093636e-05
1887 -0.0030130378415400283 -0.014964754268018248 -0.01876419094425223
1885 -0.005622442120413514 -0.003775414567772588 -0.007217718084699798
1803 -0.005105119219428515 0.004080093875398085 -0.0021749720360671157
1396 0.0020929840535837264 0.0020869684030657334 -0.0005827695019656481
1398 0.013576197704670686 0.006463009762778045 -0.013566372099036507
2208 0.00794679570548634 0.004230226098334706 -0.009647537745387926
2207 -0.001704701954664261 -0.0008435493983895948 0.003116227435596719
2206 0.003937265227387274 -0.008364694916367724 0.005232033945024101
1823 -0.0012894552561846205 0.008483829514516417 -0.006176893835096962
1764 -0.003605838462159647 0.0067561262295083285 -0.0323031792261668
1752 -0.006852391463054413 0.004195954072781767 0.01522572173773304
1751 0.003824728486713618 0.002137048215315491 -0.00547560559792126
1750 -0.0014563445584301392 0.0002191664679844292 -0.0008711936800469727
2213 -0.014240607417251111 0.022671339191738967 0.0018574312018152545
2212 -0.0008928303119612289 -0.006094759338140383 0.0030801311290634763
2394 -0.006226452921960656 -0.0008368533256779585 -0.005481693440774331
2175 -0.008472995473331984 -0.01456554702019323 -0.007606491274648495
1824 -0.01046463694272398 -0.00781268615068131 -0.0024995257089951905
1822 0.0036474123898107775 -0.0014539494500910208 -0.0034062046255037472
2173 0.0031454878282697134 -0.005138461588190832 -0.0025576017608449023
2174 0.017480954484137605 0.003432035897761014 0.0051043291800439905
1397 -0.021889546291561653 -0.010436042859590669 0.032831905584805275
2012 -0.019224660356096254 0.005218487131596187 -0.0007230886136162685
1762 0.004818488468313382 0.0014965547097209298 -0.005935949310786163
1763 0.010155710265717866 0.0014737541556299146 -0.006094383364329594
1329 0.0023228667482133435 -0.0029253581736912583 0.0017679766867557825
2011 -0.0016909754097206302 -0.0009766129527576228 -0.0009328497400792926
1327 0.005586128845496567 -0.003409224430617468 -0.00256778873475936
1328 0.0008615154536869557 0.009936879442458784 0.011939024533018039
2108 0.022589686582210035 0.006671001837253876 -0.020764391583184574
2013 0.007297628899047417 -0.027389451934894754 0.0008785972425722688
1815 -0.006965025447858983 -0.0028793336661519908 -0.019959198367571394
2106 -0.0010708556918965194 0.01026878870007659 -0.005738026962125219
2104 0.003711940618062741 0.0005943548045541246 8.337331582975906e-05
2203 -0.005878340397467316 0.0016978609056982452 0.0034974275838040615
2105 -0.010623777075507407 -0.0020206484997725887 -0.010368741212217286
2205 -0.01246969049047831 0.0002508501086703491 0.004756377507244983
2204 -0.009321615095543741 -0.01407619966266426 -9.619619329410548e-05
2107 -0.0011464497665341642 0.007183337346615128 -0.0016577033029525374
1468 0.0022839196099824705 -6.785597945855661e-05 0.0019324790516344554
1814 0.0015588394469399055 0.004394403785327009 0.0034192191275872557
980 0.00863935870071373 0.015803062291627083 0.006088032915138764
1334 -0.0024074771648019888 0.0014134709120092858 0.02087209032267474
1770 0.0010655138488518893 -0.0005756259000252775 -0.009663379494028162
1339 0.0008071977058876191 -0.003240420048383669 0.0007153026133033164
1340 0.02294284363401518 -0.0009917893129477008 -0.006277842354088379
979 0.0035204909065676537 -0.0011471660883897944 5.408386540218843e-05
1400 0.01691648730722029 0.0021358761255327436 0.012190050083971338
1768 0.0017998795205993938 -0.0029042398880125787 0.003275277644187896
1769 0.0011185947347816735 -0.004297267891474597 0.018489868845897782
1341 0.020214226831781104 -0.0034651872595195432 -0.005929031819378966
1758 0.01053980021652046 -0.0062437224529375696 -0.015204813994664588
2184 -0.003751240618645411 0.014263610209954291 -0.014820844718960401
2182 -0.004725421668989937 0.0010101203119060893 0.0015909334182187937
1788 0.01386618906915208 -0.0026735829126210233 -0.00047146176670495533
1786 0.000305615127785142 -0.0030429089339103115 0.0037118825513517673
1787 -0.003907575327567152 0.008103389361714224 0.009152279583471909
2122 -0.0044935974818397 -0.003347379130552729 0.001409333581984524
2124 -0.001654574750296746 -0.002547235137842027 0.008836442691679462
2130 -0.0048502363724472995 -0.009388889717248924 0.0066406445560292845
2129 -0.002192222905070338 0.00485155983642509 -0.018252343480201317
2128 0.0023775167992278637 0.0047588560117971124 0.00027764110859813734
2141 0.03135606188472655 0.01831110804217748 -0.0008423935157023297
2370 -0.024648062897330545 0.04834521094844267 0.002097438057064244
2368 -0.0030749230096107287 -0.0007248754413636299 0.0018678569016356565
2140 -0.0015791976823421934 -0.006043543403834053 -0.0048657161726948965
1315 -0.0030318921570224354 0.0026540291894480168 -0.006101948911609383
1317 -0.003715021398770398 -0.005506871045359266 -0.011155235271305011
1316 0.0031649670253643906 0.0167093814632374 -0.0037602456953518062
2369 0.013107209446774794 -0.024367060803159438 -0.01316133441788523
2183 0.0027213604471056454 -0.013171469754868747 0.023267819177923466
981 -0.008086594281258477 -0.009246910759935119 0.013641193838054578
2123 -0.010187975563722886 -0.004784303107368848 -0.009152032077236909
2363 0.007287396580705301 0.01938382388487089 -0.011565794458372117
2231 0.016873927789296094 0.0006409523778581791 0.01960725579971044
2230 0.0019158743379036074 0.0022366253504602367 -0.0016163575503223533
1399 -0.004162109682931228 0.006855642620558645 -0.00046588484758909593
1780 -0.00031358042821456644 -0.0009908422768247556 -0.0027949686925704893
1781 0.000363429279515276 0.010956745618233826 0.004149593028566752
2142 0.014998996568008037 -0.013632556460787645 0.0058623113728604155
1739 0.010952902571767408 0.00654783991401571 0.006343825104565668
1738 0.0033358704130322827 0.0007009846532824227 0.0055778551750795815
2069 0.036443882731241564 -0.0022409898790523536 -0.001899122876479005
1740 -0.005460931087115785 -0.021939751239829948 0.009848401698675208
2068 -0.004674572661911525 -0.0001705534237125281 0.005784861141117745
2070 0.004934614688688274 -0.008591090852687102 -0.0022206079006115336
1936 -0.0043632671368531144 0.0042261454901971725 -0.000723531601309249
1937 -0.004764910294720014 0.0032199675499992586 -0.0003921587311736981
1836 0.00768408013322563 -0.0022558851615047796 0.0030692470800092963
2272 -0.001160146607250828 -0.00889299045855966 0.0024652022673327754
2274 -0.008981082228755238 0.03169271495130605 -0.0018233631085733057
2351 0.005708728344972404 0.007363976959869321 0.029149098990488297
1893 0.0002099025330825941 0.0032557102014756766 0.010956367792925747
2352 -0.015135252531417917 -0.004332107133990297 0.02088607655802363
1352 -0.011440993100229162 -0.003522888078719454 0.004944835426176006
1351 -0.0005130456963227413 9.61680865036683e-05 -0.007040198579533668
1353 0.006281652527493494 -0.011384681828860167 0.03600951854027976
2364 0.017326549531545398 -0.008436499572429654 -0.01622201367314733
2228 0.0023355274053827135 0.008556646776153027 0.014174147657236373
2227 -0.0004962595068945524 0.005130413704870062 -0.001163078605545328
2229 -0.009907814637286778 0.01156833166522641 -0.006532627956692417
2186 -0.004028855722456644 0.0017350364803984406 0.00508767269415661
2232 -0.005115277769396181 -0.015169830805470439 0.00016535789949083976
2362 0.007193977465451323 0.0019883986006174487 0.002436510933829857
2350 -0.002270761743008979 -0.004167663376913621 -0.0012665762166669213
2196 -0.014016078942348102 -0.0008341718732037913 0.0032591803235250223
2195 0.006248155783909526 0.01612372882671912 -0.01007278235405342
2194 -0.00517571548649225 -0.008026261006653053 -0.005871514403745053
1778 0.005392226855108062 0.006305775233439642 0.009971450068863824
1777 -0.009994648374195525 -0.0002464324872432087 0.003681720292236343
1779 -0.030391033259089574 -0.011111450407675928 0.0007375433867812465
2187 -0.0010315820960814846 -0.00922050392611403 -0.003356948386831077
1811 0.003237602939592807 0.0005760273464080366 0.007332223971230573
2185 -0.005779982800572657 0.0051817875928538695 0.00909302755147346
1821 -0.0076368238405574995 0.01608127497874828 0.007559338467809525
1820 -0.025468477628863877 -0.01398004546130898 0.009133904566913965
1819 -0.011825374612324725 -0.004129293886017288 -0.002146898432690045
2198 -0.007996712255361409 -0.006760222358105888 0.007748370199688445
1812 0.021236155975819355 -0.025726194294771305 0.009616687101934569
1810 0.0006337013310715849 0.0018284647708994228 0.008777915785500764
2197 0.004065661009839013 0.005079046899593075 -0.0018105931621309513
2199 0.01352624684554767 -0.005095426679170371 -0.008176978591210053
1892 0.0022857867385127242 0.013498108819425148 -0.007869187027199097
2099 -0.01148476786907356 -0.001764051073753223 -0.003290346519675358
2100 -0.008005074792843021 -0.008169631526775857 -0.023694186384049763
1891 -0.00031580846406473157 0.004403348979930322 -0.0005178555873767334
2165 0.0020586166805843854 0.0009750020601608338 0.03236253332822439
1320 0.01020287962841058 0.0013233081690125397 0.005312203094376064
2098 -0.00258051027608731 0.0034730782610007203 -0.0025405335192228927
2273 -0.00043114405278266615 -0.008138677879195198 0.013486465686385195
1872 0.0018281078649030496 0.004346587713349663 -0.0011498186340826117
1797 -0.005505526913291375 0.0017124477846364283 -0.010627488854162046
1318 9.385544001495105e-05 0.0033733746801570875 -0.0008964783606467083
1964 -0.006371569741802793 0.0014032706623739644 0.012832372337213396
1471 -0.000567048984068179 0.0004159429379278609 0.0027134448792526114
1472 -0.0017040164827916806 0.002349959752282033 0.0022573514824643206
1965 0.01679567302328726 0.00013092728354467553 0.0011440910014762868
2214 0.01076912366646528 -0.027159152664900852 0.004134666219111596
1848 -9.7309086892634e-05 -0.0034604505006653034 -0.0007327445974711951
1473 -6.876303806938196e-05 0.0006786301050029684 0.009818244373367847
1992 0.007429791776544421 0.000760234160092224 0.025780239971975445
1991 -0.01157853558305938 0.007729921180883585 -0.009806833787283312
1990 0.0013084483094677282 3.7738694379415346e-05 0.0036820157561229003
1846 -0.0013215687317308178 -0.007154996353520616 0.0062644376821788415
1847 0.007665287687733302 0.002191787865702818 -0.0007310515336066234
1958 0.00628491268442143 -0.0011732748910728815 -0.011330785353391623
1959 -0.01573353721666692 0.015784621660947542 0.0037660933297927195
1957 -0.003510893364797968 -0.0005243386756255598 0.00524278124059671
1754 -0.013561883279247053 0.01322360623262633 -0.041677695602242944
2244 0.001872193482239489 -0.002460542120283599 -0.012273069486838956
2243 0.00870535864588853 -0.028799061968786885 0.021191561860839387
2242 0.0007201173573098872 -0.003571613149349383 0.00727191988174449
1980 -0.0051529330793239955 0.0065735573215293846 0.001186997199649668
1900 0.003702653863774149 0.007147368039833041 0.0013628615929185143
1487 -0.0004400801516232676 0.013884808927137374 0.002220524764507263
1902 -0.016364700807117657 -0.002707387105050145 0.01046285115702915
1901 0.00197597911005671 0.002083375310926516 -0.0037769098013473914
1488 -0.004267268408299049 0.013167121887710643 -0.000932929748150204
1486 0.0013326641156283685 0.008324700840465623 -0.0018347630444701605
2292 0.007680016550413739 -0.02535814349023778 -0.005390454050986111
2290 0.005784133178508314 -0.0011322361648196707 0.001436598229395699
1979 -0.0026930011315655835 0.004094189937560578 -0.00258975688786875
1978 -0.0011128285334913916 0.005788996405543019 -0.001831168368462069
2291 -0.021864404329693037 0.006725466764226269 -0.01374243963068756
1753 0.0007976055739496179 -0.0006837201792134928 -0.0028396478000878513
2217 -0.0028262704133083447 0.015729774687194237 0.004300947088444717
2216 0.00981886583901132 -0.0033355481326943722 0.001827778840917115
2215 0.001167860395323856 0.008000924394925042 -0.0035879932066464407
1956 -0.0023335645655004743 0.01509017485101953 -0.005543385145214372
1954 0.00024441141724481117 0.004467234818143207 -7.893072617869029e-05
1955 -0.01759206192141694 0.008852160598174253 -0.009273646697056227
1914 0.00500372617839048 0.012914657523785313 -0.0008224313687920258
2033 -0.003984423065567499 -0.014888173281131551 0.012625250836405387
2333 -0.004839226039904055 -0.0001872471098062691 0.017706702483556123
2332 -0.005278047382097553 -0.0029645188234429247 0.008660500778160064
1467 0.01183378792625064 0.009388450861568006 0.005227134928174368
1465 -0.006621709975315009 0.0004325674084388706 0.005563346533505408
1633 -0.0010229455848152498 0.006147619306602339 -0.003952358396715793
1428 -0.0023628789203200256 0.009822792939536784 0.004628932412645768
1756 0.0024863649407309792 -0.0030322576325789974 0.0001721181769083002
1757 -0.004481319445036606 -0.0002898304409420928 0.015048056974733312
1839 -0.0057169229167202875 -0.0017468484204590307 0.015479134466334667
1755 -0.006909345410030004 -0.012685483945391375 0.0026274203411754465
1634 -0.010234733350905523 -0.00012057446457620155 -0.013799887563903379
1401 0.00892845819107361 0.010653616433632832 -0.009411377063323102
1466 -0.008291447198521436 -0.0011087943063404376 0.01873451188439608
2288 0.0016083783924284703 -0.0006445264642656918 -0.006431769386013843
1838 -0.026402304547444844 0.012520616947485318 -0.004743773459550535
1054 -0.002977983965606401 -0.0003511745251734727 0.003740172318193029
1056 -0.019515141148797578 -0.0032362547391566686 -0.010201563538353914
1055 -0.017308542714782143 -0.0024655985712421233 -0.013526355861685931
1837 -0.008017777615933358 0.005869871662549442 0.005826612714751248
1782 -0.004879623612398257 -0.01065174212497766 0.008305277138299273
1994 0.012020329428659807 0.020654867449589037 -0.0023078849351082166
1913 -0.0014726634354427926 -0.014071964541893344 -0.011492813357896483
1912 0.00548251484610417 -0.005544531390627613 -0.002506892677259662
2252 -0.007208937745971139 0.011798733643870622 0.011988216622036274
1845 0.01430472325879964 -0.010878170442896047 -0.013498880829122132
1844 -0.02122544090335586 -0.004386349562349372 0.010873066729561204
1843 0.0014727565667041716 -0.010157743471203424 -0.0033658402495748262
2251 0.00029788937676996356 0.002260197810473325 0.0077348565396946276
2382 0.0002416378346492195 -0.0013154945802767715 -0.00533453333673711
2287 0.0035221081666970654 0.0003091099274581108 -0.011515711292791046
2253 -0.00807253679763102 0.011158385713011287 0.006994288552901232
1988 -0.008592152391406035 0.006651517140534774 0.023102637415661157
1987 -0.0007208806311383066 0.005595154976762859 0.00045385811851864305
2264 -0.026729770148171333 -0.011773973614779935 -0.0023541247808885617
2265 -0.013577494658001224 -0.005168414040818178 -0.01201696287548371
2263 -0.006053040298965278 -7.057721695917967e-06 -0.004510519334687268
2255 0.012815104565072509 0.009653592464178615 -0.007730524151239802
2254 -0.00494042228502755 -0.004597279164378617 -0.008307849659666536
2256 0.0029125046507459083 -0.023120399917512288 -0.014188520209189348
2118 0.006812866276214296 -0.010494987137419165 0.0033068034359855984
2116 0.006079422637631266 -0.005041910191834764 0.0038469247339219057
2117 0.007947175837119102 -0.0009834104563796705 -0.003081741700840548
2289 7.383844012780368e-05 -0.004082462270222262 -0.005062411429465633
2060 -0.003605511037183249 0.0012553625325687587 0.011595107041947706
2237 -0.013845283402198854 -0.002243779887677454 -0.013822823486799973
2236 -0.00321911365659922 -0.001028316281630052 -0.003121826463243716
2224 -0.0018811354054929822 0.00285707983500019 -0.0007839119438434952
2226 -0.0027520133000446686 -0.005458418373054916 -0.015052995260995185
2311 -0.002362581202414049 0.004015484582362855 -0.004156711873179032
2313 -0.014650564878760465 -0.0020955881289965927 0.006008444476656727
1896 0.012876692058745268 0.0036079128587841883 -0.015376349724587414
1644 -0.0034597419455273683 0.0026219406394388275 0.004020956335715751
1894 -0.001959720590529326 -0.0008204455868370757 -0.001288410542213391
2225 -0.0015973021453990549 0.008439283802729677 0.008588868821566715
2238 0.011646992022128736 3.0481670386388568e-05 -0.00030081232671682034
2312 -0.009691438519457307 0.013185621330322002 0.011519926362688091
2337 -0.004667130637648649 0.0064116640593150755 0.0008984710889513484
1450 0.004171112343394031 0.0045592516823908785 0.0061511455587554345
1643 0.015922363505691775 -0.004694303386858694 -0.00031147477939656216
1642 0.0025415200658692027 0.0017585203745645879 0.007453102532172542
1451 0.012497469259327126 0.015463902225524764 0.017282494822929498
1895 -0.021422517937575127 0.010313292471234158 0.008628929762571149
2336 0.019662100359086547 -0.041240064721521995 0.009198117305796012
2335 -0.0006833223863290207 0.0005338065391695282 0.0022601763905787057
1943 0.01712282312882693 0.01828824680192564 0.0036548217154993806
2039 -0.020948063920841403 -0.013573366020844116 0.005048253540337222
2038 -0.000775098539680711 -0.005655957616826459 -0.008622435282335243
1452 0.005265381923320998 -0.019601573024560982 -0.024105939693496527
1871 -0.01187227539933109 0.015706109259888648 -0.01309440633784823
1870 0.006395115075258682 0.000571685378106898 0.0027984921016804627
1523 0.01742474372156052 8.087883400508779e-05 -0.011181361327431028
1808 -0.0004366771262260629 0.0038066959131948176 -0.005113823735222502
1944 -0.018637586590210444 0.012524489838205245 -0.01158248876402466
1942 -0.0018993687448579202 -0.0017799546307544828 0.00048805277021614276
1809 -0.0014189947999970263 0.010920927173022489 -0.004161561578746319
1807 -0.006181798173620918 0.007767967330293005 0.00010191840442859486
2235 -0.015085429577475998 0.00146115135279429 0.0013164502519200454
2245 -0.005894678666797878 -0.002580451020755067 -0.008822535918685323
2246 -0.037743651296271725 -0.027727440886566642 -0.013293749570739118
1522 0.0009934755906004034 0.001589869996945909 0.000705767153398992
1524 0.016040280403638658 0.011426263576536911 -0.005228101298450237
2234 0.009485255665889612 -0.0050803464230808355 0.013900597549057975
2233 0.0018306341992971955 0.0012037235699535395 0.0007480864711473997
2301 0.004648531941921784 0.011222767839308794 -0.014250769577872151
2300 -0.0011575680760436552 -0.012022231908219518 0.007295909280747273
2299 0.0006804817212461619 0.00438366875197678 0.004174647987311276
2247 -0.0020751420496865403 1.0404101009003639e-05 0.008015053548902116
2096 0.01638793339692528 0.02150696351437092 -0.007500271299426553
2040 4.112890031481118e-05 -0.0056402980621829465 -0.009458760022211077
2000 -0.005336124198029462 -0.003094023169118471 0.0005922054397090981
2058 -0.00029561965241036364 -0.001723294528036716 0.0007591277363141693
1854 -0.003438734776785657 0.03213297523635888 -0.000862047189244343
2057 0.02045319652917387 -0.0329546875137606 0.019858319149644223
1115 -0.0005780648304696277 -0.0008334737270681742 -0.01215429658953629
2032 0.0015294458947091116 -0.004168051282993668 0.004968617234454559
2279 -0.0052164156103980735 -0.005439658138114724 -0.021210473455456434
1920 0.017200497288486966 0.00826300475959612 -0.008508304102284694
2034 -0.0018276295148936695 -0.014262668630653522 0.012319167243250622
1918 -0.0017382505992225188 0.0016771010165240888 0.007617662176219961
1919 -0.0023157254540232025 -0.009454266690662594 0.0033493684096405044
1673 0.002077863788234616 -0.019113700176617142 0.011910776972000093
1853 0.021786463641909903 -0.011772113701657337 0.008205367101437606
1852 -0.005492280077947742 -0.00041814031773173416 -0.005102464579486693
1672 -0.0035507647947058763 0.0018738710867321725 -0.010958734201097865
1674 -0.011774477504981442 0.03259375035823007 -0.0025382437260279512
2049 -0.01878303184562144 0.000703389866181881 -0.000564667305007107
1116 0.04643799252037522 -0.015188293681186798 0.0030377567023244754
2043 0.00462023996891377 -0.0042105869697176635 -0.006217274471312666
1114 0.004384649373048805 0.0018122643361484605 -0.0007498864428102339
2280 0.007732508535910402 0.005153074456746992 0.0053889343104100125
2278 0.0036690779175348204 -0.002354391168852947 -0.0035438741847804746
2041 0.0081125487768192 0.0006881598801158726 -0.0028136309638982604
1616 0.0065165928779909845 -0.008145044034862403 0.023641531378711434
2102 0.014960419098932613 0.0011779025322821671 0.016293387784977763
2103 0.0034668063466722953 -0.011340446041280103 -0.02115510924626521
2101 0.0009337928268616435 0.002582522357175605 -0.01191897072327287
2046 -0.016503234462492807 0.009948540499695182 0.0029926901713988544
2045 -0.004044717148451117 -0.008164166581433593 -0.007647082548253665
2044 -0.0037914707986445137 -0.0007788594385817062 -0.005507310056801398
2048 -0.001480914961029288 0.003645822480268337 0.0001446474889112542
2047 -3.4679652958038595e-05 -0.003377703918985744 0.006139957603927243
2120 -0.006735114027811642 -0.008079737510976728 0.0025653588758992696
2119 0.007708783501384298 0.004549529950894385 0.0031681285283441224
2121 0.01390511081626893 0.006341154699199989 -0.0041764307937017815
2042 0.010823519358694843 -0.0010394118595198486 0.003059424975766115
1972 -0.0012337058798057561 -0.005432264980730575 0.00041179900391280646
1973 -0.01489267569342119 -0.010706798904091411 0.013952706663039369
2295 0.0015941252043971575 -3.526318031248925e-05 -0.004493202764358358
2293 0.0035064663900920058 -0.0018365810417662301 -0.005068514523713334
2294 -0.014446986987573981 -0.01493669239348475 -0.010620315600196915
2334 0.0026705154576418468 -0.016015526642517937 -0.014046108401320461
1974 -0.013711932374028948 0.003940913379178192 -0.020673057414247714
2126 -0.054385058976733555 0.016971180363274888 -0.00295234888291774
1615 0.009665004890199034 -0.003214752679481619 0.003638787259506931
2027 0.019765288905019104 0.010123329352845618 -0.004475379706594221
1335 -0.0065683985471862915 0.0038143815399406997 0.02131187520848223
2354 -0.021629252517870894 -0.02501700304801119 0.0008988640020345562
2331 -0.002313642922373276 -0.008804246552952626 -0.004449524233973776
1333 -0.0034760512455707313 0.012539715556436869 0.0014443811125615295
2396 -0.004464057296146913 -0.00218691734490687 -0.0020957884770502365
2340 -0.005781700834726705 -0.010921208563308329 -0.010596000028483309
2127 0.011168202401470768 0.0016106205472005747 -0.007898773800471952
1356 -0.00224225332403258 -0.002405777078597112 -0.0036575109214664362
1989 0.01686925551602872 -0.0007827714554038385 -0.008209203773791465
1982 0.016681115374823082 0.0030485025368210544 0.014118302762988259
1981 0.0032797853330857308 0.002090845666379435 0.004962432383460755
1983 -0.016501156178688126 0.020785869775225844 -0.008256999656665424
2061 -0.008363484266000825 0.002528460890853831 0.006726263660699155
1354 -0.006100396291899216 0.006775504280364885 0.0006869306063429463
2297 0.018944697194668042 -0.0047908382104619686 -0.0027804905625911395
2296 0.007529560952353689 0.0019740184857357213 -0.0029728453381861475
2298 -0.024652962805359415 0.021727848290872404 0.0018583501386751039
2109 0.00534390774513979 -0.025081346238609876 -0.010159764643434818
2125 0.0030281687189141495 0.0030861890038309434 -0.009535135422958361
2324 -0.022244070203736137 0.010462781994036364 0.019653785601537764
2323 -0.00332235583450037 0.0029757255437206157 0.00026437982649177294
2355 -0.002476846776226387 0.015510384143037587 -0.009774593671007152
2378 -0.007128243701319153 0.0014487183285760968 -0.0034586309542860762
2353 0.008206304256647456 0.003840464869406572 -0.005845291815676559
2133 -0.015938110548254347 -0.004357169528240723 0.011431419707423797
2329 -0.009141524069984098 -0.004187038739712716 0.0020933608012991566
2373 -0.0077776724269581505 -0.012154012268527331 0.004371437974946148
2371 -0.00020287177524664537 -0.004494134919508407 -0.0037999816869126097
2372 -0.005912730193213091 0.005405516620165249 0.0014573473648112586
1355 -0.010896741684057359 0.015901463165910772 0.00899869864069221
2131 0.002194560633196409 -0.005298195298194454 0.004251771114475433
2059 -0.0052292507501896105 0.0003345896371060021 0.004608230718149562
2132 0.005083316440873959 -0.011553138959833087 0.019029911773075368
2325 0.015626375521377765 -0.0231612858382209 -0.0018811457625089883
1792 -0.0077433651209306885 0.0035921919067492735 0.004883697658194756
2088 -0.020681948148198487 -0.011198615766041644 -0.022180637418603554
2112 -0.021125987352299987 -0.0035838823248806662 -0.017246278792652392
2110 -0.0003562871632957706 -0.01265529693961193 0.004185616687072741
1793 -0.011730943237926835 0.033491363544048865 -0.005316348621173569
1794 -0.008298936610068848 -0.004229851872991267 0.009010916109382244
2087 -0.008670265057407594 0.009219158462396059 0.022667973617707553
2086 -0.00159779265039513 -0.008439996376269413 6.864480956399797e-05
1667 0.001284239615594792 -0.0023815867902626997 0.0004136761318838407
2024 0.020008642906282157 -0.0026274145012668425 -0.008588168895368484
1668 -0.00033431883671391176 -0.0022723540537919456 0.003502696104514396
2023 0.0011387672370550888 0.008391995548471106 -0.0006455574973433678
2025 0.003888166743065815 0.012750463197511214 -0.0008680586218104728
2338 -0.0036485852123582 -0.004077447434559526 -0.0022401272212228
2305 0.0004697555410984249 0.0002408817180964704 -0.006484843957670073
2306 0.0028132346807407476 0.0001496976577474205 -0.0011419136776620565
2113 -0.0067823207747275405 -0.0014639863196245879 0.0007808798062960313
2115 -0.030612546779955997 -0.013565801825889522 -0.00528995694419248
2114 0.003525091785550108 0.011773814354152345 0.0005089477847674672
2346 -0.004471895772160513 0.01009684457976876 -0.016253926680779913
1865 0.010698357189881854 0.0016663236838291592 0.032818289851570204
1796 -0.015760833191553022 0.03155387853637349 0.00582345344484952
2401 0.0036056582655124565 -0.001123498824759178 0.005012092784121603
1617 -0.001191902359636884 -0.005425657038971614 -0.0022376353298609233
2345 -0.005658004750370092 -0.007155826148446805 0.0355245734303883
1795 -0.00260395067443028 0.002787553234526974 -0.00732150864037909
2339 -0.015299054270186144 -0.0038656442362709036 0.007791051158012318
2307 0.005424924416467399 -0.00722727079455136 -0.0036903918228506313
2344 -0.004543135417890421 0.0053767749418583595 -0.000679640063321788
1866 0.0005576153695358258 0.005692990934192784 0.0017078935384966026
2166 -0.010305347529647128 0.009457611578709108 -0.015181501421092909
1864 -0.0005710195087144465 0.008761757985695106 0.010450892376123727
2164 -0.0030350894141982065 0.0037348947453841727 -0.006160961932109711
2310 -0.008458401405802054 -0.010176104458228566 0.012225024806400838
2001 0.008557165046722773 0.026520676244586074 -0.023834631981065148
1999 -0.0032224823578949845 -0.002544954102308543 0.000930419286346967
2348 0.03028402871400088 0.003782358679352612 0.04002773092276754
2347 0.0012086451285229013 -0.004179543568180376 -0.0028761799979082083
2111 -0.0029323826475889125 0.0015453206231526094 0.0349087112791093
2388 0.003411142616057689 -0.0042570129452773955 0.002560151583432831
2349 -0.0068035354337418275 0.018144094194279953 0.020186628050859554
2161 -0.005043389822153567 0.007994984752155656 -0.004479488419428736
2163 0.0028892242019434534 0.009264129211200903 0.04078683719103978
2162 -0.010084383868258636 0.005432499242399592 -0.007780468620553519
2309 -0.008393356611434657 0.0237475238582731 -0.016605524970696332
2308 0.004741088076979414 0.009625725877503186 0.0037192573773317033
2341 -0.001786302945383119 -0.008422743153517891 -2.8040984901388434e-07
2343 -0.013671919975612543 -0.005561705770981678 0.011122468999881585
2342 -0.00894192563554456 -0.013213264270754517 -0.006226369991952063
222 0.00021246974155775535 0.0033068841693588494 0.001003715287966697
249 -0.00039132826786411796 0.0002652397541352308 -0.0010039415461685329
225 -0.0010668309744219003 0.0018261074620571833 -0.004769330122867922
226 0.002274630678805172 7.871515547289021e-05 -0.0002767597402460665
342 0.0010710604101220455 -0.0022564273732328306 -0.0022361826647366283
346 -0.0007740641004037158 -0.0030311932897030603 0.0006980700029204581
247 -0.0012270926204733738 0.0013216353403444523 -0.003593704641842449
364 -0.0028369290830421727 -0.00045945461438552903 0.0008297508309861336
377 0.0008468643682033696 0.0018149380348013802 -0.003282463880316427
223 -0.000720132971371005 -1.8608884846199345e-05 0.0022602352518996064
228 -0.0008528552997395288 0.002770865384987081 -0.0038554367205235382
365 0.0011622044588850873 -0.002302953667123986 -0.0009140057692843742
251 -0.000628599133353509 -0.0017393702612983062 -0.0013595115125722684
366 0.002047454326398799 0.00030272997922444703 0.004203376927922212
227 0.0009150432420093436 2.3799604176448556e-05 -0.0003904022132086078
424 -0.0016417263703836632 0.002849435101521044 -0.003195478179105216
348 0.00029846281378809343 0.0036198665114970012 0.004069718820674713
426 0.0010187954129353284 -0.00014741524926738996 0.00029329726336674224
253 -1.913300391780287e-05 0.0018705206292275363 -0.0015079638236605972
229 0.0024448565820538912 0.0005070802797108018 0.00562704752946059
232 -0.0029403069164754747 -0.0007879534447046171 -0.0014773105774127378
379 0.0016884525029424247 0.0033767439017798628 -0.0011217245004715817
367 0.0026171866740956336 0.0002274719427600805 -0.0013241141790178237
352 0.00391093824336256 -0.004460034674066541 0.0014972598485409462
261 -0.0009900514888780466 0.00167697042440795 0.0005260945345963144
237 -0.0024388949472682747 0.00034716203074120383 0.0013771522461400892
230 0.002009458765628839 -0.0019958635929654 -0.0018442988469511174
257 0.0026062556315738245 0.0012806547820739165 0.00015563000983259765
233 0.001803402455073182 0.0034628163364221853 0.0003382758440043795
255 0.0019366182650382867 -0.002436149742687654 0.002279710196751957
368 -0.0027232725156354958 -0.00012823197134616618 -0.0004484851629918529
381 0.000972382289169802 0.0008231835052875652 0.0025944661580235805
231 -0.0004448204314734297 -0.00024574016120905797 -0.00032061719323307866
369 0.0015718029757075397 0.0017807301384921872 0.0008967903926378612
236 -0.0010790356263424478 -0.00013818462241155124 0.0013046000523600075
234 0.0006653257322453271 0.0009846585125477274 0.004463902363628008
259 -0.0015142983277578242 -0.0017041000087858807 -0.00185695330577874
370 -0.0015148096779693113 -0.0020621359199421985 -0.00017409338670790965
235 -0.0026598102810059263 0.0038068201437354413 0.001798678072114243
350 0.002983322059364004 0.0007354637638925621 -0.0009468441461380989
428 -0.00019952964024992447 -0.0007294257807128469 0.0009666449038734349
356 -0.0020142118864837012 0.0016832113477328475 0.0027415736781054366
354 0.0004771335887601204 0.002766978432779269 0.004138351307001441
430 0.00041807095541802165 -0.005525171501215536 -0.00030521512280455457
371 0.0013671168101850194 0.0018966702024944757 -0.0004257436166201372
240 0.0008818140467056724 0.0012186722749869048 0.0032785860978132957
383 0.001455435398999931 -0.0011419330939134754 -0.004902687162173724
360 -0.0018499369638508474 5.444780807273483e-05 0.002238741945926187
245 -0.0018794476162434116 -0.0004583955348231253 -0.0018110796030562204
221 -0.000718336711409399 -0.0013133505387588483 -0.0019632122782741917
218 -0.00016251275767655872 -0.0013530779992604195 -0.0011980767660840711
217 -0.0002540072896759566 0.0013446679645721328 -0.004102762441537139
241 4.131936490403231e-05 0.0005473176846361619 0.001948827396506723
238 0.0008056827454058098 0.0012535912803398822 0.00030755103128647855
338 -0.0014598465268651408 -0.0021979852275282987 0.00013406226482218675
358 0.00016548852352680287 -0.002199030427413674 0.0042388132282064625
224 0.0008952534145236319 -0.0022588886196499487 0.0024968279680550854
363 0.0017672791580141348 0.003918891940203164 0.0002766971594337221
344 0.0012584646645649382 -0.0016973479939842047 0.0008550574030224808
375 -0.0009807388684723284 -0.0009337885529364041 0.0014886735271090203
219 -0.0008892298184658922 0.00010149742973923626 -0.002476644328662433
243 0.00027468847800261604 -0.0006936560479661606 0.003974650277518401
362 0.0005468846801104909 -0.0011979414584119275 -0.0006357915789764117
361 0.0002855654625356477 -0.002105854582693494 -0.0028868253561239064
373 -0.00027707054707180753 -0.0029622564174753693 -2.9425983760991475e-05
220 -0.0002237598820388724 -0.003301885675493764 -0.004193733574151897
263 0.0008583817534116468 0.0009895781937103308 0.0008837186279287042
372 0.0013623163373951102 0.0007165532154014499 -0.0033401944512937458
239 0.002079889197656283 -0.0014791201668385634 0.0021026985016886933
422 -0.001235993853026272 -0.002281795885751326 -0.001228088172581429
340 -0.00030822155341114326 -0.0008403441186684467 -0.002095231375838968
432 -0.00186293829257172 1.98875322847283e-05 0.0016177447994757711
246 0.001002255478242587 -0.002390261948843338 0.0009932345590026564
250 -0.00012885843541610457 0.0015144316943608716 -0.0009640035220596447
273 0.00033014340935851293 0.0022237184166947173 -0.0021388301780891792
270 -0.0011058695719152092 0.003298320917244014 0.001994210348838693
274 -0.0016483503894526971 0.003917114183980811 -0.0004502603150975101
376 0.0016430210461463599 -0.004971226339376812 -0.0029686281810943366
252 -1.983665103512678e-05 0.0010794927161109924 -0.0028213164802695103
378 -0.0009195921388824977 0.0012079742084109774 -0.0009230698057354575
297 -0.0014506484779293171 -0.0016833825412516114 0.004044810021987959
271 0.0036564679262935658 -0.0020634679074279455 -0.0022425794821423453
295 -0.001154250706157832 0.00503342158299158 -0.004752959898104518
388 0.0011868705798822028 0.0034854472679547166 -0.0007396389718093551
276 0.0022223096170406096 0.0018915670477644662 0.00286551746238585
389 -0.0005558699787704701 0.0030830505924877272 0.0027630189817002713
401 0.0027191217347013316 0.004559441518690665 0.0019122491960682324
275 -0.0025528085008925355 -0.00036375117136327453 0.0010242370485430948
299 0.0010422104191249513 0.0014395852562500274 -0.0010313219128574378
390 -0.0012943867394472148 0.0038278566317917883 0.002083817948621345
256 0.0031760560809268967 0.0006454302679206853 -0.0005996983872083133
277 -0.006605120781892771 0.0014306602196056395 -0.000571106762131289
301 -0.0008025266888886388 2.2030502224047205e-05 -0.004417929380848509
391 0.0012519585601653517 -0.003056238409258451 0.0005123132767499597
280 0.0003636664784003969 0.0020434541184365476 -0.0007244973422748159
403 -0.0026956303798612944 -0.0002095793973054908 0.00394460539844476
258 0.0009646341540025668 0.0011102112125505545 0.0019161604863733833
254 -0.0005184565710162542 0.00027564259889723626 -0.0026075061966713614
380 0.00013335860443070853 -0.0027025400242346597 -0.0002910132487697677
260 -0.0019745342716448165 -0.0024404072321534756 -0.0013569865980173576
382 0.0020395841059098136 0.0025801143462621046 0.005037691896210955
278 -7.711924375603997e-05 0.0020546742819518757 0.0037891596384479237
281 0.0025008538627258412 -0.0028835918985874406 0.00703107774106031
305 -0.002208795998911375 0.0008349888544764066 -0.0022939027166838286
279 0.001390420419058086 -0.0006162349732391444 0.00044064378345574435
303 8.441273993570448e-05 0.0004480691093736086 0.000802516636173875
392 -0.0005237594562639994 -0.001204453089652445 -0.0019391581886604088
393 0.0005126171456910308 0.00023144409269677766 -0.0020322877874921316
284 -0.0011325666015753594 0.0026424964561449693 -0.0001860705673149569
405 -0.001664931170985819 -0.0011023499218572996 0.004234794363819358
282 -0.0017327632017808093 0.0016676301654499437 0.0018722427250363483
283 -0.0017008027400629456 -0.0015224713050657407 0.0010233155510395828
307 -0.0020082513550155447 -0.00041765600756991217 -0.0038893233584148673
394 0.0013903678119096983 0.001499769809132289 0.001476948971903756
264 0.0006490709825538132 0.003448747755968068 0.0010073445653256002
285 -0.0008954321063939362 -0.0008264291285166211 0.0018235337716825926
309 0.0010547967728268713 -0.0013926744634548285 -0.003734582949574834
395 0.0016975369774320217 -0.0034115948519871063 0.001505361915620523
288 0.002081075390484945 0.0009559297081939504 0.000528356802790842
407 0.0013019072577636806 0.0032119941212746966 -0.00018935083633985506
269 0.0009707631680535143 0.0018781844389433302 0.005130516002858591
293 -0.0009749903314934303 -0.0003540678668218493 0.0015083284036027222
242 -0.0005169910409239157 -0.002204303317864021 0.0008277618024449093
262 -0.0011007250458658997 7.324057941095045e-05 0.00048775336916182806
266 -0.002723841051749614 1.4062086900304647e-05 0.0019147231334115395
265 8.732026212151703e-05 -0.0025937623278203055 -0.0011409578792743295
289 -0.0011161649971278892 -0.0007074701858747744 -0.000765508290435581
286 -0.0010902643548928645 -0.00102577546690547 0.002361697887296943
248 0.0013775541824310573 -0.000737746209665532 -0.00010345992037300964
387 0.005167208709914878 0.004028142095379543 -0.0018194557952581098
272 0.000546669516008824 -0.0028223887965732044 -0.0034051484333424797
399 -0.004004656695677148 0.0010810707215660779 -0.00022342793037563336
374 0.002032392928815749 0.0017879534095286537 0.0020858512563772334
244 -0.004930406593864052 0.005506777575279158 0.0012238906401023158
384 -0.001054754164420152 0.0014788959846516769 0.0032691861173783374
267 -0.00010196409403431892 -0.003173381769716078 0.0002553614265239791
291 -0.0016103785246338318 0.0001350846016628624 -0.001513952844297689
386 0.0027683667735227554 0.00014512864518872732 0.0010786510077446534
397 -0.00040885731064023916 0.00017756343729491628 -0.004608436697032295
385 0.003256258258996482 -0.0009923700678134723 -0.0012511735539344037
287 0.0036584425362489736 -0.0026602113165621766 0.0012389566283937845
268 0.0038021945023832032 0.0032736186152833233 -0.0008146395645485618
311 -0.00026270250550448936 0.0017754191811024996 -0.003829662297847169
396 0.0020721627118432174 0.0005042782824509519 0.0007718986376889791
294 0.0019001385664462577 -0.0013890680476851918 -0.0014519647389995127
318 0.0009636546808221703 -0.0007154167604078104 0.001151444410964695
345 0.0007553855708956317 0.0004471226323144336 -0.005262779921337064
400 -0.001398222067712132 -0.0003798001805761097 -6.762640358880604e-05
300 -0.0003358135047938068 0.0010594795091655005 0.0020251133996921004
298 -0.002943413769900644 -0.0003468133107491795 -0.0016548385505798136
402 -0.002513898669065434 0.0001875322701643963 -0.0016748405806990602
321 0.0030561401246588437 0.0023035244596430826 0.0014292124035010865
319 0.0011091377940922508 0.00169258194344446 0.0014467401495183605
343 -0.0015594743510587872 0.0016030450481656024 0.0005858834586658305
412 -0.0009178270427860263 0.00022898381938207859 -0.0015540778821411094
324 -0.0006937217820091201 0.0008794930800901087 0.0026533650795186204
413 0.0019765388722724417 -0.0010892046193387009 0.000979117716320716
425 -0.0009890382914683553 -0.0010412635739157224 -0.0018438187984200095
322 0.0002954883481216305 0.001810982052898798 -0.005269291183490369
323 2.094373831579471e-05 0.0023491587616871743 0.0015923333120232634
347 0.004661286135543473 -0.0009113785311481642 0.003013643805370105
414 0.0018801631254124034 -0.002916064264345969 -0.0019048309990637663
349 -0.0009462317730866393 0.002290690636851915 -0.001672184400492938
304 -0.002663958864195123 0.0011067762923162821 -0.0031456636823882418
325 -0.0006951850129549444 -0.0023954921398141606 -0.0026983700806046573
415 -0.0031486444558558296 -0.00013639389839145336 -0.0011182319921919915
328 0.0015272828112434657 -0.002996141143822205 0.0004446090454926846
427 -0.0014876563694191528 0.0006745305243360504 -0.0003963969819445442
357 0.001201661844717567 -0.0029525262979940396 0.0008259028777343975
302 0.0012245701122563315 -0.004146526029562445 -0.0013093590080490017
404 -0.0020564160524941303 0.0024913295078531805 0.0005942648776883616
308 -0.0008795147132002444 -0.0021706873384809674 -0.0013612155711264895
306 -0.00258441549812006 0.0016943682847814108 -0.0018306308421402477
406 0.0005972244808922509 -0.0002170648033400952 0.0007957104927616896
326 -0.0007494709839781121 0.0009159934218385606 -0.0006237554642683009
329 -0.0013623431216695894 -0.0012341819921671364 -0.00010558183783547272
353 -0.0017925979363188054 0.0032367700080041767 -0.00018440466372436702
327 -0.0034516467702934944 0.0011775005166577627 0.0006991746723611502
417 -6.568355391719422e-05 0.0022684366598478374 -0.00047048095124190464
332 -0.001284745687264029 0.0006544296953654553 0.00035212662812175087
351 0.0003355757810612144 -0.0016209116268152348 0.0015143374460619757
416 -0.0018241277048054393 -6.55950574938977e-06 -0.0003318255241578969
429 0.00045395648517354087 -0.0028026076864972847 -0.0011793246270120786
330 0.0014872301732170743 0.0012669120838662423 0.0030469526485076208
331 0.001086756204586259 -0.0022265669109624887 -0.005680115051652353
355 -0.0004558603446957712 -4.8550794505316864e-05 -0.0005968116615599181
418 0.0007090494705014166 0.0012416956395333602 0.0025626965840597135
431 0.0006176870573658175 0.0003127429558819548 -0.00045131815024308325
312 -0.004439882330324685 -0.0004946982922379115 0.0034512186661321033
333 -6.18132972414193e-05 0.00026086571621089044 -0.004460294169001441
419 -0.0019684422336016067 0.0024618810326330048 -0.002482619926097868
336 -0.0015143301635714953 -0.0030868125517705815 0.0020166466579245356
317 0.0017636301374796633 0.000435410980344373 -0.0007131800553822773
341 -0.003199648282456206 -0.0007158291802081382 -0.003074530791077125
290 0.0005460374155339038 -0.0011409570108951866 -0.0033882149645039885
314 -0.0004732235065792903 0.0023459579049108347 0.00038448393438856633
337 -0.003794688598444982 -0.000503958987494316 0.0014590728216421504
296 0.0013094386398089925 -0.0019600546425661007 -0.0038673263993780835
411 -0.0011874640638129218 0.0024342623980594565 -0.0007996529041177607
320 -0.0023263205841594706 0.0014589994589618938 0.0020737174311197923
423 0.0016279106280844419 -0.003368568815237554 0.0016587248233010264
398 -9.683858644005455e-05 0.004659987009309296 -0.004646336737375059
310 -0.0028889931978994853 0.0018065310107605974 0.001749136143343621
292 -0.0007629131978847373 -0.003038699430347289 -0.0021159725367694074
408 -0.0021065959064919797 -0.0018693275488029849 -0.002105350908440071
315 0.00047441062657187444 0.0020997689124279298 6.526251918386396e-05
339 -0.0012719788201078668 0.0021181753897445894 0.0014341787732384933
410 0.0014305836740666996 -0.0018220648988923152 3.121009180739333e-05
313 -0.00031890926474539133 0.001877731809232682 -0.0018431748131814128
334 0.0018424199263410298 0.0018505499284824222 9.958071567770604e-05
409 0.0022530123297723006 -0.002491671911827477 -0.0017642027699030544
421 0.0007393763107223928 -0.004427734864722651 0.0019893680909225395
335 -0.0019324531855023066 -0.000885024415478852 -0.0009039411454262726
316 -0.001744059374293229 0.0019372255790074825 -0.0008927745049262949
359 -0.0017619861554879852 -0.0006513993151843216 -0.0017835724908410195
420 -0.0002324590130586685 -0.0023942500335403095 0.002468332841847936

Bonds

1 1 640 641
2 1 640 642
3 1 1069 1070
4 1 1069 1071
5 1 715 716
6 1 715 717
7 1 646 647
8 1 646 648
9 1 703 704
10 1 703 705
11 1 556 557
12 1 556 558
13 1 712 713
14 1 712 714
15 1 571 572
16 1 571 573
17 1 1141 1142
18 1 1141 1143
19 1 1429 1430
20 1 1429 1431
21 1 580 581
22 1 580 582
23 1 598 599
24 1 598 600
25 1 565 566
26 1 565 567
27 1 934 935
28 1 934 936
29 1 940 941
30 1 940 942
31 1 1012 1013
32 1 1012 1014
33 1 649 650
34 1 649 651
35 1 964 965
36 1 964 966
37 1 595 596
38 1 595 597
39 1 592 593
40 1 592 594
41 1 454 455
42 1 454 456
43 1 523 524
44 1 523 525
45 1 451 452
46 1 451 453
47 1 673 674
48 1 673 675
49 1 478 479
50 1 478 480
51 1 619 620
52 1 619 621
53 1 535 536
54 1 535 537
55 1 652 653
56 1 652 654
57 1 643 644
58 1 643 645
59 1 1441 1442
60 1 1441 1443
61 1 532 533
62 1 532 534
63 1 541 542
64 1 541 543
65 1 553 554
66 1 553 555
67 1 916 917
68 1 916 918
69 1 988 989
70 1 988 990
71 1 616 617
72 1 616 618
73 1 625 626
74 1 625 627
75 1 685 686
76 1 685 687
77 1 769 770
78 1 769 771
79 1 463 464
80 1 463 465
81 1 919 920
82 1 919 921
83 1 832 833
84 1 832 834
85 1 487 488
86 1 487 489
87 1 739 740
88 1 739 741
89 1 1093 1094
90 1 1093 1095
91 1 658 659
92 1 658 660
93 1 724 725
94 1 724 726
95 1 1099 1100
96 1 1099 1101
97 1 1144 1145
98 1 1144 1146
99 1 1102 1103
100 1 1102 1104
101 1 745 746
102 1 745 747
103 1 1153 1154
104 1 1153 1155
105 1 727 728
106 1 727 729
107 1 799 800
108 1 799 801
109 1 859 860
110 1 859 861
111 1 784 785
112 1 784 786
113 1 742 743
114 1 742 744
115 1 1648 1649
116 1 1648 1650
117 1 733 734
118 1 733 735
119 1 607 608
120 1 607 609
121 1 604 605
122 1 604 606
123 1 676 677
124 1 676 678
125 1 1195 1196
126 1 1195 1197
127 1 751 752
128 1 751 753
129 1 1096 1097
130 1 1096 1098
131 1 736 737
132 1 736 738
133 1 1177 1178
134 1 1177 1179
135 1 748 749
136 1 748 750
137 1 457 458
138 1 457 459
139 1 1276 1277
140 1 1276 1278
141 1 667 668
142 1 667 669
143 1 688 689
144 1 688 690
145 1 1060 1061
146 1 1060 1062
147 1 1216 1217
148 1 1216 1218
149 1 976 977
150 1 976 978
151 1 793 794
152 1 793 795
153 1 691 692
154 1 691 693
155 1 766 767
156 1 766 768
157 1 700 701
158 1 700 702
159 1 1132 1133
160 1 1132 1134
161 1 790 791
162 1 790 792
163 1 1372 1373
164 1 1372 1374
165 1 826 827
166 1 826 828
167 1 1150 1151
168 1 1150 1152
169 1 1201 1202
170 1 1201 1203
171 1 1222 1223
172 1 1222 1224
173 1 1156 1157
174 1 1156 1158
175 1 568 569
176 1 568 570
177 1 1075 1076
178 1 1075 1077
179 1 514 515
180 1 514 516
181 1 433 434
182 1 433 435
183 1 811 812
184 1 811 813
185 1 496 497
186 1 496 498
187 1 856 857
188 1 856 858
189 1 1381 1382
190 1 1381 1383
191 1 1390 1391
192 1 1390 1392
193 1 985 986
194 1 985 987
195 1 583 584
196 1 583 585
197 1 436 437
198 1 436 438
199 1 1168 1169
200 1 1168 1170
201 1 1240 1241
202 1 1240 1242
203 1 508 509
204 1 508 510
205 1 460 461
206 1 460 462
207 1 949 950
208 1 949 951
209 1 805 806
210 1 805 807
211 1 448 449
212 1 448 450
213 1 445 446
214 1 445 447
215 1 952 953
216 1 952 954
217 1 829 830
218 1 829 831
219 1 469 470
220 1 469 471
221 1 1237 1238
222 1 1237 1239
223 1 481 482
224 1 481 483
225 1 943 944
226 1 943 945
227 1 901 902
228 1 901 903
229 1 484 485
230 1 484 486
231 1 913 914
232 1 913 915
233 1 817 818
234 1 817 819
235 1 772 773
236 1 772 774
237 1 778 779
238 1 778 780
239 1 493 494
240 1 493 495
241 1 850 851
242 1 850 852
243 1 847 848
244 1 847 849
245 1 862 863
246 1 862 864
247 1 1291 1292
248 1 1291 1293
249 1 1192 1193
250 1 1192 1194
251 1 1717 1718
252 1 1717 1719
253 1 838 839
254 1 838 840
255 1 970 971
256 1 970 972
257 1 1432 1433
258 1 1432 1434
259 1 958 959
260 1 958 960
261 1 1402 1403
262 1 1402 1404
263 1 1063 1064
264 1 1063 1065
265 1 1453 1454
266 1 1453 1455
267 1 1531 1532
268 1 1531 1533
269 1 922 923
270 1 922 924
271 1 1873 1874
272 1 1873 1875
273 1 1456 1457
274 1 1456 1458
275 1 1906 1907
276 1 1906 1908
277 1 1534 1535
278 1 1534 1536
279 1 1462 1463
280 1 1462 1464
281 1 1513 1514
282 1 1513 1515
283 1 1951 1952
284 1 1951 1953
285 1 1042 1043
286 1 1042 1044
287 1 1312 1313
288 1 1312 1314
289 1 1816 1817
290 1 1816 1818
291 1 1876 1877
292 1 1876 1878
293 1 538 539
294 1 538 540
295 1 526 527
296 1 526 528
297 1 1024 1025
298 1 1024 1026
299 1 880 881
300 1 880 882
301 1 982 983
302 1 982 984
303 1 961 962
304 1 961 963
305 1 889 890
306 1 889 891
307 1 1033 1034
308 1 1033 1035
309 1 955 956
310 1 955 957
311 1 1417 1418
312 1 1417 1419
313 1 1828 1829
314 1 1828 1830
315 1 1330 1331
316 1 1330 1332
317 1 907 908
318 1 907 909
319 1 1480 1481
320 1 1480 1482
321 1 1051 1052
322 1 1051 1053
323 1 1684 1685
324 1 1684 1686
325 1 1921 1922
326 1 1921 1923
327 1 490 491
328 1 490 492
329 1 997 998
330 1 997 999
331 1 1057 1058
332 1 1057 1059
333 1 898 899
334 1 898 900
335 1 1423 1424
336 1 1423 1425
337 1 1117 1118
338 1 1117 1119
339 1 1336 1337
340 1 1336 1338
341 1 1504 1505
342 1 1504 1506
343 1 973 974
344 1 973 975
345 1 1495 1496
346 1 1495 1497
347 1 1420 1421
348 1 1420 1422
349 1 1501 1502
350 1 1501 1503
351 1 694 695
352 1 694 696
353 1 634 635
354 1 634 636
355 1 1378 1379
356 1 1378 1380
357 1 1834 1835
358 1 1834 1836
359 1 1498 1499
360 1 1498 1500
361 1 1882 1883
362 1 1882 1884
363 1 1087 1088
364 1 1087 1089
365 1 1537 1538
366 1 1537 1539
367 1 1600 1601
368 1 1600 1602
369 1 1162 1163
370 1 1162 1164
371 1 1540 1541
372 1 1540 1542
373 1 1528 1529
374 1 1528 1530
375 1 1576 1577
376 1 1576 1578
377 1 2155 2156
378 1 2155 2157
379 1 868 869
380 1 868 870
381 1 1186 1187
382 1 1186 1188
383 1 946 947
384 1 946 948
385 1 1963 1964
386 1 1963 1965
387 1 1558 1559
388 1 1558 1560
389 1 1969 1970
390 1 1969 1971
391 1 1477 1478
392 1 1477 1479
393 1 1030 1031
394 1 1030 1032
395 1 1324 1325
396 1 1324 1326
397 1 1126 1127
398 1 1126 1128
399 1 1210 1211
400 1 1210 1212
401 1 1048 1049
402 1 1048 1050
403 1 1183 1184
404 1 1183 1185
405 1 1108 1109
406 1 1108 1110
407 1 1549 1550
408 1 1549 1551
409 1 1621 1622
410 1 1621 1623
411 1 1426 1427
412 1 1426 1428
413 1 823 824
414 1 823 825
415 1 1993 1994
416 1 1993 1995
417 1 814 815
418 1 814 816
419 1 1924 1925
420 1 1924 1926
421 1 2080 2081
422 1 2080 2082
423 1 994 995
424 1 994 996
425 1 1078 1079
426 1 1078 1080
427 1 1447 1448
428 1 1447 1449
429 1 1543 1544
430 1 1543 1545
431 1 1234 1235
432 1 1234 1236
433 1 1129 1130
434 1 1129 1131
435 1 1231 1232
436 1 1231 1233
437 1 2065 2066
438 1 2065 2067
439 1 1573 1574
440 1 1573 1575
441 1 1510 1511
442 1 1510 1512
443 1 1567 1568
444 1 1567 1569
445 1 1492 1493
446 1 1492 1494
447 1 1066 1067
448 1 1066 1068
449 1 2269 2270
450 1 2269 2271
451 1 2095 2096
452 1 2095 2097
453 1 511 512
454 1 511 513
455 1 1303 1304
456 1 1303 1305
457 1 1243 1244
458 1 1243 1245
459 1 874 875
460 1 874 876
461 1 499 500
462 1 499 501
463 1 1306 1307
464 1 1306 1308
465 1 877 878
466 1 877 879
467 1 937 938
468 1 937 939
469 1 1363 1364
470 1 1363 1365
471 1 1660 1661
472 1 1660 1662
473 1 1411 1412
474 1 1411 1413
475 1 1681 1682
476 1 1681 1683
477 1 1690 1691
478 1 1690 1692
479 1 1618 1619
480 1 1618 1620
481 1 2056 2057
482 1 2056 2058
483 1 1657 1658
484 1 1657 1659
485 1 1711 1712
486 1 1711 1713
487 1 2026 2027
488 1 2026 2028
489 1 1705 1706
490 1 1705 1707
491 1 1627 1628
492 1 1627 1629
493 1 1579 1580
494 1 1579 1581
495 1 1855 1856
496 1 1855 1857
497 1 1180 1181
498 1 1180 1182
499 1 820 821
500 1 820 822
501 1 1867 1868
502 1 1867 1869
503 1 1369 1370
504 1 1369 1371
505 1 1321 1322
506 1 1321 1323
507 1 1255 1256
508 1 1255 1257
509 1 1714 1715
510 1 1714 1716
511 1 1582 1583
512 1 1582 1584
513 1 1702 1703
514 1 1702 1704
515 1 2071 2072
516 1 2071 2073
517 1 1282 1283
518 1 1282 1284
519 1 802 803
520 1 802 804
521 1 2017 2018
522 1 2017 2019
523 1 1654 1655
524 1 1654 1656
525 1 1708 1709
526 1 1708 1710
527 1 925 926
528 1 925 927
529 1 1720 1721
530 1 1720 1722
531 1 1258 1259
532 1 1258 1260
533 1 1861 1862
534 1 1861 1863
535 1 1603 1604
536 1 1603 1605
537 1 1594 1595
538 1 1594 1596
539 1 1651 1652
540 1 1651 1653
541 1 1348 1349
542 1 1348 1350
543 1 1345 1346
544 1 1345 1347
545 1 2149 2150
546 1 2149 2151
547 1 2008 2009
548 1 2008 2010
549 1 2083 2084
550 1 2083 2085
551 1 1666 1667
552 1 1666 1668
553 1 2191 2192
554 1 2191 2193
555 1 1897 1898
556 1 1897 1899
557 1 1813 1814
558 1 1813 1815
559 1 1801 1802
560 1 1801 1803
561 1 1885 1886
562 1 1885 1887
563 1 1396 1397
564 1 1396 1398
565 1 2206 2207
566 1 2206 2208
567 1 1750 1751
568 1 1750 1752
569 1 2212 2213
570 1 2212 2214
571 1 1822 1823
572 1 1822 1824
573 1 2173 2174
574 1 2173 2175
575 1 1762 1763
576 1 1762 1764
577 1 2011 2012
578 1 2011 2013
579 1 1327 1328
580 1 1327 1329
581 1 2104 2105
582 1 2104 2106
583 1 2203 2204
584 1 2203 2205
585 1 2107 2108
586 1 2107 2109
587 1 1468 1469
588 1 1468 1470
589 1 1339 1340
590 1 1339 1341
591 1 979 980
592 1 979 981
593 1 1768 1769
594 1 1768 1770
595 1 2182 2183
596 1 2182 2184
597 1 1786 1787
598 1 1786 1788
599 1 2122 2123
600 1 2122 2124
601 1 2128 2129
602 1 2128 2130
603 1 2368 2369
604 1 2368 2370
605 1 2140 2141
606 1 2140 2142
607 1 1315 1316
608 1 1315 1317
609 1 2230 2231
610 1 2230 2232
611 1 1399 1400
612 1 1399 1401
613 1 1780 1781
614 1 1780 1782
615 1 1738 1739
616 1 1738 1740
617 1 2068 2069
618 1 2068 2070
619 1 1936 1937
620 1 1936 1938
621 1 2272 2273
622 1 2272 2274
623 1 1351 1352
624 1 1351 1353
625 1 2227 2228
626 1 2227 2229
627 1 2362 2363
628 1 2362 2364
629 1 2350 2351
630 1 2350 2352
631 1 2194 2195
632 1 2194 2196
633 1 1777 1778
634 1 1777 1779
635 1 2185 2186
636 1 2185 2187
637 1 1819 1820
638 1 1819 1821
639 1 1810 1811
640 1 1810 1812
641 1 2197 2198
642 1 2197 2199
643 1 1891 1892
644 1 1891 1893
645 1 2098 2099
646 1 2098 2100
647 1 1318 1319
648 1 1318 1320
649 1 1471 1472
650 1 1471 1473
651 1 1990 1991
652 1 1990 1992
653 1 1846 1847
654 1 1846 1848
655 1 1957 1958
656 1 1957 1959
657 1 2242 2243
658 1 2242 2244
659 1 1900 1901
660 1 1900 1902
661 1 1486 1487
662 1 1486 1488
663 1 2290 2291
664 1 2290 2292
665 1 1978 1979
666 1 1978 1980
667 1 1753 1754
668 1 1753 1755
669 1 2215 2216
670 1 2215 2217
671 1 1954 1955
672 1 1954 1956
673 1 2332 2333
674 1 2332 2334
675 1 1465 1466
676 1 1465 1467
677 1 1633 1634
678 1 1633 1635
679 1 1756 1757
680 1 1756 1758
681 1 1054 1055
682 1 1054 1056
683 1 1837 1838
684 1 1837 1839
685 1 1912 1913
686 1 1912 1914
687 1 1843 1844
688 1 1843 1845
689 1 2251 2252
690 1 2251 2253
691 1 2287 2288
692 1 2287 2289
693 1 1987 1988
694 1 1987 1989
695 1 2263 2264
696 1 2263 2265
697 1 2254 2255
698 1 2254 2256
699 1 2116 2117
700 1 2116 2118
701 1 2236 2237
702 1 2236 2238
703 1 2224 2225
704 1 2224 2226
705 1 2311 2312
706 1 2311 2313
707 1 1894 1895
708 1 1894 1896
709 1 1450 1451
710 1 1450 1452
711 1 1642 1643
712 1 1642 1644
713 1 2335 2336
714 1 2335 2337
715 1 2038 2039
716 1 2038 2040
717 1 1870 1871
718 1 1870 1872
719 1 1942 1943
720 1 1942 1944
721 1 1807 1808
722 1 1807 1809
723 1 2245 2246
724 1 2245 2247
725 1 1522 1523
726 1 1522 1524
727 1 2233 2234
728 1 2233 2235
729 1 2299 2300
730 1 2299 2301
731 1 2032 2033
732 1 2032 2034
733 1 1918 1919
734 1 1918 1920
735 1 1852 1853
736 1 1852 1854
737 1 1672 1673
738 1 1672 1674
739 1 1114 1115
740 1 1114 1116
741 1 2278 2279
742 1 2278 2280
743 1 2041 2042
744 1 2041 2043
745 1 2101 2102
746 1 2101 2103
747 1 2044 2045
748 1 2044 2046
749 1 2047 2048
750 1 2047 2049
751 1 2119 2120
752 1 2119 2121
753 1 1972 1973
754 1 1972 1974
755 1 2293 2294
756 1 2293 2295
757 1 1615 1616
758 1 1615 1617
759 1 1333 1334
760 1 1333 1335
761 1 1981 1982
762 1 1981 1983
763 1 1354 1355
764 1 1354 1356
765 1 2296 2297
766 1 2296 2298
767 1 2125 2126
768 1 2125 2127
769 1 2323 2324
770 1 2323 2325
771 1 2353 2354
772 1 2353 2355
773 1 2329 2330
774 1 2329 2331
775 1 2371 2372
776 1 2371 2373
777 1 2131 2132
778 1 2131 2133
779 1 2059 2060
780 1 2059 2061
781 1 1792 1793
782 1 1792 1794
783 1 2110 2111
784 1 2110 2112
785 1 2086 2087
786 1 2086 2088
787 1 2023 2024
788 1 2023 2025
789 1 2338 2339
790 1 2338 2340
791 1 2305 2306
792 1 2305 2307
793 1 2113 2114
794 1 2113 2115
795 1 1795 1796
796 1 1795 1797
797 1 2344 2345
798 1 2344 2346
799 1 1864 1865
800 1 1864 1866
801 1 2164 2165
802 1 2164 2166
803 1 1999 2000
804 1 1999 2001
805 1 2347 2348
806 1 2347 2349
807 1 2161 2162
808 1 2161 2163
809 1 2308 2309
810 1 2308 2310
811 1 2341 2342
812 1 2341 2343

Angles

1 1 641 640 642
2 1 1070 1069 1071
3 1 716 715 717
4 1 647 646 648
5 1 704 703 705
6 1 557 556 558
7 1 713 712 714
8 1 572 571 573
9 1 1142 1141 1143
10 1 1430 1429 1431
11 1 581 580 582
12 1 599 598 600
13 1 566 565 567
14 1 935 934 936
15 1 941 940 942
16 1 1013 1012 1014
17 1 650 649 651
18 1 965 964 966
19 1 596 595 597
20 1 593 592 594
21 1 455 454 456
22 1 524 523 525
23 1 452 451 453
24 1 674 673 675
25 1 479 478 480
26 1 620 619 621
27 1 536 535 537
28 1 653 652 654
29 1 644 643 645
30 1 1442 1441 1443
31 1 533 532 534
32 1 542 541 543
33 1 554 553 555
34 1 917 916 918
35 1 989 988 990
36 1 617 616 618
37 1 626 625 627
38 1 686 685 687
39 1 770 769 771
40 1 464 463 465
41 1 920 919 921
42 1 833 832 834
43 1 488 487 489
44 1 740 739 741
45 1 1094 1093 1095
46 1 659 658 660
47 1 725 724 726
48 1 1100 1099 1101
49 1 1145 1144 1146
50 1 1103 1102 1104
51 1 746 745 747
52 1 1154 1153 1155
53 1 728 727 729
54 1 800 799 801
55 1 860 859 861
56 1 785 784 786
57 1 743 742 744
58 1 1649 1648 1650
59 1 734 733 735
60 1 608 607 609
61 1 605 604 606
62 1 677 676 678
63 1 1196 1195 1197
64 1 752 751 753
65 1 1097 1096 1098
66 1 737 736 738
67 1 1178 1177 1179
68 1 749 748 750
69 1 458 457 459
70 1 1277 1276 1278
71 1 668 667 669
72 1 689 688 690
73 1 1061 1060 1062
74 1 1217 1216 1218
75 1 977 976 978
76 1 794 793 795
77 1 692 691 693
78 1 767 766 768
79 1 701 700 702
80 1 1133 1132 1134
81 1 791 790 792
82 1 1373 1372 1374
83 1 827 826 828
84 1 1151 1150 1152
85 1 1202 1201 1203
86 1 1223 1222 1224
87 1 1157 1156 1158
88 1 569 568 570
89 1 1076 1075 1077
90 1 515 514 516
91 1 434 433 435
92 1 812 811 813
93 1 497 496 498
94 1 857 856 858
95 1 1382 1381 1383
96 1 1391 1390 1392
97 1 986 985 987
98 1 584 583 585
99 1 437 436 438
100 1 1169 1168 1170
101 1 1241 1240 1242
102 1 509 508 510
103 1 461 460 462
104 1 950 949 951
105 1 806 805 807
106 1 449 448 450
107 1 446 445 447
108 1 953 952 954
109 1 830 829 831
110 1 470 469 471
111 1 1238 1237 1239
112 1 482 481 483
113 1 944 943 945
114 1 902 901 903
115 1 485 484 486
116 1 914 913 915
117 1 818 817 819
118 1 773 772 774
119 1 779 778 780
120 1 494 493 495
121 1 851 850 852
122 1 848 847 849
123 1 863 862 864
124 1 1292 1291 1293
125 1 1193 1192 1194
126 1 1718 1717 1719
127 1 839 838 840
128 1 971 970 972
129 1 1433 1432 1434
130 1 959 958 960
131 1 1403 1402 1404
132 1 1064 1063 1065
133 1 1454 1453 1455
134 1 1532 1531 1533
135 1 923 922 924
136 1 1874 1873 1875
137 1 1457 1456 1458
138 1 1907 1906 1908
139 1 1535 1534 1536
140 1 1463 1462 1464
141 1 1514 1513 1515
142 1 1952 1951 1953
143 1 1043 1042 1044
144 1 1313 1312 1314
145 1 1817 1816 1818
146 1 1877 1876 1878
147 1 539 538 540
148 1 527 526 528
149 1 1025 1024 1026
150 1 881 880 882
151 1 983 982 984
152 1 962 961 963
153 1 890 889 891
154 1 1034 1033 1035
155 1 956 955 957
156 1 1418 1417 1419
157 1 1829 1828 1830
158 1 1331 1330 1332
159 1 908 907 909
160 1 1481 1480 1482
161 1 1052 1051 1053
162 1 1685 1684 1686
163 1 1922 1921 1923
164 1 491 490 492
165 1 998 997 999
166 1 1058 1057 1059
167 1 899 898 900
168 1 1424 1423 1425
169 1 1118 1117 1119
170 1 1337 1336 1338
171 1 1505 1504 1506
172 1 974 973 975
173 1 1496 1495 1497
174 1 1421 1420 1422
175 1 1502 1501 1503
176 1 695 694 696
177 1 635 634 636
178 1 1379 1378 1380
179 1 1835 1834 1836
180 1 1499 1498 1500
181 1 1883 1882 1884
182 1 1088 1087 1089
183 1 1538 1537 1539
184 1 1601 1600 1602
185 1 1163 1162 1164
186 1 1541 1540 1542
187 1 1529 1528 1530
188 1 1577 1576 1578
189 1 2156 2155 2157
190 1 869 868 870
191 1 1187 1186 1188
192 1 947 946 948
193 1 1964 1963 1965
194 1 1559 1558 1560
195 1 1970 1969 1971
196 1 1478 1477 1479
197 1 1031 1030 1032
198 1 1325 1324 1326
199 1 1127 1126 1128
200 1 1211 1210 1212
201 1 1049 1048 1050
202 1 1184 1183 1185
203 1 1109 1108 1110
204 1 1550 1549 1551
205 1 1622 1621 1623
206 1 1427 1426 1428
207 1 824 823 825
208 1 1994 1993 1995
209 1 815 814 816
210 1 1925 1924 1926
211 1 2081 2080 2082
212 1 995 994 996
213 1 1079 1078 1080
214 1 1448 1447 1449
215 1 1544 1543 1545
216 1 1235 1234 1236
217 1 1130 1129 1131
218 1 1232 1231 1233
219 1 2066 2065 2067
220 1 1574 1573 1575
221 1 1511 1510 1512
222 1 1568 1567 1569
223 1 1493 1492 1494
224 1 1067 1066 1068
225 1 2270 2269 2271
226 1 2096 2095 2097
227 1 512 511 513
228 1 1304 1303 1305
229 1 1244 1243 1245
230 1 875 874 876
231 1 500 499 501
232 1 1307 1306 1308
233 1 878 877 879
234 1 938 937 939
235 1 1364 1363 1365
236 1 1661 1660 1662
237 1 1412 1411 1413
238 1 1682 1681 1683
239 1 1691 1690 1692
240 1 1619 1618 1620
241 1 2057 2056 2058
242 1 1658 1657 1659
243 1 1712 1711 1713
244 1 2027 2026 2028
245 1 1706 1705 1707
246 1 1628 1627 1629
247 1 1580 1579 1581
248 1 1856 1855 1857
249 1 1181 1180 1182
250 1 821 820 822
251 1 1868 1867 1869
252 1 1370 1369 1371
253 1 1322 1321 1323
254 1 1256 1255 1257
255 1 1715 1714 1716
256 1 1583 1582 1584
257 1 1703 1702 1704
258 1 2072 2071 2073
259 1 1283 1282 1284
260 1 803 802 804
261 1 2018 2017 2019
262 1 1655 1654 1656
263 1 1709 1708 1710
264 1 926 925 927
265 1 1721 1720 1722
266 1 1259 1258 1260
267 1 1862 1861 1863
268 1 1604 1603 1605
269 1 1595 1594 1596
270 1 1652 1651 1653
271 1 1349 1348 1350
272 1 1346 1345 1347
273 1 2150 2149 2151
274 1 2009 2008 2010
275 1 2084 2083 2085
276 1 1667 1666 1668
277 1 2192 2191 2193
278 1 1898 1897 1899
279 1 1814 1813 1815
280 1 1802 1801 1803
281 1 1886 1885 1887
282 1 1397 1396 1398
283 1 2207 2206 2208
284 1 1751 1750 1752
285 1 2213 2212 2214
286 1 1823 1822 1824
287 1 2174 2173 2175
288 1 1763 1762 1764
289 1 2012 2011 2013
290 1 1328 1327 1329
291 1 2105 2104 2106
292 1 2204 2203 2205
293 1 2108 2107 2109
294 1 1469 1468 1470
295 1 1340 1339 1341
296 1 980 979 981
297 1 1769 1768 1770
298 1 2183 2182 2184
299 1 1787 1786 1788
300 1 2123 2122 2124
301 1 2129 2128 2130
302 1 2369 2368 2370
303 1 2141 2140 2142
304 1 1316 1315 1317
305 1 2231 2230 2232
306 1 1400 1399 1401
307 1 1781 1780 1782
308 1 1739 1738 1740
309 1 2069 2068 2070
310 1 1937 1936 1938
311 1 2273 2272 2274
312 1 1352 1351 1353
313 1 2228 2227 2229
314 1 2363 2362 2364
315 1 2351 2350 2352
316 1 2195 2194 2196
317 1 1778 1777 1779
318 1 2186 2185 2187
319 1 1820 1819 1821
320 1 1811 1810 1812
321 1 2198 2197 2199
322 1 1892 1891 1893
323 1 2099 2098 2100
324 1 1319 1318 1320
325 1 1472 1471 1473
326 1 1991 1990 1992
327 1 1847 1846 1848
328 1 1958 1957 1959
329 1 2243 2242 2244
330 1 1901 1900 1902
331 1 1487 1486 1488
332 1 2291 2290 2292
333 1 1979 1978 1980
334 1 1754 1753 1755
335 1 2216 2215 2217
336 1 1955 1954 1956
337 1 2333 2332 2334
338 1 1466 1465 1467
339 1 1634 1633 1635
340 1 1757 1756 1758
341 1 1055 1054 1056
342 1 1838 1837 1839
343 1 1913 1912 1914
344 1 1844 1843 1845
345 1 2252 2251 2253
346 1 2288 2287 2289
347 1 1988 1987 1989
348 1 2264 2263 2265
349 1 2255 2254 2256
350 1 2117 2116 2118
351 1 2237 2236 2238
352 1 2225 2224 2226
353 1 2312 2311 2313
354 1 1895 1894 1896
355 1 1451 1450 1452
356 1 1643 1642 1644
357 1 2336 2335 2337
358 1 2039 2038 2040
359 1 1871 1870 1872
360 1 1943 1942 1944
361 1 1808 1807 1809
362 1 2246 2245 2247
363 1 1523 1522 1524
364 1 2234 2233 2235
365 1 2300 2299 2301
366 1 2033 2032 2034
367 1 1919 1918 1920
368 1 1853 1852 1854
369 1 1673 1672 1674
370 1 1115 1114 1116
371 1 2279 2278 2280
372 1 2042 2041 2043
373 1 2102 2101 2103
374 1 2045 2044 2046
375 1 2048 2047 2049
376 1 2120 2119 2121
377 1 1973 1972 1974
378 1 2294 2293 2295
379 1 1616 1615 1617
380 1 1334 1333 1335
381 1 1982 1981 1983
382 1 1355 1354 1356
383 1 2297 2296 2298
384 1 2126 2125 2127
385 1 2324 2323 2325
386 1 2354 2353 2355
387 1 2330 2329 2331
388 1 2372 2371 2373
389 1 2132 2131 2133
390 1 2060 2059 2061
391 1 1793 1792 1794
392 1 2111 2110 2112
393 1 2087 2086 2088
394 1 2024 2023 2025
395 1 2339 2338 2340
396 1 2306 2305 2307
397 1 2114 2113 2115
398 1 1796 1795 1797
399 1 2345 2344 2346
400 1 1865 1864 1866
401 1 2165 2164 2166
402 1 2000 1999 2001
403 1 2348 2347 2349
404 1 2162 2161 2163
405 1 2309 2308 2310
406 1 2342 2341 2343
