LAMMPS data file via write_data, version 4 Jul 2026, timestep = 30000, units = real

576 atoms
3 atom types

-12.09024394845036 32.67582166004777 xlo xhi
2.349040878008405 18.236536833584406 ylo yhi
1.3802192049076343 19.205358506686466 zlo zhi

Atom Type Labels

1 Si
2 O
3 H

Masses

Si 28.0855
O 15.9994
H 1.008

Atoms # full

290 33 1 2.008599699154308 -6.053462858780928 6.1500842171516545 4.964352745576344 0 2 -1
488 55 1 1.911681880787693 -5.951705407826799 5.341241362406657 8.092763635991055 1 1 -1
124 14 2 -0.9804134926682923 -5.959736789767952 5.967795970274674 6.5437878860550285 -3 -3 2
210 24 1 1.735053124929125 -5.761262060996973 8.029734941052855 9.264959845407581 1 -1 -5
536 60 2 -0.896652880666955 -6.710760556065306 4.882100640735342 4.281058721676828 1 4 2
404 45 2 -0.9991497064809242 -6.857629250393374 7.463013655564376 4.564407340867271 6 -3 4
61 7 2 -0.9526259054632784 -7.419491114987007 4.94595977910053 8.613683296951528 -6 4 -1
159 18 2 -0.9292752557470682 -7.27788057041923 7.8283011766798625 9.624868381508442 2 2 -14
198 22 2 -0.9656877499866912 -7.409254031868528 8.489597469693422 2.27958440786824 6 -3 0
332 37 2 -0.9133558667338679 -7.5388938553600555 2.936110570769772 2.503207059369297 -2 0 -2
507 57 1 1.908365453015786 -7.552164339892419 8.696577998420594 3.8819869667038263 -3 -5 6
126 14 2 -0.8774645407594031 -9.199973109293644 4.120545036712803 4.327576263804101 -4 6 4
302 34 2 -0.920558616368311 -9.559950667657498 9.01012230856139 9.003905355473828 -2 -3 5
374 42 2 -0.901098787688173 -9.118523970170768 8.859432391883974 4.273963058288423 -2 0 -6
4 1 2 -0.963925130866382 -9.283352253306699 4.464423942431015 6.875116278814876 1 -2 5
36 4 2 -0.8672874200496989 -9.903576364886467 4.66187242135253 9.467000874326308 3 2 2
137 16 1 1.835887541707241 -8.952077939804155 5.216925992890904 8.216474096908936 2 2 -1
120 14 1 1.784512730238996 -7.6713308261757485 3.4704530639525144 4.047231711554014 -4 5 -5
260 29 2 -0.9485028119083193 -9.399091931464257 6.761977617404777 7.908807859243995 -1 -1 2
425 48 1 1.863677275221939 -10.19274728008852 4.258973475568003 5.588404959835602 -5 3 -1
436 49 2 -0.8559578293371597 -10.236002375684325 8.79332991454632 6.523519197896317 -2 -3 11
354 40 1 1.733042558273078 -10.509626006736507 9.274936525561433 4.97132237530972 0 4 -1
110 13 1 1.79698998067347 -10.327880388570692 8.016994186753161 7.985699686186274 2 3 -5
16 2 2 -0.9119179386208044 -11.10470447999667 2.9747107474197407 5.584654704244099 0 7 -2
242 27 2 -0.989893423118851 -10.80859455907396 6.163702218593598 2.8914964711896047 -3 0 3
268 30 2 -0.8784048411909587 -11.046489670395449 5.625554984199744 5.378559927395506 5 2 4
330 37 2 -0.8903373179351073 -7.086316669706018 10.196522335360608 4.34305411298379 -2 2 -7
574 64 2 -0.8185839770889197 -11.625281242472742 8.156995422223282 4.418587099176669 2 -1 0
146 17 1 1.696792288300459 -11.716446484932803 6.494832502521334 4.131827670475083 3 1 -7
424 48 1 1.717592680130668 -11.587328385916436 3.1938138772041333 1.7331633835623939 -3 -8 -1
214 24 2 -0.8883806020680965 -11.801463600581277 7.557304895742129 8.583765423190275 8 -1 6
257 29 2 -0.9479826628492389 -11.145988133876369 2.5070925294724002 3.101189778525063 -8 0 -2
542 61 1 1.799398760716064 -8.453227330056624 8.810419115276432 10.181042306090063 0 -1 -1
48 6 1 1.914653967344168 -10.285665109824091 5.823666093502096 1.42674867340701 -1 7 1
306 34 2 -0.8895182003219732 -5.500931393995349 8.929105883207406 7.842737060830762 -2 0 0
419 47 2 -0.9140871034291906 -5.281629975784146 6.513857697839741 8.874422882532187 -8 -1 -1
315 35 2 -0.933664027750396 -4.531841189942569 6.21302168378079 4.4026127802608706 9 -2 0
402 45 2 -0.914238338797984 -4.875448425733702 4.175155994876159 8.386933196202415 4 4 -3
380 43 1 1.949789630479887 -4.248940056076544 9.745710474818448 7.275788993806345 2 -5 -1
375 42 2 -0.9532241103094519 -4.042765786999395 4.789904821026401 1.6148862999931157 3 9 3
231 26 2 -0.9409659098547167 -4.067630788447806 9.561312401864935 5.670895469960052 2 1 6
366 41 2 -0.9843225123897177 -3.1009339840242696 4.316792765877697 5.318131758020433 -1 2 3
377 42 2 -0.9786100983994943 -3.622254283019476 8.899438864496126 3.0988970251092205 -4 5 -6
75 9 1 1.899713385534914 -2.9986841480185404 5.785967688954288 4.812855908871583 -2 -3 3
46 6 1 1.928979385804191 -3.627570722178019 3.3593696840845797 9.081108908080521 0 -2 4
118 14 1 1.867027696603271 -3.0726133375383835 9.630744522046866 4.4248978717328695 4 -2 -1
60 7 2 -0.905619782664032 -3.668166005489086 2.8359022641093077 3.220004557466145 5 -1 -4
352 40 1 1.814336295270056 -3.0648665685805625 2.8350088303069714 4.7293125593549945 -1 -9 6
300 34 1 1.841456136429536 -3.0729732225479864 3.512179354524756 1.848690752896541 6 -2 -6
364 41 2 -0.9679556475815742 -2.961486955239799 9.271288397219074 8.086039533219076 -5 -5 -1
360 40 2 -1.013936428529912 -1.922335376995422 5.76817912574654 3.6489255485112437 1 -2 0
175 20 2 -0.9361714802652163 -2.2202081777455884 6.766682524004179 5.862758781903833 3 -4 -4
474 53 2 -0.9861592303265283 -1.6201158394636455 9.116913338468407 4.848331527219873 2 -5 -1
220 25 2 -0.9939950288168354 -2.215675552101068 3.894651555147985 8.576994577444534 -6 -3 4
38 5 1 1.919514006508259 -1.568695713519908 8.631630996374899 8.624807623240308 -2 8 -4
401 45 2 -0.941063654236325 -1.8949338188366838 7.349000800409819 9.546991499325696 -2 -1 -6
470 53 1 1.840038316026024 -1.072099951536103 7.936476582025714 5.773796635560255 -4 4 1
408 46 1 1.956942190764122 -0.7593046897725451 5.290504170392019 2.6439507244571234 -1 2 5
314 35 2 -0.9338308378941095 -0.733296131766183 8.32830025965265 7.310890186234861 6 1 7
201 23 1 1.954721790558654 -0.646413546658609 3.897907903844316 8.34584915934835 -2 3 2
168 19 2 -0.9337982125907494 -0.6588526657280003 9.583297830651412 9.55303534214336 2 4 0
484 54 2 -0.9320518436050855 -0.2102592898872846 3.126231940271108 6.964329065359479 -4 1 6
40 5 2 -0.9888367329014806 -0.10649302903938818 3.1200120118707333 9.649751820278036 4 -1 6
476 53 2 -0.9898836087901091 0.21599813313728333 5.231505414883838 8.285178847872553 1 7 0
411 46 2 -0.9932626565853012 0.23030187782317846 7.401675439549569 5.033917216295852 6 -8 -7
239 27 2 -0.9278854144468711 0.626018954780422 4.9092098606969605 3.3112108955052357 4 5 6
199 23 1 1.985580763779548 -3.40400193631657 8.740563610028486 1.5275586340903347 -2 -2 -1
123 14 2 -0.9216752105038506 -1.5268142474759578 4.0501854861440725 2.0171032285995563 1 -2 2
50 6 2 -0.9072256731600598 -0.36243158286808175 6.391770178754578 1.4922207943614867 2 2 -6
249 28 2 -0.9450028125868511 -1.566508474265941 2.4418637606715765 4.284849183544477 2 0 -4
324 36 2 -0.9815103889537151 0.7749993401331086 8.689598019319615 2.158148567394555 2 -1 0
228 26 1 1.979077665123652 1.9349449447971985 9.752157905390959 1.993428837105768 5 -1 7
553 62 2 -0.9777020837288423 1.9492034964173168 6.504987670614365 6.701947264964297 -1 5 0
498 56 1 1.958671376410813 1.7601885029031816 7.278571451313807 5.334717387199054 2 5 4
180 20 2 -0.9161844920699415 2.40420552763476 8.766969314346962 5.4166852855183665 7 -1 5
278 31 2 -0.97985222323359 1.5560072463599486 7.236999559764886 9.177548291071725 1 7 4
236 27 1 1.979922725160361 1.612899975401108 5.967205971261203 8.17234256908187 2 1 -1
173 20 1 1.837526307144507 2.2422039248270167 4.96009675892027 3.5190504659534096 5 -7 3
256 29 2 -0.9153451654233776 2.558570670801437 6.355175792559379 4.228667488424952 2 -1 -3
493 55 2 -0.8990130189295003 3.0368343133688853 3.6910034048489253 4.28978385166092 -4 1 1
373 42 2 -0.9017810546212808 2.8938385875074655 4.857852800329633 2.008155130258298 -3 3 0
550 62 1 1.900706479742144 3.5409135168764205 3.9734573541489238 9.6959821893412 -5 1 -9
422 47 2 -0.9499233772005524 2.823801656288552 5.016943394748745 8.619571428529603 0 -1 -2
420 47 2 -0.9218303067388031 3.858886426988125 8.504364699158906 9.675889548666238 -1 -4 2
27 3 2 -0.8813228666464025 3.0085943645846616 2.4869757366420946 9.294408165926871 6 11 0
311 35 2 -0.8972510832755043 5.821306286264425 8.49621780555431 4.856179339032659 0 -6 0
289 33 1 1.997516849024653 6.466291615550299 8.644745321055609 3.3509826275741696 2 -4 -1
57 7 1 1.938440237160114 6.051865646125931 8.189034932854309 6.4452625548299896 3 5 -1
558 62 2 -0.9967303358648855 5.1175557469053725 4.0520031079674474 9.837338779170324 3 2 -4
131 15 2 -0.9046043238850983 5.102545767673702 4.208608424484191 5.960047064822845 4 4 1
111 13 1 1.847512291177942 4.320682196912523 9.669438593497853 8.65948683589168 0 -3 5
273 31 1 1.895024564259687 6.240203251225607 5.175166711294613 6.5857695916527454 -2 -8 6
107 12 2 -0.949083967039871 5.707614680129863 6.687795654847691 6.723354159101119 -1 -1 -2
227 26 1 1.807120646648586 4.255159916677327 3.04244292545352 5.05008347764827 1 2 0
35 4 2 -1.036718953578484 5.51829171048365 8.985667267596074 2.1403716870770806 5 4 2
501 56 2 -0.9415054432799311 5.08239945325453 9.041516627841977 7.394915114713424 -5 7 1
464 52 2 -0.9785749447221607 5.511273260146675 5.527981615333208 1.8844110411097972 -5 2 3
186 21 2 -0.9187683588589165 5.410101932074044 2.4984277959501813 4.02478881845967 -7 -1 -4
497 56 1 1.867888881604075 6.883858752163858 6.283923881882249 1.5536989614846668 -1 3 3
381 43 1 1.980987118105689 6.638909481503793 4.05108746600335 9.41480356591198 -2 -1 -5
13 2 2 -1.032791491078431 6.790099999797393 4.586626641893423 7.969994964609837 -1 -4 -2
559 63 1 1.920586261496908 2.4311950720217226 8.007814687709887 10.269448436985266 7 -2 1
446 50 2 -0.9348714280350103 7.095563197645349 7.271926728737858 2.8251323820763816 0 -1 3
216 24 2 -0.9423245963160962 7.349599245452703 2.6141073063095264 9.606629043017652 -6 7 -7
477 53 2 -0.9330096018640496 7.458998127849354 9.887387227064591 3.5163178841385583 2 8 3
370 42 1 1.842634647455953 8.668816349031323 4.501804697322032 4.922712438593292 4 0 5
382 43 2 -0.9267687111186123 7.673348717156925 8.375526482646503 6.781404345885457 -5 5 -5
112 13 2 -0.9524840170472231 8.2123631546528 6.933074532245121 8.791401923925818 -7 5 -7
320 36 2 -1.003726780351879 7.969063276610624 3.3192298991430906 4.164596732678095 -8 -1 -5
284 32 2 -0.87045659500884 8.099228594707734 5.254232861317712 1.8053047953193841 1 0 -1
5 1 2 -0.9224969275282621 7.556130561008741 5.42407266911067 5.630743606581572 4 9 -1
91 11 1 1.908154437537987 8.895647822763385 7.955701199117278 7.7527125348165455 7 3 5
162 18 2 -0.8904809758018847 9.554769697460957 5.473172120097146 3.9265748226149637 1 0 -5
45 5 2 -0.9312748047275564 9.425892002247673 9.229235488191453 8.525524757341495 -2 -3 -5
570 64 1 1.818095110225869 9.613674860741133 5.639982462507687 2.3604757528363676 -6 -4 0
171 19 2 -0.8824978577389609 9.935531505327864 4.042267323305566 5.822348342714884 3 -2 3
43 5 2 -0.8873687970852513 9.904808085844364 7.2154161586949845 1.992412614156529 -6 3 -5
170 19 2 -0.9270445232151889 10.214858670291298 7.339657564996732 7.028922326246212 -5 -7 -3
296 33 2 -0.9420901218422367 11.8603801057171 5.776510154874842 5.583298230971167 -9 -4 -4
479 54 1 1.754829392351375 11.543324387032316 4.2140628906331745 5.6091222513716215 0 -2 1
232 26 2 -0.9977498642288474 11.87736275999987 4.281001945675124 9.680595241285772 -4 -2 0
136 16 1 1.764267835878603 11.745217079233269 6.917699857947146 6.709918420826203 -4 0 2
405 45 2 -0.8603231444552021 12.686663873165857 8.137945065801727 6.160036264423289 5 -2 -3
357 40 2 -0.8306465029715577 12.466008638568008 6.150704108519728 7.981844770770965 2 4 5
487 55 1 1.810124110016407 12.623652571203236 4.529785918122593 8.308823618014557 4 6 4
104 12 2 -0.9240865234315682 12.142940346631258 3.6943212621779864 7.040699925228441 0 -1 4
418 47 2 -0.9722193587670018 10.06479893474671 2.5832391659941023 9.501734231062967 -5 2 1
295 33 2 -0.8866878328045141 12.35741184015973 7.909638769896303 3.4470252617183395 -6 1 2
468 52 2 -0.8738277179476044 12.112199700208715 3.5893122901389507 4.201385809872102 6 -3 9
549 61 2 -0.9523417604089977 12.871415674981469 10.227547339397713 4.6541059101221025 1 2 2
55 7 1 1.668698645286841 12.914353089054226 7.066221939922802 2.161770664198982 -2 -2 1
49 6 2 -0.8717203508339608 13.244059452760444 5.461030224104573 2.559154495604072 1 -3 0
492 55 2 -0.9865591103448467 10.685429294949303 4.783802782992243 1.5997508902700708 4 0 -2
155 18 1 1.772359715413904 13.118566206176775 8.641348917265578 4.708768282475495 -4 -1 0
84 10 1 1.741714178339179 13.429355542510537 4.076182756461484 3.3441239952356523 6 -3 3
531 59 2 -0.8497530711290087 14.089821389664623 3.879339251790413 8.38535007190236 2 4 5
59 7 2 -0.5024820553309223 14.639022774581372 4.271475584702239 4.393761557767945 -5 -1 3
509 57 2 -0.8314549074760964 14.70442209998715 8.543268037865705 4.30577947354831 -2 4 -3
530 59 2 -0.8401756001893669 14.349077264090843 7.835213928459575 1.9201110089959679 1 4 -6
417 47 1 1.598928830769939 15.384309224797603 8.731650225405907 2.7917233461864064 1 3 5
387 43 2 -0.918682956429869 13.71426471103351 2.8729295457075104 2.32914352192689 2 4 -9
331 37 2 -0.477260903196395 16.84979090881 8.085991600149999 2.556731439193846 -3 1 -3
539 60 2 -0.4478767958635662 13.64122983172597 7.9139381438762895 10.075103458531695 -3 -3 -2
237 27 1 1.201730824717773 31.133311508136373 4.235533671402236 3.50068473610824 -8 4 4
349 39 2 -0.82157998926759 31.74864285008453 3.9787546833873892 1.9921028446124565 -6 4 6
342 38 2 -0.7827552769068843 31.405488834784222 2.8387876808167944 4.299478459775308 -6 -3 5
158 18 2 -0.8128620602022629 31.6089867764183 5.647053017083071 4.1444760243569325 7 4 -4
280 32 1 1.369230007125626 32.424270637317825 7.18104632963206 10.039858870699502 3 -3 -4
29 4 1 1.912226530971682 -5.815086478256595 14.229959808370726 5.040054699203248 -4 4 -2
221 25 2 -0.9890264140079162 -6.522943396712906 13.042377140758248 4.233097424553868 0 -3 1
224 25 2 -0.9511435648595519 -5.7331586718418155 11.349770389161861 2.6202696054367665 0 -1 0
86 10 2 -0.8703211385205758 -6.693106552551697 15.651409841410185 5.347276179255779 -7 8 2
196 22 2 -0.9618325073467474 -6.638611762834379 12.14825503229585 7.7615888846774945 4 6 -1
344 39 1 1.880170534620638 -6.956165523441034 11.652392436591281 3.5561395476612168 1 0 3
116 13 2 -0.9460300377479397 -7.301386676487592 15.971112866825447 9.755175111606544 2 0 6
197 22 2 -0.9158647578962861 -7.580435538742772 18.077107626744585 4.998205144786457 2 -1 6
301 34 2 -0.9948841141988803 -8.007141322379105 14.2601807726436 7.930137132109345 -2 -2 1
165 19 1 1.891870889149669 -8.183359421005722 12.65752188654577 7.790151699972856 2 -1 3
192 22 1 1.777990410190098 -7.956044006318511 16.613941128292254 5.656304341858139 2 3 2
203 23 2 -0.9827011569706656 -8.885929672699714 11.992806922212953 9.026028233891465 4 -4 2
271 31 1 1.785815992125264 -8.337954905371078 15.63148582427107 8.591159238936344 5 -2 -4
76 9 2 -0.7964371018207719 -8.254395317624237 16.768505888644203 7.309658885340162 4 4 -4
443 50 1 1.348736709898052 -10.340383283519614 12.289920066390554 5.644941043845163 4 3 2
557 62 2 -0.97554795587779 -8.305735984981347 11.983322893207752 2.6871259296467813 0 -1 3
33 4 2 -0.8837812164360197 -9.879400664515881 15.412146996782056 9.172950523709794 1 -3 -12
347 39 2 -0.917451254423757 -8.916889739064167 12.26982831480922 6.427713471516095 4 -4 -5
494 55 2 -0.9053834002885992 -9.288352679445754 15.86948552024575 5.13658285528681 -1 -4 -5
182 21 1 1.661934049637744 -10.727383556921136 15.162467339738829 4.670271906398938 -4 -2 3
485 54 2 -0.8195312530531392 -10.803004018163147 10.905350827165659 4.86438749489482 -1 -1 -2
490 55 2 -0.8296503197668235 -11.033595541199388 13.728523438098232 5.5045335554248345 4 -8 0
122 14 2 -0.8758508568888562 -10.46759001395538 14.8452965360601 3.0928123835649157 -4 -1 0
93 11 1 1.682466293493442 -11.23077691089839 14.31918518075679 1.7416470935485897 -1 0 -1
275 31 2 -0.8222219903274514 -11.918035108028844 16.266755587053545 4.560693707441732 0 3 1
390 44 1 1.631822012889728 -11.880198746279579 17.95739861359851 4.455765754174629 6 0 -1
430 48 2 -0.9115463894687214 -10.497558721018981 12.88529434581006 1.4846667463918648 -2 1 5
140 16 2 -0.9279348879810594 -5.202399776660814 13.633738568904775 6.387571964743726 -4 1 6
575 64 2 -0.9228010723843969 -4.527546564114966 14.865133055686623 4.346179002677742 4 4 -5
3 1 1 1.952038647742194 -5.1269511442149565 12.613937959660465 7.619018325567275 5 -7 -4
250 28 2 -0.8157959978511758 -4.443011847336433 13.447059227182947 8.867415733849118 -3 -2 5
386 43 2 -0.9491553326602326 -4.24577793337997 11.340794031117518 7.3929714315978 4 -1 -4
94 11 2 -0.9370809907361982 -4.125270585385051 15.695384484351628 1.8646644027739465 6 1 0
307 35 1 1.887266300329693 -3.3843000189745727 15.072806613799084 3.2216235037758727 0 0 -2
350 39 2 -0.9543192995744605 -2.844535244265641 13.565884321392659 2.922421816632354 -6 1 4
189 21 2 -0.9177610337548964 -3.4706618311530537 17.60338904967211 5.84175732499757 -2 1 0
212 24 2 -0.955132917615045 -3.7028656775135254 17.789423119950712 8.433413605469962 -3 -2 -6
274 31 2 -0.8650385916314848 -3.5216537291031873 15.437713283586184 7.668514338635787 11 2 1
299 34 1 1.928904019414229 -3.0405944505670366 16.94200684579318 7.294205753540692 3 -1 2
53 6 2 -0.9305863446657744 -2.0385159605556264 15.839707914938035 3.619193557397121 -1 -4 -2
156 18 1 1.972529315159377 -2.1127470593428335 12.198453995650734 3.090665546038336 1 4 -5
144 16 2 -0.9692218009551761 -2.9819877335794427 11.200853891008244 3.9348710073001754 1 1 6
190 22 1 1.697063714305163 -3.0945970677559984 14.41261336206217 8.86362501980609 5 1 -3
554 62 2 -1.018865890028021 -1.4945814195477833 16.938041644337115 7.312774322488587 3 -7 -2
391 44 2 -0.8322733065077056 -1.810419828763564 13.395206414042296 8.604309841642618 -3 3 -7
208 24 1 1.802367827542568 -0.8412483178371684 17.043326561497587 3.762922277185418 2 2 2
211 24 2 -0.8980695243951403 -0.7146499714348575 12.682954609711086 6.304882595678577 3 1 2
70 8 2 -0.9863259766557951 -0.7048683703308303 12.595527282829345 3.6926238594599243 5 -2 8
442 50 1 1.842907905063675 -0.32212986687295775 13.181195790352177 7.8501575210508445 0 -1 -3
523 59 1 1.85259042728249 -0.13099817755975351 17.445372683603708 6.618386127075742 -2 -2 -2
106 12 2 -0.8898958854296616 0.0065149495532175195 16.795935603927745 5.109861107832968 -2 8 -4
448 50 2 -0.8739422307778617 0.16318545909317983 17.544288449850505 2.5937587964675046 -2 -12 6
166 19 2 -1.017783069047674 0.5306017867942234 14.46321032745291 8.010489769601005 4 -5 3
506 57 1 1.91561054296281 0.2021956174504922 12.480935138229086 5.02303675458088 -2 -2 0
500 56 2 -0.9442219774363598 -1.806503304723897 11.731283371404526 1.5778569991691298 4 -7 -3
14 2 2 -0.8846215894667208 0.6602031220780464 12.01887125318224 8.337279174901703 -3 1 2
517 58 2 -0.9254651678326731 2.861773622726485 10.350200192136924 8.37004510870366 -4 -4 2
439 49 2 -0.938944967171673 2.606221238365059 10.308118880305496 3.3536720926178187 -7 1 1
163 19 1 1.840390909336441 2.3943964006155696 10.304010039962112 4.960885120860709 1 -1 0
226 26 1 1.950346735260043 1.687254911694584 15.550500037380484 8.17938051033942 3 2 0
414 46 2 -0.9687047190711537 1.1867730102981682 13.750077628424322 5.004011964646418 8 1 -1
71 8 2 -0.9083356343512293 2.2207909839600575 15.787806928106178 9.71692068133272 7 -2 -6
365 41 2 -0.9849978692586242 1.0173597904189933 16.80215470152142 7.563174682041339 1 0 -4
438 49 2 -0.9989149954516663 0.988546438021249 11.142672428356764 5.203099675153263 4 -4 -2
65 8 1 1.82252170879177 2.287771756301961 11.856951718420799 8.419796262238464 4 -4 -6
449 50 2 -0.9160452120956067 2.216804884337227 13.821438469345733 2.661704883178352 -5 2 -2
335 38 1 1.830250726928244 2.4914708149370917 14.156122351488236 4.189568130133469 2 7 0
499 56 2 -0.7256087669647372 2.4565952818733425 16.33496362788739 1.7326883836516114 3 -8 1
277 31 2 -0.999726616150624 5.251223963619983 10.756333714960526 9.37825858983796 -2 2 -6
176 20 2 -0.9501363355868183 3.0460243324752945 15.367359471878483 7.320434061777661 5 -2 -5
413 46 2 -0.8944815475557395 2.9564903335844246 15.681811919625481 4.646021804573566 3 2 1
526 59 2 -0.8498799366804449 3.6810831421555026 10.9237948080291 5.703306174312227 4 -7 2
337 38 2 -0.8948588324156106 3.6468119628171216 13.134737674055227 4.682264388729173 -6 1 -1
453 51 1 1.673286724715485 3.9881172358890336 12.4796930090444 6.076445191500321 -6 0 3
336 38 1 1.763754154082853 3.6526218626952573 16.105221709590044 6.030432551250703 -1 -5 -3
421 47 2 -0.8915503463867939 3.7910265524259295 17.68985714443088 6.031493447694233 -1 -3 3
26 3 2 -0.9181622045167942 2.6497887369125372 12.358940371039576 9.96341589723276 -1 3 -5
410 46 2 -0.9593600528563252 2.903660898936028 12.756691555739682 7.2901247263781865 4 -3 3
252 28 2 -0.8750648840038032 5.150038442638037 15.400435745577003 5.9740716058978185 3 -6 -1
34 4 2 -0.9267185699223073 5.556301030164212 14.53718259353117 8.717394096753603 -5 4 -5
540 60 2 -0.8549451286540236 5.183187389127314 14.536607046106226 2.4608315520515105 -1 9 13
431 48 2 -0.7887840943986829 5.5281513510994404 12.943253788785686 6.516867376869629 -2 -6 7
460 52 1 1.781185067918385 6.459040366939208 13.58955607579082 2.164795564700653 5 0 -3
11 2 1 1.64604644466497 5.871628219436092 14.491098708816281 7.0879970398115955 3 7 -3
73 9 1 1.439115115314318 4.456282205840919 15.694458143790339 1.5876740217587741 -7 1 2
496 56 1 1.809208776813672 6.792252376360496 11.098419733181881 9.678699177017341 -4 0 -4
491 55 2 -0.8751309200523527 6.675108994529948 12.313720132038867 3.1812133416523767 -6 1 0
471 53 1 1.901733322628033 6.968675216797751 17.985139671088678 4.167455443829706 1 0 -3
456 51 2 -0.9052864103623182 7.046047427560341 17.340669028559578 5.674080767559081 -4 -3 3
348 39 2 -0.9412906841312376 6.921206950696158 12.683427605247548 10.071400679892045 -4 1 3
416 47 1 1.998253190040464 5.983034491635413 13.943433464582636 10.11012063877402 -1 3 -9
167 19 2 -0.8413806842076146 7.4585932057356725 14.892445794048008 6.9514204739579215 -4 3 1
12 2 1 1.826749136044817 8.07655183875269 16.343423800835897 6.485428593994461 -2 2 1
58 7 2 -0.9489256047741301 8.474437009321372 17.24146377422967 7.735043905451325 2 1 1
200 23 1 1.92875872160866 8.432013994908251 15.968635726647143 2.213976391955887 0 3 -2
327 37 1 1.930265201967458 8.000799565689723 11.404979093554214 3.4217059039260014 1 0 6
372 42 1 1.941419260565991 8.676006906779103 17.645357049436065 9.245149061394581 5 5 -2
403 45 2 -0.9535515153994499 7.501443119333436 16.924767427725076 3.075497539428831 -2 -2 -5
527 59 2 -0.9268594996730686 7.736420893820624 11.09833867046008 8.393427273173678 -4 -1 0
482 54 2 -0.8959756338148127 7.919367190091469 14.445470099596104 2.316785056005104 9 6 3
473 53 2 -0.8915326437681648 8.84992940981459 16.287827034908148 10.077895402525192 -2 -2 1
384 43 2 -0.9377109135962827 8.651835670986676 11.888737557948577 4.794222639510834 7 -1 2
441 49 2 -0.9537906872834994 8.968471003214075 11.400441670149192 2.1449292782624747 -1 0 -3
426 48 1 1.921552316663286 9.321877163747173 10.840092836490278 8.186410158346725 0 -6 6
67 8 2 -0.9278519335007043 9.335419389691955 16.082697334610824 5.475101443628058 -3 -3 -5
80 9 2 -0.9550710128071621 10.002231685998579 16.1590599863959 2.4186615905767854 -7 1 4
191 22 1 1.921732603723454 10.603872888421249 15.112253018695956 5.542383793049897 -3 -1 -3
304 34 2 -0.9655665130365065 10.042403434753053 13.736221403974817 6.075768445291884 6 3 0
533 60 1 1.899360026375107 9.985590513817522 12.180209793745306 5.60501630765572 10 -7 3
238 27 2 -0.8987399074903896 11.293584304464472 14.780806226953978 4.1008619832217175 3 -6 1
235 27 1 1.785404957945687 11.335796400167508 15.276607265821884 2.535158376181694 -6 6 -6
103 12 2 -0.9817340938380817 10.170077817256063 11.483950610974809 9.283566451043853 4 7 -8
303 34 2 -0.9535090169156399 9.978625594127505 11.020546680932682 6.732056763995475 6 -1 4
400 45 2 -0.9064903072252208 12.5938383122753 16.307370156898052 2.291112824028188 2 4 4
72 8 2 -0.9983218309850209 11.58073805282727 15.852799088563266 6.517906846212693 0 -3 -4
423 47 2 -0.9326321369697828 11.26904837892785 12.053639654759856 4.6501780043776915 -1 6 6
6 1 2 -0.9118777383855093 11.096865937086369 13.938311322234895 1.6452475001909115 -2 1 -8
412 46 2 -0.9529678179768898 12.621607786676568 15.031539716091718 8.832186249102264 2 -1 -3
451 51 1 1.867914557311118 12.829920381729837 11.803499914382837 4.853517753611012 4 -1 2
2 1 1 1.898914871051773 12.91383711416494 15.750338385690984 7.368194490344787 0 1 0
561 63 1 1.960289061936484 12.914088561389521 17.68401954490713 1.4888952588172026 -2 2 2
265 30 2 -0.9783728707653717 12.13260384340999 12.960292305990126 10.263921520083496 -1 2 1
532 60 1 1.822415577955521 13.2350139988382 13.886604376762847 9.731403727726851 5 0 -3
157 18 2 -0.9871664096061026 13.272759398571738 12.334044070482925 6.2879937890943 -3 -2 1
17 2 2 -0.8917424577572748 12.466120209484371 10.318551482627754 10.169480906531847 1 -1 4
564 63 2 -0.8666983839207798 15.247396418338349 10.311480003677868 2.3572435503655496 -7 6 4
525 59 1 1.679135704014737 14.619541214239723 18.185495972759046 8.373536593895391 1 -7 2
69 8 2 -0.444571673681358 16.19478099054175 17.990177683478603 7.983886190473287 3 0 -3
385 43 2 -0.8176513903387694 14.759135831098023 17.746197646803235 9.938558275634 -4 1 1
555 62 2 -0.9411468540837175 13.642821957945925 17.094548153775424 7.726864617707981 -2 -4 4
188 21 2 -0.8976379872827448 13.722650051476888 12.33735140466866 3.546730935530169 -1 0 1
282 32 1 1.768127698816564 14.343399439562182 13.147028002494451 7.086821913249437 -1 2 -2
495 55 2 -0.9368517903799214 13.977078048107126 14.680457818950156 6.778481747784518 -1 5 6
132 15 2 -0.8866443604413388 14.216673387117902 13.000749803572532 8.701130986782992 -2 -1 -3
461 52 1 1.425894273519114 14.360336892348483 11.639903000886207 2.3126075917354187 1 -9 3
465 52 2 -0.5064791658207373 15.734124703872508 12.5987457167316 6.494499324930181 9 -3 8
169 19 2 -0.479707792216681 31.927231806273475 14.271733846644587 1.8897940177381798 -3 -4 3
179 20 2 -0.9401428587358249 -10.519182143875195 4.273964774412412 19.01474140059195 2 1 -6
187 21 2 -0.9660041906106334 -6.154445253476229 6.336261838722248 19.186896977047354 0 1 3
321 36 2 -1.013673605007027 -5.9605837205219006 3.947771819595778 11.843851266017083 4 0 2
328 37 2 -1.005570459359237 -5.971760598837233 6.530308496001343 12.043992870966981 6 3 -6
100 12 1 2.020547146469 -6.815473307628484 5.221884152740074 12.211271232759685 -2 6 -2
455 51 2 -0.9732355214409348 -5.879816604365963 3.0675910266854594 15.41413839616499 8 6 1
338 38 2 -0.9837112273932694 -7.221124901943607 7.772422117756267 17.509040990473522 -1 -1 -2
552 62 1 1.868917088567578 -7.228881647687811 3.3670994907888736 16.223842604258223 -4 0 7
472 53 2 -0.9273822262580275 -6.973667365559667 2.9227411835724237 17.785412958876698 -7 3 -3
396 44 2 -0.9911469533747129 -7.511375370711771 5.160483066733752 13.634681101544023 -1 -7 8
64 8 1 1.967674132658036 -7.428218073330195 7.26798346002296 18.999028873667903 6 -5 -8
142 16 2 -0.8855510401494795 -7.630862075931051 5.005564821991992 16.095517162752934 -1 7 -6
316 36 1 1.880355806693205 -7.0772162895863495 8.500589115112763 16.07622220557638 5 -4 -1
160 18 2 -0.961432259502999 -7.584577258000418 7.428045745142196 14.974535166904797 -6 -1 0
229 26 2 -0.8964324495441737 -8.068595022320523 4.952721371325967 11.238765413900614 -3 5 0
292 33 2 -0.910016646876158 -9.733249323696526 6.127290962429553 14.633563081940723 4 6 -3
262 30 1 1.744802614282487 -9.426984885977413 4.030681026757564 10.934678561676375 2 0 -1
267 30 2 -0.919212877806471 -9.504208100847443 2.4526816311210955 11.152681679524765 -10 2 3
108 12 2 -0.8309121845249857 -8.111684083814632 9.831872500328153 16.007167898715252 4 0 3
538 60 2 -0.9575861474334009 -8.723518039701693 6.36049310850953 19.16234568375964 2 7 10
371 42 1 1.876886242614056 -8.158958349776228 5.953913907772992 14.889991602996327 -2 -3 3
51 6 2 -0.9009434952574944 -9.417098121070637 8.493553432889156 11.41666075503447 0 0 -1
15 2 2 -0.9739352497372497 -8.38434441995063 2.5057044711605116 15.529766066825351 -5 0 4
97 11 2 -0.927918137050148 -10.073873637036383 8.692566065362996 17.138246673966307 -3 -3 -1
310 35 2 -0.8513398259491336 -10.434654201529575 4.561509331443524 12.064224691053862 -4 -2 3
334 38 1 1.572460479933933 -10.940554355228635 8.978970656841117 11.977978835646994 -3 -2 0
81 9 2 -0.8153392762379073 -10.913788137530728 8.438464905657916 13.57050654261277 2 -3 3
37 5 1 1.56008857205955 -11.082475538840523 6.994103359370023 14.387486367420607 0 8 -4
356 40 2 -0.9374135123315019 -11.190357840166385 6.616232116107615 18.188724387707083 -3 2 -6
74 9 1 1.796098421087083 -11.498869939492078 7.88994832968225 17.280469734703463 -6 -6 -6
204 23 2 -0.8075793841400665 -11.882242879561476 7.306160373397773 15.862534365183377 -1 -6 -5
39 5 1 1.699060793107599 -9.553828142138894 10.179907431954996 16.818643651473025 -3 -1 5
505 57 1 1.342753982622349 -11.92803697817708 5.132738892473732 12.116907683600523 -2 6 3
566 63 2 -0.9489101632542807 -7.741351759361981 10.198640973860421 10.502660365153321 2 0 0
41 5 2 -0.9373967899361508 -5.571778159126428 8.846648031181303 15.737136788424726 0 -5 8
432 48 2 -1.035011014063869 -3.9197356769459013 7.355472921023889 18.79231829184551 -2 4 2
151 17 2 -0.9533162017192206 -1.7821590642153975 8.74106536768505 19.16687244247739 1 -7 -4
392 44 2 -0.8382647409092572 -5.002192515260413 8.501017667830027 10.669211711113958 3 -7 1
101 12 1 1.85012478230739 -4.6895308025219276 7.5531833598804585 11.953766981659433 5 -1 2
288 32 2 -1.024946859938952 -4.706633357200421 5.669593028457488 17.075706958217474 -5 4 -4
285 32 2 -0.876541024897395 -4.755816230029541 8.54904114850936 13.232007611408273 -2 -1 3
569 64 1 1.909653483946702 -4.290493680875645 8.555952685772702 14.811810429981149 9 -2 6
264 30 1 1.905076551474093 -4.78830611128306 2.8668812772102505 11.796389939435759 -3 -6 -1
524 59 1 2.049780639298925 -4.707071638097164 6.00683106723339 18.61353055916109 1 -10 2
281 32 1 1.948745186582224 -4.420300335770258 2.9862871476068755 14.770748400613872 3 6 -2
322 36 2 -0.9476238066262961 -4.225774821891698 2.5302206718791163 13.274406896021661 5 -10 4
98 11 2 -0.9105741616939235 -4.1975045059626375 9.921680895094694 18.676003992398968 -10 -2 -3
269 30 2 -0.9450672260012977 -3.839313176294757 7.030550036314803 15.012651636152146 4 7 -3
287 32 2 -0.9615940600563044 -3.9753450986416734 4.534032501028322 14.759028393388968 1 2 -10
521 58 2 -0.8936339041211622 -3.6713181378593838 3.4331339688244897 10.699645876548818 4 1 5
83 10 1 1.95221644841286 -3.683664068617299 5.662125881150331 15.830023461277685 -3 -2 -1
195 22 2 -0.9317825194238654 -3.1716521609997326 7.017328996084909 11.793320289357766 -6 -5 -3
369 41 2 -0.9109971486231919 -3.057566145888755 9.415249916239958 15.318473763474993 5 -1 0
202 23 2 -0.9392091228564959 -3.1770356439982397 2.554678323114078 18.412779642389545 3 5 3
95 11 2 -0.946631890433611 -2.1668792314858614 5.551019217819957 16.338285409586952 11 4 -9
345 39 1 1.889992469116988 -1.685946142046575 7.085292249793713 11.147989305909615 -2 5 -3
230 26 2 -0.9339265182933512 -0.8885506010255728 5.783044419202871 11.486235599674927 0 -1 3
397 45 1 1.916174571091435 -0.7433970267412313 5.200881388208534 15.672815652088197 5 -2 3
152 17 2 -0.9787608271289102 -0.962127104810742 5.260519135422361 14.105187819307398 0 -3 0
563 63 2 -0.9609388779171844 -0.8318159860465446 8.29213492897865 11.744051093192684 7 1 0
409 46 2 -0.924952101202999 -0.414960937738849 3.7700173778719854 16.305536356458518 4 5 3
516 58 1 1.825011929409071 -0.22196833881868194 4.927307210533627 12.748651670772686 -6 0 0
145 17 1 1.830995308251353 -0.3473077236735449 8.054641938499987 19.01685338608557 -1 0 8
463 52 2 -0.887099608382895 -0.4149135828237043 3.3325950950154968 12.239097605847876 -1 -4 -2
406 46 1 1.86132154484374 -0.04260753348251889 9.536678184884929 11.00124089391033 6 2 7
457 51 2 -0.9623256721797656 0.19125786062335948 8.293134848532537 17.50933828542979 2 -1 -5
512 57 2 -0.9519636752229361 0.46294651297361966 6.323171431431142 15.962811496243043 0 -2 -5
309 35 1 1.938311561973079 -0.07409790844164377 2.3644266996984955 11.04083566268223 -5 0 -1
529 59 2 -1.011367577538148 3.1176178293474006 9.035920333748678 19.07359981494257 0 -1 0
486 54 2 -0.9464407494548391 1.4912949296041198 9.139903797024376 10.901419390208705 -3 -8 -4
139 16 2 -0.9163348346741559 1.3614109668820689 5.096388871003565 12.905649270021101 0 -3 2
291 33 1 1.918441152352989 0.7851921244747473 2.6674754847776865 16.262221824018603 0 -2 0
133 15 2 -0.8999035167486317 1.1287358563979364 8.897513606653643 15.157598541648255 3 0 1
388 44 1 1.935754279717608 1.0859378609666415 7.718190234938887 16.330224102836347 2 6 -3
248 28 2 -1.00790734273942 2.659245141363977 7.647070271828465 16.609064772897234 -2 2 3
206 23 2 -0.9599740790838877 2.1625228258814673 3.2736160134576755 15.78435507271327 -4 -5 2
367 41 2 -0.9772523236714844 2.712478769140361 6.985892353984164 11.45293758498192 0 -4 1
21 3 1 1.960398094092518 4.306620648507947 4.863945963959788 18.951236009977663 -1 0 -4
318 36 1 1.938018927681989 2.816079035382648 5.5253468473295815 12.171525158218959 0 6 2
183 21 1 1.997584303406115 4.142448399022731 7.11443994691788 16.809697413405644 2 -4 8
447 50 2 -0.9964387121763615 3.9591060503043582 5.495260871909338 13.252381849693661 -1 0 -2
30 4 1 1.652752148601885 3.511379131815609 2.889430221566358 15.09308483823133 1 -4 3
88 10 2 -1.010786843572382 2.975560026786818 4.354564386825416 11.115048952373805 3 -3 -4
359 40 2 -1.008490882753656 4.248638507273254 5.704301210005816 17.645979253219856 7 -9 0
399 45 1 1.935800087184187 5.025573599361602 5.402356339061328 14.452973455513153 -6 -2 3
9 1 2 -0.9456287556210969 6.543141674560671 5.271953175324475 14.07783300275509 10 -1 8
243 27 2 -0.9900879295963279 4.949225545205609 8.258545774359423 17.554677045416554 -3 -7 -10
245 28 1 1.738304027520839 6.652460809054075 8.959512870212592 11.816008356757433 -10 4 3
545 61 2 -0.9289392100981975 4.801916984910962 3.4255540767772352 18.53764146438707 2 -3 2
215 24 2 -0.9305420222265189 4.628210736352264 4.102436922003118 15.271243868837766 -3 9 5
266 30 2 -0.9300205956135423 4.831659461009339 6.689163293516163 15.455274757344212 1 6 -8
24 3 2 -0.8836254733704944 5.103324324280047 9.435649852652922 12.233997854738178 9 0 2
254 29 1 1.991114318602236 4.643601048401811 9.333822630493744 18.71859932853394 3 -6 2
44 5 2 -0.8875252247203008 3.586715699964607 10.116880764706298 14.425107219048927 1 3 -3
8 1 2 -0.8995059772221298 6.725665673964327 7.618848835538946 10.878607674606851 -5 -1 -4
415 47 1 1.812382900389096 2.0577744153156825 10.221029089216074 14.974655314263192 -1 1 -4
445 50 2 -0.8811561870038417 6.985030326423436 2.391618270758779 17.27863828366921 2 4 1
503 56 2 -0.8923887107361167 7.415291250837649 5.035385884080341 10.440585750194126 -7 -4 -2
164 19 1 1.781373968970062 7.875390204019064 6.6165687119884025 10.362235895997765 -8 7 -1
469 53 1 1.86284724454038 7.861845003449714 4.474247969741304 14.599288176933689 3 6 -2
519 58 2 -0.9514931254626879 7.7695816718355974 2.8763806671497347 14.465207010159599 -5 1 -3
177 20 2 -0.8964154636277378 7.590613711856678 8.850840888920894 13.10878365026863 -2 2 1
294 33 2 -0.9014026998149721 7.929179813915377 7.410595230513741 15.398436062638183 -10 -8 -9
82 10 1 1.822719246047751 8.581806272330363 8.467836578568312 14.392435701960137 -1 -5 -5
556 62 2 -0.9607994374205527 9.180874133556296 4.92775268004292 13.776642976943474 -2 8 8
148 17 2 -0.9017569813116002 8.108480836515058 5.028495818556938 16.126490950614436 -1 -3 3
246 28 1 1.841217445744229 8.302929929932718 6.5235614290843715 16.693220552003986 2 6 -2
18 2 2 -0.8767068156924936 8.872226397105797 9.63644408379599 15.503473010206452 -4 9 -4
483 54 2 -0.9590241102850475 7.345455235381687 6.853903545264903 17.95981331668183 0 0 2
259 29 2 -0.9361433948752875 9.150678154884597 6.882807828091466 11.36131564420434 0 5 -3
429 48 2 -0.9017239506129442 9.242683710633509 3.0111970887185957 18.287181019514072 0 3 -2
475 53 2 -0.9165142708359418 9.780941128599371 6.944508704356217 17.248708618241274 3 0 -3
548 61 2 -0.9043538958912773 9.88966115529504 9.37022300811591 18.43328060491939 8 -4 -3
222 25 2 -0.9188308526885273 9.928585728091667 7.945521229874354 13.667194857288154 -5 2 0
528 59 2 -0.8432162500094144 11.235593784659729 5.914779621482589 12.614821052878458 4 1 -2
568 64 1 1.912426007783258 10.575657461226983 4.4565282851971695 13.152767822995475 -4 3 1
147 17 1 1.901773866911766 10.75213825043985 3.636357782166911 18.301760401938125 4 1 -8
181 21 1 1.868772786441874 10.416098078549501 7.30608080301773 12.265673806257919 -4 0 -4
54 6 2 -0.9853418147217879 10.46946601496722 3.551460239138441 11.870885110624224 2 3 5
244 28 1 1.971671803162663 11.168820048783916 3.1364433288907696 10.48859580041637 -4 4 0
47 6 1 1.754138326468177 10.462521982567088 7.822305166896028 18.44803444201471 -1 -2 1
319 36 2 -0.8471112201114371 12.053312923149624 7.520386810951507 18.642619399611995 -1 -1 -2
358 40 2 -1.015109400234226 11.397336198886526 3.996595995761312 16.908014674660816 4 3 -8
572 64 2 -0.9797943978952658 11.512010795198515 3.8378345044916458 14.27690596238844 -7 1 -4
308 35 1 1.90121501512218 12.344828789271462 3.92813145481065 15.611692509694873 -2 2 -1
233 26 2 -0.916516703794734 11.271680041876548 8.316813880710104 11.394372851338067 8 -1 2
346 39 2 -0.5126027670423247 13.036198404425862 5.348184927235835 15.585211573465234 0 -1 2
543 61 1 1.665414256503308 12.742576644976038 8.903728565567135 10.964983716421248 0 1 -2
89 10 2 -0.8742260142266329 7.345270793170899 10.203245153217296 10.916315674751711 4 1 -4
520 58 2 -0.9488360780143466 13.31977503084344 2.6650723986141 15.740261540968879 7 7 -5
241 27 2 -1.01266382799157 11.529247685501135 2.4049398609616595 19.009761598364854 -3 -7 0
394 44 2 -0.8301981651907298 13.588486937686278 9.346468312436816 12.29500475809147 2 4 2
323 36 2 -0.4926026303780515 14.284935771492608 3.5953825184377486 11.94558928807736 2 3 -3
379 43 1 0.9357511109921979 14.385419146864814 10.069687768095154 15.802279877224457 -3 -1 -1
96 11 2 -0.8526838300839723 32.383555838233214 5.753238928284215 10.728097082772013 9 -3 2
79 9 2 -0.5431451260232126 32.20531466283071 8.868980742388395 17.881705409614 0 5 2
313 35 2 -0.741755921625199 32.543389485986786 5.9568451159420865 13.468289692529217 1 -3 -3
149 17 2 -0.85896480942366 32.602420749224244 8.295137218948827 11.167615216784599 -5 -3 3
92 11 1 1.641047446347908 -10.644647404305038 14.93497643052909 10.521790391097344 0 -2 0
576 64 2 -0.9566505143443884 -6.61839503641349 16.668770140441012 19.094981318079263 -2 4 -4
77 9 2 -0.4490751585537848 -12.038752632940492 15.721882004904451 10.462399283247034 -3 -7 -9
325 37 1 1.872544890918494 -9.067474262049725 12.261005863269922 19.139747493243036 -3 8 1
115 13 2 -0.8224992368903221 -6.04555526647214 11.739562588594382 17.824224662737997 -1 5 -4
398 45 1 1.702494656219463 -6.7005560168490454 13.288932757503769 17.61942630800177 1 3 1
22 3 2 -0.8629593950669621 -5.889027072300203 14.820534178256626 11.663052641093726 -1 3 0
317 36 1 1.903656620489552 -6.566418769887931 13.412821746560017 12.087784066305296 -4 -1 -1
433 49 1 1.796539766693419 -6.52646511176212 16.290107849644983 11.167392913559956 2 3 -3
194 22 2 -0.9055718296408589 -7.573516929792288 13.735530506366658 13.364590194915147 -2 5 -8
161 18 2 -0.8383349992868835 -6.796356279024729 13.667773519981747 15.994517152991623 1 4 0
551 62 1 1.91538099706043 -7.611372158993148 17.95749466307959 18.985762522379517 2 0 1
522 58 2 -0.9401506162846204 -7.656862359488913 16.85387752107225 12.202978081863767 1 3 -2
119 14 1 1.8243148842173 -8.254062681966102 11.674585434009305 10.50437394423866 5 4 0
102 12 1 1.753137246468466 -7.905066525888286 14.226205644371763 14.894594478699046 0 1 -4
535 60 2 -0.9808321401140198 -7.283536754918118 12.895863240477361 10.788715149457314 4 7 -1
353 40 1 1.809708735529736 -9.238683157345584 17.06261158619914 12.180036102780646 -4 -3 -2
213 24 2 -0.8845720828436261 -9.10615703936519 10.85835713324672 18.230714134903458 0 -6 2
32 4 2 -0.9150231315933864 -9.836080211880118 15.599695600602974 11.74169930367028 -9 -1 2
78 9 2 -0.9597933665432956 -9.247812075980233 11.82178858150128 11.794791411945006 1 -7 -1
251 28 2 -0.9349949536085556 -8.291252997282605 15.822965540659688 15.160139416749287 9 -3 3
567 63 2 -1.001910717010106 -9.090346226740595 17.393078973881366 18.56055193202498 -7 -1 -4
270 30 2 -0.9455114327424204 -8.15668133713833 13.266476160639371 18.31771912527467 -3 0 4
10 2 1 1.910167337029396 -9.240624360537641 17.094679498787816 15.166094694747754 2 0 3
395 44 2 -0.9210200915695883 -9.73391466023362 17.380742234171898 13.665370700045361 1 3 -1
63 7 2 -0.8857355377038214 -9.311445993727482 13.47853243584311 15.186158785989605 -3 -3 4
534 60 1 1.858559518368443 -10.460725548453773 16.948510107371863 17.921566399865945 -3 -12 -7
28 4 1 1.511826769146339 -10.298812898666393 12.293030402723758 14.830010412117769 5 3 -3
85 10 2 -0.8263707382835537 -10.815807213190343 15.359111210872694 18.390911669247487 -2 3 2
383 43 2 -0.8929751838883094 -10.366562272393136 16.784572518121355 16.29327541547134 -2 -7 -6
276 31 2 -0.911524898681445 -10.485306895514428 11.150037135236769 15.883608716535635 -3 -1 9
515 58 1 1.765643315144355 -10.807887658727083 12.067707566634173 11.891878687975712 3 -4 7
565 63 2 -0.8381323130169573 -11.145470093133902 13.366302631030642 10.859043360566035 2 -4 -2
283 32 2 -0.8809389788006158 -11.047485196680134 12.470098881574707 13.434879951390972 -3 3 2
440 49 2 -0.8568898263211875 -11.347050802868772 10.604055352599815 11.690665418778117 -1 -3 2
511 57 2 -0.8958385041357427 -11.610145757381083 17.890176514200355 18.432203112576225 -1 -5 -3
508 57 2 -0.9733138560910252 -5.761670634530092 14.272483391001888 18.47901544294197 2 6 2
481 54 2 -0.8457638974187482 -2.752091966671866 15.193847956856445 10.301131818088926 0 4 2
340 38 2 -0.9066950728241697 -5.402616314568541 17.44668695708684 11.095396551761448 1 -5 0
466 52 2 -0.9043181894524168 -5.513777568878753 12.36768762577232 12.541835840928533 2 -4 9
363 41 1 1.508201405733299 -5.138591245018642 11.174204429684256 19.015015581488548 -2 -1 0
153 17 2 -0.9023587340181424 -4.6860223827414265 16.48459678355601 17.379695567040176 1 -2 -2
489 55 1 1.935530158553878 -5.358279950309372 15.778192835419421 18.677258499197222 -1 0 -2
544 61 2 -0.5656038296302108 -4.535136039360771 15.616396351769023 14.031955095839942 -5 0 -4
90 10 2 -0.9346216511186609 -3.419256056692232 18.10835341646763 15.795258030770345 3 3 10
66 8 1 1.742818399678262 -3.939552832248742 12.153930290452688 12.961748050536317 1 -1 -2
573 64 2 -0.5435568574259034 -3.257330253418317 11.092557101809057 12.008384339441896 0 -4 -1
547 61 2 -0.8604911779391177 -3.8401540461206256 11.6959898585296 14.586297925303512 1 -3 2
105 12 2 -0.9424598039022433 -3.293814387660424 13.607687919004789 12.957180982748557 4 -2 -5
462 52 1 1.858377042915149 -3.25477856194731 17.350601151137656 17.198319869398745 -11 1 -5
393 44 2 -0.9659861696330471 -2.0239844977741477 16.35941650901739 17.177744274846685 -2 3 1
389 44 1 1.862956701833038 -3.1248955319407017 14.931777366052756 13.808560347563008 -1 0 -6
263 30 1 1.867436765318583 -2.621530960947311 10.969154347159066 15.355763975069584 7 -1 -3
428 48 2 -0.9734998836090147 -2.545704660864571 14.514243958646201 15.238214097118584 6 0 -3
459 51 2 -0.8882678264897368 -2.150648944895046 15.878228488244432 12.913287310662344 1 -1 2
351 39 2 -0.8695415047655944 -2.593394752840876 11.41293992865683 16.919983914281335 -2 -7 0
427 48 2 -0.9972672853384209 -1.2642756446549086 11.04030192434685 14.53262725522989 2 1 2
135 15 2 -0.9794435300797123 -1.9484990927617414 13.78734190239425 17.606068152037473 4 -1 -5
138 16 1 1.907253638751875 -1.6985809803749774 14.906490908273536 16.532528180102965 6 -1 -3
19 3 1 1.82901635559146 -1.5638167634474751 12.269594304420746 17.863779391401707 2 -7 -1
407 46 1 1.857400916538923 -1.616404600672805 15.717114014367954 11.347672438724029 2 2 -3
435 49 1 1.984325274541956 -0.2079994227513513 11.453254404991146 13.389504897403135 -6 -1 0
141 16 2 -0.93162928026998 -0.29359183648587184 14.74543689404165 11.42574619546923 6 -7 -2
150 17 2 -0.955029966170765 -1.170813980285116 17.08850588662902 10.796081336353337 -5 -1 -6
333 37 2 -0.9822062978695243 -0.13639600764126136 11.917180922377948 17.196689186382457 0 -5 2
454 51 2 -0.9648474368807239 -0.179083464472388 14.933583998193537 15.933269217080287 1 5 5
7 1 2 -0.918096654523787 -0.2965195172085302 10.913806468643035 11.88976497879515 -2 5 -7
513 57 2 -0.9534536166080049 -0.13832700171664314 13.035548877924626 13.280566855017156 -4 4 3
205 23 2 -0.7553090285862051 0.5785748324783295 15.512885680133348 18.877493222909507 -1 7 1
361 41 1 1.918278101180158 0.6739435295828162 14.239661071363873 12.568670151999841 -3 -7 2
42 5 2 -1.022616617015154 0.49740732548733035 17.291647829560734 15.385915350446261 -1 -2 4
154 18 1 1.601529730366951 1.0515642000284036 17.21838736346467 19.13068549279525 0 4 1
326 37 1 1.502828595709774 1.7239893217631561 14.334844769080203 19.06808638160716 1 -1 0
121 14 2 -0.935372409792939 3.320748502504827 17.942404595844476 13.790258489070844 6 -3 -3
329 37 2 -0.9241816634927954 1.1732507110668582 18.113556976766358 17.777437259294565 2 -4 3
343 39 1 1.65939936789666 5.539531037229269 18.047729393934056 17.80673957109002 -3 -3 -1
368 41 2 -0.89915313944092 2.217500608029521 11.071826446539887 16.36580749461538 0 -7 3
261 29 2 -0.957419455942336 1.2150672361110733 11.111342744597124 13.876985621605389 -3 -5 -7
305 34 2 -1.015589682575263 1.4360922890857974 10.955023438048766 18.92595111958986 -1 -4 13
87 10 2 -0.9713567400823998 0.7300440103611532 15.42911603609534 13.659496282074794 -2 -9 0
225 25 2 -0.8874739833472507 1.899843279875899 13.281139634100338 17.878023330480985 -1 -5 3
129 15 1 1.916273155793776 1.3896060514557256 11.7852328015634 17.574008429521882 -2 -2 4
219 25 1 2.057417757284817 0.9102836539675643 15.782451361019955 15.16256252407271 1 2 1
207 23 2 -0.9414417678073118 1.3731541667671738 17.61666024859412 11.345768827528717 -1 0 5
134 15 2 -1.00391744013433 2.3565031749420324 15.410155396036263 15.705525787987526 -1 -5 5
113 13 2 -0.9481352891445423 2.193939099013342 13.894835655849253 12.081801739081879 1 -5 1
56 7 1 1.770155122727423 2.583011194094542 17.198226687404002 10.41838964029929 -2 -5 0
541 61 1 1.96526234461763 3.2428354354980495 12.931079474215736 11.344215528514477 0 -2 1
355 40 2 -0.878890448376516 3.8999105120795967 17.006412588105633 11.316610112769181 -5 -1 0
560 63 1 1.618802269237584 3.7569107167610696 15.482570731994198 16.443883692865136 -1 -2 0
247 28 2 -0.846635628257202 3.836095589761582 15.084399706421891 18.003218739995702 4 -7 3
341 38 2 -0.9247534678434987 3.6030004986145006 11.662268657215847 12.370345828900431 1 -2 4
193 22 2 -0.9633421867738723 5.022128898721187 10.836783857683674 18.371726230981956 0 -3 3
114 13 2 -0.9533529505584313 5.756935532833991 17.92406039163794 12.927950536643216 3 2 3
255 29 1 1.936779465535242 6.283983312771989 11.669138742302625 17.73349713114223 7 -1 -2
562 63 2 -0.7938811982781934 4.334322732479636 17.467178558457356 16.245836521448666 3 -1 -2
518 58 2 -0.9346121033868128 6.160161745144661 11.916562898420242 16.153534737601028 -8 -1 -1
480 54 1 1.753212800177075 4.336976210628398 17.09416031097295 12.849937267840149 6 3 6
23 3 2 -0.9036611526773811 5.840994829153365 11.228447215989757 13.757192151374703 -5 -5 1
185 21 2 -0.9194358833535295 6.583109066346671 13.700663789142773 14.08476466775339 -6 2 -1
253 29 1 1.855671534000793 6.7891832743086145 12.238811075601408 14.68664967392141 -2 6 4
376 42 2 -0.9798617326987876 4.648223279846869 13.48622270898053 10.892238933321673 -7 -8 -1
434 49 1 1.784296800577282 5.801653859871978 15.06182973711029 14.39929504238958 1 -1 2
437 49 2 -0.8556158003657005 5.499339000954292 16.829977436818645 18.787278323408145 2 2 1
478 54 1 1.913983296758294 4.4854535567371645 10.591790261970917 13.163443442191339 5 4 3
99 11 2 -0.9562366369713229 6.503263500218429 13.018897606426378 18.500701458741823 3 -3 -1
293 33 2 -0.8752314010640513 5.02866196002533 14.790054446838283 15.7821611301949 -2 2 -2
571 64 2 -0.9263412630716376 4.627535105033084 15.576874738437574 13.463816537824705 -2 -2 -1
258 29 2 -0.9363394303934286 6.813894472498363 16.34269396374609 14.539697129352298 -6 3 -1
378 42 2 -0.963976168350645 6.79821374307881 15.079281043512356 10.894429190494288 0 -6 2
172 20 1 1.87919826315028 7.140232811694601 17.577995764009696 13.594848675910768 -2 2 -3
502 56 2 -0.9171464933865304 8.052458221126395 16.957226321272987 12.377521009175856 0 2 1
31 4 2 -0.928538299283718 8.186922078344073 16.411583688278416 18.51362034592872 0 1 4
128 15 1 1.888513076808128 8.18417982914673 15.649329698407442 11.433186884575184 -5 1 7
286 32 2 -0.8833893541758864 8.401739529713373 12.092396306110306 14.778707912388759 -1 -3 1
444 50 1 1.851954966211263 8.47302391064717 17.68479389506962 17.58017471745297 2 -8 -2
68 8 2 -0.9875545080699488 7.616599350480035 10.805929307299312 17.999106880383827 -3 -10 -5
130 15 2 -0.9123563674056412 9.410626142268379 17.187498620977664 16.35201929931418 -2 1 -7
298 34 1 1.805884959403493 9.110886553224647 10.814951082124608 18.47193050558245 3 2 -2
143 16 2 -0.9452632485828029 9.319370602699768 14.681489145771774 12.137452276416074 -8 0 -5
20 3 1 1.511088940163298 9.465994903441858 11.1154848862654 15.495272471843398 4 0 -4
504 56 2 -0.8531434643407018 9.841758044118043 11.916900633211448 17.433843332701585 -9 -5 -7
117 13 2 -0.9509164544911397 12.32241077793987 18.017220887399272 10.931767251034419 9 2 -2
217 25 1 1.973543555430973 10.533987300586622 14.708490210146874 13.114557408489992 0 -2 -1
184 21 2 -0.9964313599822457 11.022733369036539 13.310866479548103 13.71083421486874 -1 5 -5
218 25 1 1.900801871308301 10.473730359594926 15.97411479289907 15.990157541433836 3 4 2
209 24 1 1.938198078919498 11.296222678414216 11.81997624117363 13.322367166637076 0 -2 -4
223 25 2 -0.9315881630923457 10.21365684267744 15.584302405325076 14.4596237158691 1 -1 -3
339 38 2 -1.044807805065081 11.965507618834971 16.503971400995194 16.167126897413844 5 -8 1
537 60 2 -0.9447093217278726 10.251202267717806 14.747808623549357 17.01308586838816 5 1 3
362 41 1 1.591183951162072 10.963097721031795 13.647205586123093 17.897018747168282 -4 1 5
52 6 2 -0.9151454389006131 10.718215559003623 10.922522271012525 14.500605212968868 4 -8 -1
240 27 2 -0.9425410927088318 10.754498274930407 11.461104716651036 11.837759168905578 0 -3 0
127 15 1 1.859111284384854 11.38535753082048 11.518964639277243 10.340486662722864 1 9 3
125 14 2 -0.9479683454936132 11.845354869084888 15.352900769266927 12.410974655171763 3 1 -2
467 52 2 -0.9145897332429301 12.44928594999172 13.422223106055597 17.381358294297414 9 -1 12
62 7 2 -0.9617050771157973 12.846681658588443 11.70003759072802 13.233890075210272 2 2 3
514 58 1 1.923446175573369 13.428497068235336 17.083509394610836 16.36110052388881 -1 -4 0
452 51 1 1.816273193032087 13.438753747305503 15.336520977103035 12.351889459966824 5 -2 2
279 31 2 -0.7348889450623824 14.995829111588689 10.391885195237176 14.331175152553396 0 4 0
297 33 2 -0.8229951183458097 13.620561310495118 11.213765296503688 16.60156387984284 1 -7 1
272 31 1 1.333872508674999 14.041745238496278 10.69404637555083 13.034659079630167 -4 0 0
174 20 1 1.66816628378056 13.901247503899954 18.09065537478806 11.29631979269854 0 2 0
312 35 2 -0.854798827613652 14.134272050136476 16.778498203923046 12.257066201767639 5 5 10
109 13 1 1.669755007645471 13.87960622763889 12.681839234523533 17.257421212360825 -1 -7 6
458 51 2 -0.9455112430671474 13.679990200620265 17.341201987300394 17.97167187947185 -7 2 -6
450 50 2 -0.8827490940281766 14.019857161131581 14.443813485107722 11.049614779497421 -4 5 5
25 3 2 -0.8366613718069472 14.55952045148823 12.446420216954628 18.754239071871332 4 3 -3
234 26 2 -0.8248835489397881 14.744361563847773 13.676618982387073 16.21859184126712 2 -4 3
546 61 2 -0.9199939467596666 14.590156158067055 16.195202068423676 15.748402373438367 -1 -2 1
1 1 1 1.720192641364672 14.877095966047426 14.804295638081001 15.012518022357863 -8 -7 1
178 20 2 -0.9292612831120489 13.83708530054077 14.74275406032238 13.782840494340054 0 12 -7
510 57 2 -0.4686771835310386 16.417965609779202 14.556050560171755 14.502984019238685 -5 -2 -2

Velocities

290 -4.820041822216447e-05 -0.003626385746158012 0.0021151686179284633
488 -0.0055267010029127995 -0.0002966371559391959 0.0018208198387117743
124 -0.0015512960701797877 -0.009351625026856011 -0.005575812785176522
210 0.0005386461792782627 -0.0005327752561047805 -0.0038410014221167106
536 0.0007343717710861845 -0.003201620027558995 -0.0026798930616783083
404 -0.0019111107547671031 0.00017051113522169046 -0.004112608742337472
61 0.0019064777251397724 -0.0004404518405725183 -0.0022860732399333007
159 -0.0086866766711478 -0.00446256522347541 0.004498142732002123
198 -0.005138990252575825 -0.006827617943671206 -0.007745668542893198
332 -0.001661856297778421 -0.001730828584810128 -0.003467392732176826
507 0.0008743335567044135 0.0020200625205041038 0.004395518628130877
126 0.006804927061477198 -0.0028167322664518204 0.0022560134934688815
302 0.008299775978071793 0.0033134726420712157 0.0007054192781631647
374 0.002162513038206107 0.0077862071493749 0.002402177065304225
4 -0.004892694115433845 -0.0020664514031064293 0.0021640100430176923
36 -0.0031459551619333064 0.005993817365053446 -0.002431859292485248
137 -0.0013813245375680998 0.00042240821841098953 0.003176673380610312
120 0.007587165221396585 0.0012484825877070724 -0.001539973619624344
260 0.004486913310079883 -9.428087402712188e-05 9.816118496566396e-05
425 0.0036548237650244394 0.0016517872477969486 -0.0020772897040648853
436 0.0012008144008731976 0.002152998535792709 -0.006172505324547715
354 0.0022540289601978417 0.0007195565174360858 -0.0013881996148915872
110 -0.0064960781333637885 0.003155083428424886 0.007512434014185117
16 0.004668191056723126 -0.003957086983270101 0.002482767030577301
242 0.005712450598292738 0.004240881016069942 2.110096606928092e-05
268 0.001023368609089719 -0.0052374636593090435 0.001772321726437494
330 0.0035264559648295374 0.001781621877947609 -0.0012933704852589754
574 0.00019234435401002754 0.003486288278812096 0.003769230366145693
146 -0.003052822230236139 7.679004983369255e-05 -0.0016201436167499346
424 1.748828360278736e-05 -0.001434025745158986 -0.006552239771994375
214 0.0033747511314850707 0.004777803235806055 0.0010203971467237624
257 -0.0006057352298174013 -0.00162489497346353 0.007569198878467902
542 -0.0002064434469625835 0.0036758425994654126 -0.0014413238927141944
48 0.0016431676487483435 0.004878471624712165 -0.0017592305329914083
306 0.005638404393637011 0.0016437494631870134 -0.0010539327106238367
419 -0.0013275459269863601 0.0009928553906008903 0.007925343610708426
315 0.0015947149251732478 -0.003937720817187153 -0.0022610895889673883
402 0.003207755840805987 -0.0025912542490876935 -0.0036448006353441945
380 -0.001731334653198366 -0.0037106045746155745 0.0006139637182935915
375 -0.0010778834736418245 0.0026790290591251105 0.001471286111478868
231 -0.007111024501269286 0.0022604627145549256 0.0035855025106216513
366 -0.0004909546528974057 -0.003322992975185424 0.0002604476306573815
377 0.0009052092570448074 9.498224687494557e-05 -0.0007874054566559817
75 0.0007119766008983415 0.006240874853400433 -0.004692326082764275
46 0.0009014711507862665 0.00034789127858227896 -0.0012458669102197166
118 -0.002882100229985339 -0.0030192235873297774 0.0007127792637155794
60 -0.0008790387481370668 0.003927347385633401 -0.004549729611111473
352 -0.0023403614254909333 0.00043227734394843804 -0.0001601031915258058
300 -0.0033230735230888294 0.004190122915977503 -0.0028858292372813416
364 -0.0011099110518523621 -0.0007885194078089794 0.00038910063459475204
360 -0.0021678480492875675 0.0009282220418325024 0.002871064334631955
175 -0.005933779507449666 -0.002360723414461512 -0.002886600212748453
474 -0.003932391813247906 0.0015307444190117644 -0.003949325313019424
220 -0.003866168270788642 -6.367103759778566e-05 -0.0020685163333971964
38 -0.0020137071709401453 -0.005746092929634594 0.00020557161157060705
401 -0.0006039237420238468 -0.0005685925153459069 -0.0037668622639712834
470 -0.0009243464692260035 0.002227150903593367 0.004518073400643885
408 0.0018647671469444634 0.004295040137932402 0.0052240323791979855
314 0.002971291541987133 0.001338298510240724 0.00014872187372261053
201 -0.0008161400389469087 0.005293500751984841 0.0005265364396593106
168 0.0037485779324275296 0.004676255531610162 0.00656657140976626
484 -0.0012868445107085597 -0.0027882680482603 -0.0017787682607073388
40 0.00025934486451050724 -0.000644684137055557 0.0007600897990800785
476 0.0006803093511918448 -0.006431084816393654 0.003730841158248399
411 -0.0020700313052883583 -0.002330129713658536 0.00875556953962782
239 0.005382223296063394 -0.003256241596841304 -0.0009556617782539144
199 0.0012213985482147345 -0.0018880034527989766 -0.003746513871905762
123 0.002408055480963028 0.0014606730690418608 -0.000675541419305971
50 -0.0028614372594535226 -0.0014075045708717437 0.002330179026051263
249 -0.0049638484334944685 -0.0001183219926102822 0.00356912305997637
324 0.0016347573762177947 0.003447468493503591 0.0066467766569621965
228 -0.002036033868503906 -0.0013550547066811121 -0.0006957858593606439
553 0.005302835110184068 0.004263033817058998 -0.011381124959355738
498 -0.0018379767663907235 0.0021314376129861878 -0.0036328067973762563
180 0.005892293201765105 0.0010717273966545646 0.0037138046035986344
278 0.0034436824286082405 -0.005529028978481671 0.002650005922790444
236 0.00046248412943521 0.0028000364891205437 0.0014803710014360371
173 0.005808128536813133 -0.003226445441807872 0.0005037321070312206
256 -0.0011502404280769388 -0.002170741458280351 -0.00038756926924780535
493 -0.0062234244772256695 0.0008840231031831949 -0.0036869377366455266
373 0.003743547234428589 1.247512337260662e-05 0.0049263893724451795
550 -0.0006037563731215241 -0.001244774848709272 -0.0011295847632478884
422 -0.004044130768894196 -0.002214405170991622 -0.00038432745430553835
420 -0.0005669975345580019 -0.004592608553374617 0.0022622653318831623
27 0.007174049521183496 -0.0007035731323794284 -0.004112995794742516
311 0.006337353538273328 0.005732802770331529 0.001073612503036798
289 0.0015584429839705996 0.0049594138996066186 -0.005714291325666507
57 0.0005694292620518485 -0.001820927935425307 0.004122495926315909
558 0.0007184569489070958 -0.0009148253561485602 -0.0007592953370533481
131 0.0037011282130472913 -0.0011803825189196507 -0.004167765703083674
111 0.004941291572392378 -0.003174819307129671 0.0002928026254536862
273 -0.0015224804643978727 -0.0007202379599320027 0.0032291034920909375
107 -0.004022376680248202 0.0023689578576593312 0.001399036545560571
227 0.0010213898705075835 0.001813103499732319 0.003995342501181611
35 -0.0004908123698165931 0.0002812655675620059 -6.444500414863364e-05
501 0.0008305476376242796 0.0023499964171490783 -0.00492231525071583
464 -0.004086915559627639 -0.005148352292235116 0.0008748478339329879
186 0.0035458719543794183 0.005992120689886434 0.00245655273406126
497 0.001922825077271377 0.0021650097492839004 0.0006764483447506925
381 0.002082007733661027 -0.0007273134210416921 -0.00044390526811067144
13 -0.005353949458396037 0.004203379416606045 0.001226761878976748
559 -0.0007772910327178206 0.0017547742351600303 -0.008125080428558532
446 0.002859470681038914 -0.006198922298886477 0.0006070880003591129
216 -0.0018809071907843387 0.0014072250540847731 0.002924816885812433
477 -0.001743343869468868 -0.0008368156931657097 -0.003148090238960159
370 0.00016753018106463997 -0.0033632510272973335 -0.0023370367355505395
382 0.0002975938390572844 0.0035578167833073076 -0.004154471360892963
112 -0.003668348564135242 0.0012664805595849864 -0.002765818645628621
320 -0.0035100062924264893 0.00581398873348841 -0.007108702713450326
284 0.004597172061882551 -0.006489515835916031 0.0012476685389058687
5 -0.00026762882259413973 -0.003018583258361634 -0.0017768203347158496
91 -0.003252882010857756 -0.005643285168578146 -0.0016823298005357028
162 0.003975274287181446 -0.002481538306560432 0.00292938270371696
45 -0.0028268404780073353 0.007205761297890336 -0.0020798208372603505
570 0.0018464685003343607 0.0011437606872203398 0.00023705610929332358
171 -0.002157395670956311 0.0008625110572357275 -0.0030064078199063785
43 -0.003077545698694846 0.0013817127013759606 0.0020202869021222485
170 0.003293202066258036 -6.12532441857079e-05 0.004779750758708203
296 0.004892907547651479 -0.0010650698359674392 0.0024134821547201757
479 -0.0034039843498474918 -0.0038278164850470992 0.0014904417766719018
232 -0.0007940991384011995 0.006623825109543322 -0.00390144799783334
136 -0.0009641562707215955 -0.0033962251778866443 0.004014772492827912
405 0.002342629761996942 0.0019467244413214314 -0.0047497104719306515
357 -0.007069347220187846 -0.0002676845642232027 0.0008480596191381861
487 -0.00025060926550511117 -0.0032906538103595526 0.00021749648751007513
104 -0.0008116345391692564 0.006251830957327306 0.0029587080283919004
418 -0.005348073160488431 0.0027749680156545697 0.0022270240053317513
295 -0.0038537248424179477 0.0006196928875195024 -0.002202227910014358
468 -0.0024497746188446544 -0.008844108850194708 -0.0012217433184437856
549 -0.001582972661892674 -0.009016853469426307 -0.004595674350465974
55 -0.004942616678110044 0.0008784502755711944 0.0007370256430586778
49 0.0025901444703302495 0.0013418525984537583 0.006293557430925056
492 -0.001975081494815016 0.009148155595051482 0.0012928660201697716
155 -0.0009062755566369581 0.0006772227105021868 -0.000555973208048386
84 -0.0010728843754731574 -0.0009259865649316757 0.0038769133150832525
531 -0.0038965007485639767 0.0036002421321088417 -0.0032641288894870745
59 -0.0033029429377032142 -0.0014484082616868534 -0.002550677705369227
509 0.0008583907309342562 0.0034075439607391647 0.0004794968919319752
530 -0.003258743512245724 0.004971559859146017 0.006204299315209988
417 0.0008221869646401366 0.0018699735088757539 -0.004398586565083694
387 -0.00682943043964813 -0.0004120844808041784 -0.004043098376072531
331 0.003382644897737524 -0.008068043559374873 0.002969485582472058
539 0.0033590140704227193 0.0003166024784668179 -0.0019450211824169259
237 -0.0068231600609708195 0.004419446326992837 -0.0012172164338348885
349 0.0025607081230388557 -0.0018736041879136027 0.0027199892161312335
342 0.006376636314794296 9.080984019986989e-05 0.00071145145496031
158 -0.005884210868983606 0.0025883611368862722 -0.0030991922863046178
280 0.006886270770315967 -0.0005437349049784092 0.001487898561394677
29 -0.005542021180578716 0.006621028121865691 -0.000596269721444717
221 -0.0013173467923507836 0.004588984889465012 -0.0002786545113442531
224 0.0031400661136737266 -0.0023377247786301554 0.00474270543060536
86 0.0012436441740980128 0.0017621087065450003 -0.007272336978570361
196 -0.002206195306313104 -0.003541192646660087 0.0018502463150191824
344 0.0009774528368889535 0.0005990081650819549 -0.000556965154209554
116 -0.0026340506684574823 0.000759874699867747 -0.002002302499627862
197 -0.00011881546951523989 -0.0015679980571848807 0.003768583964765876
301 0.004195824780068101 -0.004671934807922571 -0.0064799917345359954
165 0.004299813846674938 0.0013277551018662775 -0.00045050137958076836
192 0.002509381486999808 0.006406605286932432 -0.0020820051760306953
203 -0.002153452487416794 0.005690781468918833 -0.0023881240604653534
271 -0.0019748170385655546 -0.002471897204559756 -0.007577609772585823
76 -0.0008091544478614824 5.123337756419173e-05 -0.0052196963583574715
443 0.001976022481319834 -0.0036724935042845826 0.001225325149885817
557 0.00366648356692993 -0.0011390594343653193 -0.005718809891082359
33 -0.0022081991478799835 -0.0006300097023618931 0.002758358367891354
347 -0.0013654114084411008 0.010536175772360601 -0.0021809773230757785
494 0.005032828966224629 0.00901087951586315 0.0047961376113566595
182 0.0059015470821738285 -0.0014895686341121215 0.0014190283774244766
485 -0.0024425876273177615 0.005215503065922315 -0.0035994081278173298
490 0.008302966070292859 0.0013841094213239216 -0.002457397742682632
122 0.000571007022402319 -0.0005362795874836307 -0.0005878295174268644
93 -0.002336066265854118 0.0003205582121274068 -0.00197562528580828
275 0.005772836873135638 -0.0022676723001631245 -0.0031272335623367137
390 0.00536680251269047 -0.002313856348845016 -0.0010205810046213456
430 -0.004708355514662065 0.0034318210760429617 -0.0052343085153816575
140 0.002694767015735417 0.0015089328720478904 0.0004892506637668947
575 -0.0018642611318152747 -0.006038562142857481 0.004784381646920672
3 6.188342678049521e-05 0.003492174578390127 0.001418395842448933
250 -0.0036739959976203594 0.001781218832797429 -0.006697760448988871
386 0.003996189168474349 -0.008340459634513358 0.0017050778041791915
94 -0.005521303886089726 -0.000466096982888507 0.0008365225651338508
307 0.0033196987252937004 0.004371728638402683 0.0058302241198742895
350 0.005107540589288669 0.0009126548982577662 5.601710206508051e-05
189 0.008564058002613941 0.0018270621712387545 8.011662567200579e-05
212 0.0010878798683956483 -0.007488652155476396 0.00018995870820143326
274 0.0024248532133287165 -0.0010658644171285339 -0.0011590260139072602
299 -0.0008013507805322106 -0.0028881576675255085 -0.001870749931442309
53 0.005916217293163728 0.006266951522758236 0.0045726204443428745
156 -0.0009183942471154803 -0.0022477569343811827 0.0028012520684916127
144 0.000505724226126575 0.00010940090493326483 -0.0005390724648972114
190 0.0012204761122423162 0.0004287580965445731 -0.001360106816270504
554 -0.0017236515566884404 -0.002103083945843634 -9.577037054956e-05
391 0.0003754572860272928 0.003791257506280165 -0.00022838387577128858
208 -0.004852573139960695 0.003315794730422713 -0.004689825408413373
211 0.006048707680764609 0.0062632913562199796 -0.0022290479516319252
70 0.0002671255259592101 0.0025207334967903335 -0.0006005691273494808
442 -0.001661935592021494 -0.004633591033975876 -0.0019542433051599486
523 -0.005967063487642623 9.029438865895113e-05 -0.0007210720066889893
106 -0.0041536923725915605 -0.0037751144122326807 -0.007091027116944748
448 0.0009423897944678538 0.004476491170063293 0.0056969889810676065
166 0.0006524263423451503 -0.001317999342387961 -0.0035696752100416776
506 0.0012409012225467271 -0.005334036879786016 3.3731741602633976e-07
500 0.0030139723889937944 -0.001810731845574261 -0.0033019176309725777
14 -0.0007783727481799615 0.004182590289276297 2.401163995387306e-05
517 -0.0030587573128813923 0.0022857262274104855 0.0028016706118772507
439 -0.0012101521518892088 -0.004709771316674448 -0.0009639951691435276
163 -0.0021352584665123575 -0.0017063391124018696 0.00042067820243673357
226 0.0018640468414218344 0.0008103342604419857 -0.0006500792178710125
414 -0.002301288260645419 0.0010181872468076473 -0.0004647526052755625
71 0.005839883117141139 0.005466396797614564 0.0021823532709848094
365 -0.001485104871239001 0.005475670931354564 -0.008186320157355115
438 -0.0037030076052684976 0.0038780438137943547 0.003639141359732901
65 -0.0028451564795426002 -0.00035340283306622327 -0.0033214162556522457
449 -0.00263618603603059 0.006525956766452513 0.006747320733917711
335 0.0007188024276676015 0.00025509139606436315 -0.003301842537173534
499 -0.0036897802646695672 -2.0935688994926232e-05 0.0007674324991924492
277 0.0054345728134826765 -0.005818926043137572 -0.002476867030752948
176 -0.0011612690468927457 0.007834895021440849 0.0008079941386959453
413 -0.005027464128573374 -0.001200941370342487 0.004233884095818884
526 0.001117331453516262 0.0034837316957460752 0.0015744995330455795
337 0.005340205661789718 -0.0046034566035713514 0.0016472031950004419
453 -0.0006160353828482359 -0.00281963981025344 0.0002581655370784711
336 0.001276979283954172 -8.09057199266395e-05 0.002013506448626904
421 -0.0005920524858157689 -0.005416521747867284 0.00026609131970094463
26 -0.0008304060711786354 0.006361211059714901 -0.00253897171822457
410 0.0024912047757786864 -0.002996694189634826 -0.0034387880248642347
252 0.0032717850517004943 0.0077166658758035505 -0.007993216912381149
34 -0.0004107718907711419 -0.004160221519867283 -0.008463291689290393
540 0.0025272941590815624 -5.627998596760686e-05 0.008755071694927624
431 0.00016538366983191017 0.0009257320329268025 -0.0011494269482664077
460 -0.0005426888542642931 0.005724144274473987 -0.0050579228500145165
11 0.001690262056557102 -0.0020456317539325076 0.0014579771672394602
73 -0.0005060076100056711 -0.0015585625182982738 -0.002684543905802593
496 0.0010761655329007286 0.004125269640983346 0.0014902454744769884
491 0.009053516803786027 -0.007025065779327463 -0.0024756785791434912
471 -0.0020910964619576685 0.0014170223034636411 0.0032717139648724743
456 0.006381901315876441 0.0006440795133264201 0.000605036894371412
348 -0.0027717954369645007 -0.0034398961030127433 -0.00169169951618365
416 0.0034839752690752623 -0.0009595822390820471 0.0012359191596751896
167 -0.003827257529999521 0.0048308514047023625 -0.002916691398113232
12 0.0008828876590863887 0.005467659168172929 0.00132362599341289
58 -0.0002723001528820044 -0.001066552558952649 0.0032913688287307926
200 -0.0041224659568098836 -0.001482646993298875 -0.0007567002735904886
327 -0.001966167775142756 0.00023667268230610043 0.001439641950561569
372 -0.005458237376100053 -0.0002929080376708326 0.002167890165662483
403 -0.0069570843566566076 -0.00047034878343330655 0.0013705181010745283
527 -0.0035604147252638464 -0.002362238294735789 -0.00670857526107207
482 0.002849798936161812 -0.0011677633390483374 -0.004899122455382906
473 -0.0039650488822458 -0.005521486174571641 0.0031963622302788263
384 0.002716319818366014 0.0019147670491660594 -0.005002780297603363
441 0.005451864799665758 -0.002311405121445201 0.009226772307516085
426 -0.004714044092451033 -0.0021970253072003923 0.002585291303129305
67 0.006186064200177782 -0.003639468016810969 -0.0028118474762312187
80 0.00017008842338818504 0.005029401996300817 -0.003132493066002576
191 -0.0032634160059185372 0.0013421362911838345 -0.0019088802833031166
304 -4.37950514954238e-05 0.005456814153198447 0.002167660170644128
533 -0.007651624654492572 -0.004603698685959416 -0.0010797430311359983
238 0.0017188613380718085 0.007257280015288969 0.0026513257748932663
235 0.0010599581593127218 0.0010985174535979158 -0.00012718674528890283
103 0.0018163744966350856 -0.0009851886041086194 -0.005793798755502746
303 -0.003183247480070309 -0.0001197248712740403 -0.0034809703274344076
400 -0.0026793109382934823 0.0030102027949823655 0.004556344336932266
72 3.145425190558449e-05 0.0005230899069178623 -0.0008453935680814913
423 -0.0021290090799130417 -0.00119647470264361 -0.004504522826550832
6 -0.004916774956056373 -0.0028125647690023267 0.003528396791158966
412 0.001885100008200317 -0.005295838156114305 -0.00043967325627260146
451 -0.0027290123402751434 0.0015006398282675524 0.0033471665562140704
2 0.0017285253601813518 0.002434234416355493 -0.0009499060519963315
561 0.0011588061568794826 0.001111188523911289 -0.00436238281505119
265 0.005680344831464934 0.0037385778324443364 0.000995711228063415
532 0.003248722874042451 -0.00018664180594741474 -0.0017821891953820575
157 0.0005064765037323379 -0.0007922675628088261 0.0008284427491153482
17 0.0006694988776555017 0.0023087413358234997 0.0017197935176553783
564 -0.0022907677660214372 0.0015837361577437975 -0.00036242727272357535
525 0.0021078557462064283 -0.003533023837754404 0.0005548784762397599
69 0.002517183685972802 -0.00449506002078893 0.0038408206242458915
385 -0.00027795638463869193 0.011408713251183322 -0.0018724264911918773
555 -0.0025043173306554542 0.0027287521973790975 -0.0071744306922997955
188 -0.0001332764640431416 -0.0007814680119958002 -0.001031091190589828
282 -0.0002912305921700319 -0.000522036655236371 0.002034096881753231
495 -0.004284120281855802 0.003489423660337882 0.003357581383607376
132 0.0007051251077395416 -0.002006749652054683 0.0012060271091826904
461 0.0008564858747586446 -0.003635606696127504 0.0052982135605152405
465 -0.0003036822839896869 -0.0016249390186525634 -0.004267198454050468
169 0.003094418801249031 -0.0021836319005668057 0.0069963372387839675
179 0.002368854564867616 0.0049659933546421405 -0.00610092060060319
187 -0.004547629163265642 -0.004321774905911135 -0.0031922590454183082
321 -0.0037683660507292598 0.002378097821974473 -0.0019670752872022663
328 0.005916836549546217 -0.004950979667394145 -0.0023713052752565153
100 0.0007680332345354916 -0.00032512854890969536 0.0002702639552393087
455 -5.695751227281243e-06 0.004904183382409123 0.000488738215578807
338 -0.006180708325028214 -0.0017127977161273003 0.0008893828504815231
552 0.0023849946200832956 0.00110630835964995 -5.109091838039486e-05
472 -0.005169517387832749 0.0017772806990046003 -0.002817322441901494
396 -0.0034643031484896916 -0.0009286374042648131 -0.0017731837280872448
64 -0.0015095209351153535 0.0004516829336774753 -0.0020675182889522644
142 0.005598311572706695 0.0007216570558283968 0.0037756852826375327
316 -0.0034269881070246757 -0.0011690683503090852 -0.00427708667074231
160 -0.0060979931087172335 -0.0008973942037582149 -0.00461569639079526
229 0.0010163341316004122 0.00630367316666999 -0.0006653909226928331
292 0.0020023124761770566 -0.0020405699608111267 0.00448900216318875
262 0.0006272518200198721 0.0015790467266008988 -2.9523041703259378e-05
267 -0.010568028270942567 0.00025588194892106484 0.0011228364135475336
108 0.0006793663752890976 -0.003476078872379217 0.00280993804569726
538 -0.0036593708759759093 0.0008024906449645189 0.001473765001566431
371 -0.0032947526414869675 -0.0043247058423594685 -0.0011515307279851982
51 0.006268733035356539 0.0011600849863946062 0.0010965019321187207
15 0.0060921896974746054 -0.0027035266673748515 0.0007209421659772624
97 -0.0008051236658234249 0.005459089959584938 -0.0003738890362846759
310 -0.0025602797496392478 0.007113671707835615 0.001772690166859694
334 -0.00418249143787032 -0.006166055322853802 0.003744178179518266
81 0.007149040128953 -0.007594111492893727 0.0035028260523390724
37 -0.0006114451540107458 0.003709766703933189 0.003597966986074341
356 -0.0011995066648916924 -0.0031001774611777466 0.0014960890006822387
74 0.0010670933252145804 0.0017519965806323996 0.0002466811671676986
204 0.0038016433011947262 0.004124951358711285 -1.427763848709713e-05
39 -0.0014167023836246728 -0.002024688009917694 -0.0008686097669679301
505 -0.002518089761909122 -0.0015130205078262421 0.0022514495125354737
566 -0.00175367012538155 0.003304338837475685 0.00046089544887865735
41 -0.0054928760860606905 -0.0005554723154223138 0.0025920895402910308
432 -0.000609631804239563 0.0037195017843385993 -0.002583707710648366
151 0.0020295006465852372 -0.002619714619124635 0.0006891601643719036
392 0.008621552890183806 -0.00019443169098271835 -0.0012297131085907797
101 -0.0015812911399351087 -5.830733701441377e-05 -0.0011918055576860286
288 0.008912881979774795 -0.008041432201015187 -5.917136944127235e-05
285 -0.0017464473824222587 -0.0015493551327863367 0.001443334180929492
569 -0.004648855388475156 0.001953278055303384 0.0007483357252922272
264 -0.0038117343880635845 -0.0037087248070734546 -0.0004967135337584535
524 -0.0019356994569469856 -0.004391750568845223 0.006295839278448903
281 0.004194138116306025 0.0006305213160975069 -0.001380245572535255
322 0.0042178221547817 0.0037150633554397542 -0.001024667318199119
98 0.01101583813649944 0.001977220344237427 0.00695822484208059
269 0.0025313793292580985 -0.0014245705571432818 0.004088207335294455
287 0.002048565480410626 0.0007730292988877943 -0.0010955509088156064
521 0.0016259992428248097 0.0015820243472051225 0.0027091208408001185
83 0.004367967146618831 0.0015998248295124211 0.0007698590122227802
195 -0.0036800184444211806 0.006129813025917872 0.002824817362342439
369 -0.0010150893853752524 0.002934670683852895 -0.0022659474888894675
202 0.005505516111386959 0.0028477019693487664 -0.0016511641629497363
95 0.00015049751634955465 -0.0013646454352433989 -0.001961879614952093
345 0.0004936567333164666 -0.006965623288420736 -0.0006750566608594378
230 0.0029970428040679174 0.00029908687333134024 -0.0004245821319757145
397 -0.0022126150525575788 -0.002197012252589999 0.006754799068628881
152 -0.004398681758335205 0.007545014820090895 0.0010500193458406891
563 -0.007971943310202827 0.0030207080038437716 0.0017241044954148111
409 0.002439896359842061 -0.0012985290459482668 -0.0015549863151549381
516 0.006777370796716461 -0.003289804314953315 0.004464300327685889
145 -0.003921489180271797 -0.0029060208537772733 -0.004039965272580298
463 -0.0005897608117209971 -0.0007988839840979725 -0.0036033183970783774
406 -0.00048675917277161604 0.0034867492913421764 -0.0019604270957112846
457 0.0016140595697508964 -0.0011302408747743701 0.0011213325975738138
512 0.0017624801007915874 0.0030690930240591563 -0.005987979370991704
309 0.000983834389937369 0.00026421628667452153 0.002536942914723777
529 0.00605229617824552 -0.001532498739351618 -0.0003824549047093579
486 -0.0036907050327490793 0.001590282949781241 -0.0014288807180035078
139 0.0031485540757809198 -0.005640511776186878 0.00375218507378217
291 -0.0037752006673810222 -0.0013441207703906745 -0.0006958413121040036
133 0.004862625998101413 0.0005749903274169683 0.0013101637360645832
388 -0.004966132432240053 0.0024180878742851818 -0.002862051183381137
248 -0.00036914589203205193 -0.0026183205631633093 0.0016298788194775988
206 0.007702927341547325 0.004072626331968577 0.004421634736129326
367 -0.00039907048600088554 0.001998086132780337 0.0041782123903872466
21 0.0032648900321080926 0.0020858655094078255 -0.0011239243807117706
318 0.0033580843927335765 -0.004154892210264498 0.001698685973938638
183 0.00136191981292719 0.00028885653803569026 -0.0063063425086120175
447 -0.0033922872734388665 0.006575768178248323 0.003624200341227259
30 0.0022341432868918333 0.0015850013199271127 0.001408527137924889
88 -0.00011629127651409306 -0.004479592831137724 -0.0049191858098557245
359 -0.005081869056992497 -0.004087946401976506 0.002164690082600585
399 0.002615345659434631 0.0010360707523957772 -0.0021594537645326563
9 -0.001327029266151238 -0.000636852179842843 -0.0017544704360835778
243 0.0003071207504751225 0.005237599651474712 0.0033376772292091858
245 -7.568367250006079e-05 -0.0025092900476069435 0.002377094309235569
545 0.006248721048405257 0.0023561654288601335 0.00485965236160548
215 -0.005748065073866554 -0.003988249239079552 0.00039587022807613387
266 -0.0025566997498299954 -0.0003499314808604354 0.0037606760438617685
24 0.0022627783898835773 0.000473095276776363 -0.007013157550818493
254 0.0011235484365903871 0.00013983499094256886 -0.001769432858463148
44 0.002836294570721686 0.0011657532210144282 0.006381296311616999
8 0.0026323773596557557 0.0013116815933949995 0.007817930239817415
415 -0.0008135670910499539 0.0009487664162031619 -0.0020488951281517633
445 0.0005006212611318595 -0.0031416120723658653 -0.004823753220890779
503 0.004137618835185504 0.000718212175064165 -0.002478948898182882
164 -0.00280323287257262 0.004702540248926357 0.0005151443920319021
469 -0.0028126715669699416 0.0005882742645663835 0.0015122377632270068
519 0.003360631050556672 0.004838725891521854 0.0001322363776115016
177 -0.0015267881153248363 0.0004843765978483103 -0.00011443129663249387
294 -0.00443486210815718 -0.002252850795618298 0.004954193618267003
82 0.0011774902716543217 -0.003301354705260083 -0.0040436266938608245
556 -0.002001601504432331 0.0009578476377593893 0.0006611404640540862
148 -0.0022076181027483625 0.0019945919299134973 0.0015940536702120514
246 -0.0014022980301539522 0.006121603498702187 -0.004452362079081793
18 -0.00045753686917984337 5.076459751824558e-05 0.0047449100572947225
483 0.0028690638801253045 0.0024503047083696736 0.0023718132735854785
259 0.00030335348023230387 0.006494144227435697 -0.008857018099951075
429 0.001998360577162632 0.003527557113229473 0.0016901327760839155
475 0.008663460227881684 -0.00070183319277322 0.0021480887786008737
548 -0.002101767665289001 0.0016262509567504992 0.004405313511282668
222 0.0004624085511079154 -0.003392796623865566 0.0031125818030023045
528 -0.003925369319246257 -0.002351951336099705 0.0009451989591021308
568 -0.0014485370467943416 -0.00538627040878225 0.00019488251582176395
147 -0.0016635241905956116 0.0006705896574692934 -0.0028573511320431487
181 -0.0025352075340815215 -0.006454778870146827 0.004825129898075313
54 0.0037952495634127835 0.004326408535040136 0.0023335682430523155
244 0.004614962843990021 -0.003475237273186058 0.000912813584892668
47 -0.0028245810759724662 0.0044631825015311165 -0.0012893018706063755
319 -0.00011646414317402345 -0.0018862700179590752 0.0005504885038493336
358 -0.0062949124774748936 -0.0021111497575494065 0.004341750316235552
572 -0.0009981523491620697 -0.01010943062459773 -0.00024166840294043116
308 0.002046211024710637 0.0015171147002573594 0.006247437330416074
233 -0.001503600193350664 0.0030252708849500915 -0.00028121715466094594
346 -0.0001829533363605047 0.0022745489172162426 0.006226395528149776
543 -0.0014103705706785168 0.006152580447333076 -0.003176020188733893
89 -0.0016959258363293216 0.002074144084586871 -0.0018054649543506982
520 0.0006247488305685972 -0.002481236537275126 0.00643295726348814
241 -0.003210973413921829 -0.0003643198845932959 0.006997819379036239
394 -0.00575714329239587 -0.0010130230291190492 -0.004461961422249435
323 0.0016517908118653909 0.004785826234542441 0.005035894622639123
379 0.00037175666080486243 0.001427413238014359 -0.002016077178373634
96 0.0025095571177053016 0.002886296497305302 -0.00218581181371055
79 -0.0029681619534510603 0.006047609992832772 0.0015199644037254176
313 0.002781373048332516 -0.004454158254959392 0.007686767297344398
149 -0.006254687072251609 -0.007471924042202313 -0.0017682003735533835
92 -3.466508876474423e-05 -0.001206687429202602 -0.0022681852027495192
576 -0.002083249910549745 -0.004025927727422807 -0.0014061384406416713
77 0.007827459533487654 0.004233143428690351 0.0018317858688344795
325 -1.1631133970731707e-06 -0.006419686313841221 0.0014030470024648785
115 -0.003481507419580864 0.0041863272393186405 -0.0004962219141368095
398 -0.003523919394903435 0.002481305709593515 -0.0003970192328100413
22 0.0007664826811313624 0.0051318308715683604 0.004449198147898582
317 0.0028130792612949354 -0.005568317821172104 -0.003096115592808019
433 -0.0012725517688120613 -0.002946149734700642 -0.0026141328292101987
194 -0.009064337928966312 -0.006262925305820593 -0.00108141380223253
161 0.0005583808164915512 -0.0023558822073373414 0.005154017126116657
551 -0.003869569323880614 -0.002130264373215988 -0.0020950824222077742
522 0.008393900241399894 -0.0044112308645698215 -0.0037363044576435816
119 0.002897221733307085 0.004525644202170603 -0.0026054190182291186
102 -0.002153987265494447 0.0013904157450677348 -0.0015646473043754278
535 0.005084614277421093 0.0011575710462634885 0.0010208202812306275
353 0.004444287697916994 -0.0028755942361313822 0.002919052056328001
213 0.0014864482983995375 -0.002919294083264935 -0.00273032537024947
32 0.003561657340253003 -0.0025606850735188065 0.0024505558799095936
78 -0.0017184889996388485 0.0017829194414891204 0.006008412728930508
251 -0.0014039904844843733 -0.0026853833688603216 -0.003510357008272473
567 0.003001288880417954 -0.00023942209963261153 0.0009777520479645504
270 -0.0014618015514316245 0.0022323408027580876 0.00048367573435863465
10 0.001003733130112091 -0.002541806426122237 -0.0038786240509121
395 -0.009238973526414344 0.006587728699995724 -0.003366894425176324
63 -0.0028573305981233173 0.001043972831759622 -0.004665375632024144
534 -0.002027298691334208 -0.0003902190079934994 0.0018525620805494543
28 -0.0016209831226411053 -0.0041487354385357795 -0.004762199259727881
85 -0.0005680539382183707 -0.0010938703389074828 0.004541031293490942
383 -0.001841563355592055 -0.00010191359470556616 0.0004892453005410796
276 0.003983640928075707 0.0007977843047388573 -0.0007963454111348695
515 -0.004057150346763013 0.007290038566274747 -0.0010343182496689316
565 0.004900557017892778 -0.000803161620907221 -0.002394615645625071
283 0.004798068015438089 -0.006931512509831825 -0.0034974253202247267
440 -0.0019839919630431453 0.0008800137504634208 -0.004334086960894485
511 0.0009966718209554104 -0.0010801667692221916 0.005373390418347867
508 0.0006153509993766143 0.0014946208788178114 0.0006624527522993527
481 0.001166236804387652 -0.005324045873688475 0.006467149456143449
340 0.0048782879756962645 -0.005106807230821114 0.000989213782725884
466 0.002361868668885153 0.004775003419334131 0.000320820017291008
363 -0.001140881262128049 0.0006591772564985925 0.0038195446215063215
153 0.002114200202102041 0.0011898403640299012 -0.0014397290380827772
489 0.00319013299449759 -0.004300055727607386 -0.0023702106456211154
544 0.0015960034290169855 0.003825262688410169 0.0049697608434051115
90 0.00286441913706283 -0.00030844627307445084 0.00680667634931119
66 -0.006172074750873339 0.001348101638966975 -0.0002601825558843685
573 -0.002351476393319857 -0.0005505624257229826 -0.00889161822679517
547 0.000729695530474858 0.0007816694048903649 -0.0016773739843383194
105 0.0016151101454359657 -0.005917477238423041 0.00233658677300811
462 -0.004813235436952303 -0.00029327742116092655 0.0011029055516373583
393 0.005254187620001065 0.0019984050234966503 -0.007348002770256621
389 -0.004774373032461945 -0.0039719529373734835 -0.00015350828482679231
263 -0.002235340514108802 0.00011853510346756582 0.006881144088165002
428 -0.0018751501178670804 0.0003335901940948893 -0.0006777607215014857
459 0.00020356004729685085 -0.000895031941924086 0.0012577277750504053
351 -0.00010862546041767664 8.703165695682717e-05 -0.004781903208011408
427 -0.0012364503153620091 -0.001385547947050672 -0.0016046216833720981
135 -0.0009134214219258157 0.004807053564679048 0.0005058729702187863
138 0.004500566700043518 0.0013179863727302047 0.0003194844001548245
19 -0.0009194309163531562 0.004493790488392166 0.0013822756085906836
407 0.0039398725836571275 0.0013465909903599314 -0.00247595335892787
435 -0.004992507103749464 0.0035736711120577316 -0.004711485052134882
141 -0.0007486660180597322 -0.0021042804479124246 -0.0012813688055472703
150 -0.0005199008766550423 0.0047211307919078046 -0.004629713642295137
333 0.0010644845539711247 0.0041377105799043825 0.0005271281937242276
454 -0.0018776838319042649 -0.004712411998151939 -0.00016267852782540253
7 -0.002598977498466526 0.004328273352777379 -0.0017963696959867757
513 0.0048101858005097625 0.006885797579018233 0.005720390055735942
205 0.0012119679482835005 -0.002874064541460899 -0.00020172245453080648
361 0.0027270965694134917 6.8652487549441e-05 0.000984769398798083
42 -0.006297645814989702 -0.00018797368517639785 0.0011129750775341748
154 -0.0038222171949831673 -0.0036955840515349356 -6.140006510257366e-05
326 0.0005459442713965798 -1.7234375656188263e-05 -0.005820924211735666
121 -0.004383366206966225 -0.0028369324651061696 0.00881401516254189
329 -0.004093515939032547 -0.0021727288912326555 -0.0011844619969909314
343 0.0019558466683825934 -0.0030425406421230863 0.0007331353941966299
368 0.006866814870793034 0.0039865276625112205 0.0012880494557817584
261 0.0016567477438115398 0.0004096428250449954 0.004624356895049113
305 0.003362333560873564 -0.004106563555380516 -0.0020149402635530047
87 -0.00019198955042443972 0.0033022705971853454 -0.004734865968889496
225 0.0018110906326601773 0.0005047006303181942 -0.0030623223955197057
129 -0.001815646452167916 -0.0005045633625047172 -0.0034813749018382683
219 -0.0010308792906237136 -0.0014706344450205056 -0.0030967222147945685
207 0.004908396895416707 0.006233028207171932 0.003395301949731234
134 0.004683874880899348 0.00192627157691118 -0.0007438798604365884
113 0.004245820018235998 0.0032395118428858263 0.0056802601195068995
56 -0.0012203791545464763 -0.001582706515515175 0.0004517749908889464
541 0.003281422596402325 -0.001624266179686275 0.002883943947903381
355 -0.0014138134999335673 0.002781891423415822 -0.00020301891946904085
560 -0.00017735890234908179 -0.0038018074323340283 0.0015113271346956297
247 -0.0008179232338792202 -0.005065627360788352 0.002943359602910366
341 -0.001994550888569472 -0.0068981544129221506 -0.004210877350307725
193 0.002538735308766495 0.0015023101480351193 -0.0032192722731643384
114 0.002462887448813136 -0.00013343881809511164 0.0018847099548935868
255 0.0012531116224299746 -0.007458454621895264 0.0046949865502120105
562 -0.006572519462476718 0.0019918084959737793 0.004960943862789136
518 -0.010835418317737282 -0.0045544021939534895 -0.0003044100234472541
480 0.001359421978572923 -0.002862165930600037 0.00017182381049421654
23 0.0053498304820923425 0.0006829251580207236 0.007892212129062428
185 -0.0010145214543097983 -0.0006318676371679449 0.004432835541212212
253 0.00045158928171193206 -5.811278541661892e-05 0.003913619608870635
376 0.0021895363957795204 -0.0013569266066010964 0.0005635062062929578
434 -0.0018967883075391699 -0.005405944500577911 0.0001502115064506499
437 -0.002262270994228851 -0.003669792123787002 -0.0032518093279304493
478 0.0014404550101600612 -0.004157099702993652 -0.004988110904462137
99 -0.004728879120520315 -0.0003865656562816086 0.005180412558630124
293 0.002378871691932418 -0.00032896524043557295 0.0032947901697957544
571 0.0002979038801953554 -0.005329058351426961 0.001407706354366491
258 -0.0028386282310101977 -0.004891162941341572 -0.007827766628681393
378 0.0017226655047504567 -0.0037792157271427 0.004189830906475192
172 -0.0005491913156043149 0.0010722738375447945 0.0032641169028354584
502 -0.006259586106418383 -0.0018398532323762365 -0.008442632829503529
31 0.0005480278930063506 -0.004570880217374308 -0.003318110746526375
128 0.0014882268813806872 0.0034937111943675585 0.0007033333243333973
286 1.274319586056854e-05 0.0032264973522142413 -0.0032439998113403183
444 -0.0016102324547051644 -0.002831675009165511 -0.001021730155375512
68 0.0057290140224983315 0.0007455418275044112 4.622160762166438e-05
130 -0.005477719303329414 0.0034872105554278926 0.0014183141538192377
298 0.000909612380258294 0.0019750386402089815 -0.001286787376881161
143 -0.0013185782252372461 0.004424144086638397 -0.000892896315088957
20 -0.00014215354933060583 -0.0021756686326830556 -0.002635986088298091
504 0.0045560591229152824 -0.0012598817717581314 -0.002071792822586427
117 -0.00316449138635169 -0.0005659790797374566 0.001870746652486703
217 0.0007953835453558081 -0.008836057235172123 0.0032742368655396905
184 -0.00712716541829951 0.0009748560877072274 0.005756141731967073
218 -0.0020187407701754527 0.00174134355711519 -0.009212059642163874
209 -0.00288071740968161 -0.0025778567321352664 -0.00020915459921406717
223 0.003913889653608922 0.0024012879873299394 0.004703495663756309
339 0.001383696783629508 -0.0005675492443552709 -0.0007633898664936904
537 0.0013963737905704375 0.003613703998699321 0.0013949979687299574
362 0.0037937927601543633 -0.0015918440930456977 0.0017288968458062256
52 0.004528218922153334 0.000289941766397361 -0.0045989159542225745
240 -0.0014675483395832649 0.0036552116293800947 -0.0017003905165660761
127 0.004655333435578592 -0.0011490512954113283 0.00235104413585948
125 0.0010848018287337616 0.0004248210550106312 -0.0012824111380703826
467 0.0013698032752572562 0.003194061074308657 0.0016489596095463452
62 0.0034713175395827255 -0.0025793076686841934 0.0027650207470702754
514 0.004494590803172341 0.0005741774622728981 -0.0001367324404969895
452 0.00592975626653469 -0.0028210397841700796 -0.00255592384368288
279 0.005728891516722298 0.01395869578955252 -0.0005435405082550674
297 0.00031059657930600313 0.0019723215301680475 0.0005356710011401009
272 -0.0008415854687861329 0.0011056250679825463 0.007007708253127249
174 7.207321628902861e-05 -1.1929641220674572e-05 0.006380954527823867
312 -0.0072774290292339 -0.001929079267222225 -0.0010568601024160682
109 -0.006739741789876764 -0.006047946224804604 0.00029888852503837945
458 -0.005371239021555959 -0.003870848077657863 -0.0030839756467725
450 0.0043761749058747225 -0.0018374944316307724 0.0010951649746675934
25 -0.0011978739316379156 -0.004934296258432507 0.0011256640656842262
234 0.0029024455196326074 0.0016659291387632034 0.006017207403041054
546 0.006131869314264513 0.003341211727778113 -0.006888305404955734
1 0.001188152712631264 0.003022325835888628 0.004741823378646224
178 0.001840059304127461 0.0012571919449552832 5.1025598697969375e-05
510 -0.004827356353012551 -0.00020428967057557526 -0.0019148692961077803
