LAMMPS data file via write_data, version 4 Jul 2026, timestep = 5000, units = real

576 atoms
2 atom types

-3.4813851775853344 24.066962889182744 xlo xhi
2.349040878008405 18.236536833584406 ylo yhi
1.3802192049076343 19.205358506686466 zlo zhi

Atom Type Labels

1 Si
2 O

Masses

1 28.0855
2 15.9994

Atoms # full

366 41 2 -0.911402526766771 0.24346094408719532 4.213892303211538 5.253291283803041 -1 2 3
470 53 1 1.741286377932687 2.3533344533875784 7.952232997206862 5.820622278841018 -4 4 1
315 35 2 -0.8617329671355741 -0.9138965535928794 6.394203919614348 4.514302012775622 9 -2 0
290 33 1 1.823065742009139 -2.46083561160819 5.826541180399024 4.744976297718763 0 2 -1
474 53 2 -0.9296430640592379 1.7728630115716353 9.110223625200785 4.823875292410863 2 -5 -1
175 20 2 -0.8642861354476929 1.3099135130961423 6.718439756863342 6.058139875455655 3 -4 -4
377 42 2 -0.9703198972000667 -0.06377367693777813 9.059158498182047 3.0491960837253895 -4 5 -6
75 9 1 1.718514221170414 0.5436065390216855 5.80862478729928 4.8796173466432835 -2 -3 3
402 45 2 -0.9798375565098644 -1.4027164959239764 4.476603839085067 8.428707013378187 4 4 -3
488 55 1 1.977644643492949 -2.3092901407822763 5.552496100863872 7.789910391707223 1 1 -1
360 40 2 -0.9422238575710328 1.53876408346932 5.767803655210505 3.616008210271047 1 -2 0
220 25 2 -0.9587969608082697 1.253731718129318 4.095417705305065 8.545963738357546 -6 -3 4
408 46 1 1.822755224932574 2.7267940133506503 5.250281128458161 2.5929586296629856 -1 2 5
46 6 1 1.87245806566919 -0.19775988483496976 3.541183469010498 8.953714341746963 0 -2 4
124 14 2 -0.9804026026443845 -2.5089161142032674 5.264944051829186 6.235222771983737 -3 -3 2
210 24 1 1.922986243901688 -2.1683550855676503 8.32527352326973 8.932730056039814 1 -1 -5
38 5 1 1.907985985254227 2.031025230843724 9.041670968847763 8.5935318103719 -2 8 -4
314 35 2 -0.9148857074061022 2.7848910291592697 8.556601236758581 7.289456964820575 6 1 7
419 47 2 -0.9488495860201013 -1.6883212111820862 7.025792087646296 7.999935591332751 -8 -1 -1
306 34 2 -0.939758574509681 -1.841486655826507 9.570136708634877 8.007644814343234 -2 0 0
401 45 2 -0.9243146667156579 1.7233998475195929 7.782956716557271 9.550420220825238 -2 -1 -6
118 14 1 1.802493749759627 0.37538024972444894 9.737649638404207 4.397793335560006 4 -2 -1
201 23 1 1.903367494941292 2.8769739203863365 3.9829204317476794 8.40886365814455 -2 3 2
364 41 2 -0.963505871088136 0.6997477201203539 9.774880409087196 8.025194475021115 -5 -5 -1
231 26 2 -0.9225777071792945 -0.5666718610960122 9.447827442927075 5.723873097721167 2 1 6
60 7 2 -0.8586799658254408 -0.3728106467911947 2.928766084583639 3.0003043592423966 5 -1 -4
352 40 1 1.738501658294919 0.28317669264462797 2.7777426092089477 4.581470332464841 -1 -9 6
168 19 2 -0.8885913866871367 2.9727770865133376 9.932410895338897 9.581254231278942 2 4 0
536 60 2 -0.9220111867298676 -2.7745696812918803 4.603742827955642 3.789208795601129 1 4 2
123 14 2 -0.8719494966351474 1.8010554541693287 4.163104219565417 1.7557394442227976 1 -2 2
380 43 1 1.952288606757327 -0.6029110939148254 10.125850429031349 7.160446731659622 2 -5 -1
300 34 1 1.834543557201852 0.3303487762911992 3.527326065428605 1.6462496215982247 6 -2 -6
432 48 2 -0.9765069388066662 -0.8265319583711488 7.1821405261486415 1.502661039508414 -2 4 3
484 54 2 -0.8957714723983562 3.318239769081612 3.2126320645004887 7.028515804619236 -4 1 6
249 28 2 -1.028852933542099 1.7714953897321521 2.3865322930521646 4.192033092377791 2 0 -4
404 45 2 -0.8872626275184939 -3.343358642505891 7.232863392222722 4.7353217869753905 6 -3 4
330 37 2 -0.8246581483358935 -3.4783872580272024 10.069267999730712 4.069122830883257 -2 2 -7
199 23 1 1.973226039490013 -0.0771816181260383 8.61057453865935 1.5463492300269184 -2 -2 -1
392 44 2 -0.9861751099364294 -1.3557291512277376 8.513874840266825 10.258538183287007 3 -7 1
40 5 2 -0.9800754615862595 3.503137408670118 3.413178843795052 9.759111919873234 4 -1 6
550 62 1 2.04236894024632 6.883402467219474 4.1119718688864735 9.74432983477249 -5 1 -9
311 35 2 -0.9078833933641466 9.45948510881159 8.403969353582266 4.997859847304164 0 -6 0
173 20 1 1.993799014736714 5.734729362850617 4.940416198137673 3.3967968855831847 5 -7 3
228 26 1 2.045967022393026 5.078991909452757 9.583779960635802 2.029585550508977 5 -1 7
464 52 2 -0.9634375310628832 8.90441661366885 6.0887612869998 1.906389371609871 -5 2 3
553 62 2 -0.9705798219428926 5.364458543472034 6.341966016408541 6.5965480650454005 -1 5 0
289 33 1 1.964842014539525 9.664487041592926 9.025932666622824 3.511027791902536 2 -4 -1
57 7 1 1.964662537774305 9.65728827249816 8.057280737216225 6.546667734882413 3 5 -1
558 62 2 -1.063911461783078 8.438037101407076 4.149154622167602 9.670024756309664 3 2 -4
131 15 2 -0.9708911502386171 8.22676427766337 4.140255664053461 6.186447748615312 4 4 1
498 56 1 1.918876724354972 5.2298063998867 7.227148193972522 5.238160105243863 2 5 4
111 13 1 1.919239975631473 7.806413174792619 9.552827273922759 8.535672122802364 0 -3 5
324 36 2 -1.004373244559879 3.9330427891875486 8.53072340378846 2.0439080457751193 2 -1 0
381 43 1 1.949008722959472 9.9806621585878 4.004242218367914 9.389664260503856 -2 -1 -5
422 47 2 -1.012006399064664 6.181628883924155 5.125527453551296 8.72910884714341 0 -1 -2
273 31 1 1.918598753688787 9.488844640952646 5.035482154570515 6.596428512363238 -2 -8 6
476 53 2 -0.9480668315304738 3.6429869103456065 5.3303044703925675 8.225293793847115 1 7 0
411 46 2 -0.9073880107220922 3.610167746889802 7.4112247141932235 4.98566051450297 6 -8 -7
180 20 2 -0.983220220437764 5.83279398136346 8.658143274309358 5.49171176614662 7 -1 5
107 12 2 -0.969368177461587 9.115150421911224 6.54636257192558 6.742532890290983 -1 -1 -2
278 31 2 -0.991610582208149 5.004419382717725 7.312135106847062 9.119675669908624 1 7 4
239 27 2 -0.9280922728329881 4.142880758797913 4.692683804288855 3.1971590860221073 4 5 6
227 26 1 1.926904464742857 7.70597442151929 3.0645342256981802 5.136017104659226 1 2 0
493 55 2 -0.9434531463005326 6.549815844244103 3.847365686979429 4.312573608001308 -4 1 1
256 29 2 -0.9797237285130882 5.784370809028584 6.403063627653691 3.97100029256676 2 -1 -3
373 42 2 -0.9776646608390375 6.504828855326792 4.885756600215812 2.0493975558763484 -3 3 0
35 4 2 -0.9875318389791247 8.407785734601223 9.12896701102018 2.532725225704617 5 4 2
236 27 1 2.019882479115424 5.070147693873423 6.081262764513104 8.136622739551324 2 1 -1
501 56 2 -1.001140575281172 8.788505951770302 9.08764655306451 7.373243852025923 -5 7 1
420 47 2 -0.9991342462599412 7.324008478950111 8.347256159923877 9.46461671304224 -1 -4 2
27 3 2 -0.9122392228539321 6.334169406848114 2.625080987638061 9.421265248923673 6 11 0
13 2 2 -0.9708652690285355 10.274128839985568 4.541307284765441 7.955674533891924 -1 -4 -2
186 21 2 -0.9560712604747535 8.948927588763988 2.476721416375425 4.277411176154115 -7 -1 -4
163 19 1 1.930798282709554 5.884970159786841 10.159645468958725 5.018900930249782 1 -1 0
439 49 2 -1.000737955879758 5.658610207600299 10.09881129417178 3.4282293152075813 -7 1 1
559 63 1 1.957527403175185 6.027422884183993 7.910280748204858 10.255338789348205 7 -2 1
497 56 1 1.825305271195776 10.360044726019924 6.762827923116729 1.7182607661991054 -1 3 3
570 64 1 1.869919678233665 12.985760210618075 5.64899101738723 2.4936092609058402 -6 -4 0
91 11 1 1.996416485931437 12.444926282733297 7.698191008687771 7.850935840902026 7 3 5
162 18 2 -0.8708975275447065 12.819127886972556 5.499939694737781 4.1042402308645505 1 0 -5
370 42 1 1.849771283875333 12.07065163096754 4.404207088189548 5.030320941338992 4 0 5
170 19 2 -0.9635486648160591 13.639912179690597 6.847646224277301 7.183956052708846 -5 -7 -3
296 33 2 -0.9159007348503524 15.195578577484742 5.293994351767532 5.76550417548422 -9 -4 -4
405 45 2 -0.8971184607166561 15.84758633265118 7.783098758231819 6.082692666792866 5 -2 -3
136 16 1 1.910063324699898 15.165837669105237 6.547460397735761 6.780619649826655 -4 0 2
357 40 2 -0.9394904728296615 15.981592498573843 5.927565843302453 7.999943265252502 2 4 5
295 33 2 -0.8972503596704883 16.17397812976068 8.077600062403665 3.589378891885548 -6 1 2
45 5 2 -0.9997142217184734 12.949175373104516 9.11072134898077 8.383239006027324 -2 -3 -5
479 54 1 1.792032468348803 14.649636547367706 3.7708748556627514 6.169897878500944 0 -2 1
171 19 2 -0.9400074888169334 13.03874199483904 3.818707856943065 6.104240402700955 3 -2 3
382 43 2 -0.9678259710484378 11.266992645957728 8.001374284432117 6.805381559196398 -5 5 -5
112 13 2 -1.026802026052667 11.746817811961547 6.796402874220297 8.969333052556584 -7 5 -7
59 7 2 -0.9015982884722912 16.212034092501547 3.9926760725865265 3.221725519750289 -5 -1 3
487 55 1 1.759632522277821 16.006019144805347 4.460319766377463 8.633470769774494 4 6 4
104 12 2 -0.919711759640567 15.121148658680621 3.5156317005124498 7.679773158794375 0 -1 4
320 36 2 -0.8877321537155574 11.561822366522028 3.174510904696657 4.085687160834435 -8 -1 -5
43 5 2 -0.9642596270800625 13.374400843861068 7.137402065513559 2.133205516185525 -6 3 -5
55 7 1 1.864120269678525 16.605138490304483 7.84146061555948 2.029319393287162 -2 -2 1
155 18 1 1.799647222860149 16.960460557568283 8.24259497410069 4.9977353166482645 -4 -1 0
284 32 2 -0.8838790335629834 11.397573746655306 5.560416334756745 2.069200421916684 1 0 -1
49 6 2 -1.000503768309604 16.83361448557874 6.281145657273475 1.9531831272700075 1 -3 0
5 1 2 -0.9566692514859375 10.67320082382566 4.99845961227464 5.497320631368198 4 9 -1
446 50 2 -0.9482614323300185 10.595561011670405 7.985731540243795 2.7505789801158116 0 -1 3
468 52 2 -0.852100284878673 15.202297537735262 2.6008661312965278 5.248608190892914 6 -3 9
84 10 1 1.644886294716025 16.377673970477254 2.6068605881351217 4.112825890926949 6 -3 3
418 47 2 -0.9439417364321517 13.429448311944231 2.729385017632137 9.950242643140427 -5 2 1
492 55 2 -0.9942540851456692 13.93785042227292 4.557269930148587 1.8322554806262288 4 0 -2
549 61 2 -0.8948813637454363 17.073693555231866 9.858962156297107 5.225072243334166 1 2 2
232 26 2 -0.9298558191898163 15.307315595009065 4.451189707401683 10.169674713529918 -4 -2 0
216 24 2 -0.9070134983501653 10.7857778907675 2.5869537469310746 9.487269852180052 -6 7 -7
539 60 2 -0.9131872818000013 17.14296987000313 8.27645520488085 10.232459017125425 -3 -3 -2
257 29 2 -0.9643817699153032 19.672468083862302 2.5324960901656826 2.8552372835034117 -9 0 -2
198 22 2 -0.9591856098070343 23.05189309693716 8.161757342203456 2.613070058205018 5 -3 0
126 14 2 -0.9445208707568407 22.292203611841053 4.078043527392839 4.022908925003182 -5 6 4
342 38 2 -0.8255558910454509 17.845208322151752 2.621716909131264 4.98984205614028 -6 -3 5
302 34 2 -0.9721655691131323 21.546632059021242 9.03152556601204 8.926120318813876 -3 -3 5
268 30 2 -0.9249050394141295 20.440775917086572 5.580024225255112 5.117457571957394 4 2 4
417 47 1 1.767644927637489 19.111608523025826 9.6121535642655 2.6760990628720576 1 3 5
374 42 2 -0.9303957508039553 22.031782190497786 8.769439633489322 5.038040587648426 -3 0 -6
4 1 2 -0.8942518715785416 22.091323194271617 4.201456219346116 6.7528090330949855 0 -2 5
36 4 2 -0.9185093548526072 21.73295256018464 4.41841521965998 9.331038257385988 2 2 2
237 27 1 1.87568848922239 17.306155462427963 4.885530239607853 2.4876259330792276 -8 4 4
137 16 1 1.903531043346514 22.279311814710365 5.232029436858091 7.9927060170305255 1 2 -1
120 14 1 1.83773060661406 23.67677519652567 3.371844486930515 3.6255625233861277 -5 5 -5
509 57 2 -0.9361004946361792 18.319122866293572 7.27393898365068 4.824842495039896 -2 4 -3
214 24 2 -0.9558677345719548 19.387030517670354 7.443708579840043 8.962160973293813 7 -1 6
331 37 2 -0.5370042491333084 20.21506586248905 9.27613833498164 1.563533579664404 -3 1 -3
260 29 2 -0.9800377707404969 21.533325059911235 6.6413553827253295 7.891605425859129 -2 -1 2
61 7 2 -0.9719636317729676 23.775868811323456 5.368024559362408 8.44908538375238 -7 4 -1
530 59 2 -0.9260227349939404 17.88107793438791 8.80180067400303 1.9368995445162276 1 4 -6
158 18 2 -1.044984197000782 18.434635202591945 5.106183325382018 3.5861284549066825 7 4 -4
436 49 2 -0.9609391854686977 20.309247401417366 8.732093057868621 6.734113183624825 -3 -3 11
574 64 2 -0.9648798715006566 19.625174277046558 9.263114473829674 4.154793135414971 1 -1 0
159 18 2 -1.000506998799097 23.82131593299949 8.293157881067476 9.270272416693155 1 2 -14
354 40 1 1.918228412944507 20.6571096394444 9.482976382113637 5.4008799006274755 -1 4 -1
425 48 1 1.811008827531611 21.32326536819743 4.2239507639245835 5.288069121713606 -6 3 -1
110 13 1 1.974395283698018 20.644034411393765 7.981861588157989 8.109802007101514 1 3 -5
542 61 1 1.884976343200168 22.64519460074218 8.95586517300837 10.060066653667096 -1 -1 -1
16 2 2 -0.8643836210580584 20.418391544066203 2.9188609451042375 5.290539415548626 -1 7 -2
242 27 2 -0.9808041019566764 20.081677512608913 6.630014034010351 2.7393317370892922 -4 0 3
332 37 2 -0.9478084060242598 23.650761464264555 2.7457844546464094 2.1291205739221026 -3 0 -2
146 17 1 1.886309669777196 19.340420085016735 6.251421930325801 4.120629429033986 2 1 -7
531 59 2 -0.9750484391628178 17.476456607711793 3.76431556840436 8.672611434009225 2 4 5
507 57 1 1.785943695577211 23.37171406096106 8.525758621993727 4.1323266778649765 -4 -5 6
424 48 1 1.848237050811671 19.530561633806446 3.280382243890479 1.4474431073899319 -4 -8 -1
391 44 2 -0.8882044316187154 1.734054703214614 13.390459278155845 8.566147373307196 -3 3 -7
274 31 2 -0.8902949145488332 0.206191098051431 15.532953790494833 7.6515799563654205 11 2 1
156 18 1 1.812573482388167 1.5400716343007295 12.063302091446335 2.8491368052455313 1 4 -5
575 64 2 -0.9564095429589847 -0.6793652316267793 14.472773371068559 4.199228043114131 4 4 -5
299 34 1 1.842184379223672 0.25886707535637843 17.048460835591968 7.077961632183591 3 -1 2
554 62 2 -0.9675165981379118 1.8725665392889956 17.104118191485778 7.108711855142594 3 -7 -2
3 1 1 1.851140081979805 -1.5822726207024307 12.9155547124837 7.439865025582411 5 -7 -4
250 28 2 -0.8977479120797764 -0.8223057967827265 13.542538866897967 8.736586911565212 -3 -2 5
29 4 1 1.919237816675665 -2.1485086731960763 14.054237011805736 4.637803427560234 -4 4 -2
53 6 2 -0.9494953781693968 1.6734800091584843 15.864620484326796 3.6195621300464755 -1 -4 -2
307 35 1 1.909855312536846 0.4262525948187168 14.920790777875837 3.1199998408511886 0 0 -2
140 16 2 -0.9496145496132726 -1.9647552934491173 13.87777250810792 6.194806202577494 -4 1 6
144 16 2 -0.8465188657936749 0.45038234338298455 11.328700688354544 3.852838986962562 1 1 6
386 43 2 -0.9304695789898696 -0.7242135944398447 11.685462693616618 6.8448248136110985 4 -1 -4
190 22 1 1.853709224382227 0.5250050015597711 14.440661258617126 8.822483249995015 5 1 -3
350 39 2 -0.9434681025724099 1.2203710058545614 13.598518933931267 2.701803811552595 -6 1 4
208 24 1 1.951055185850551 2.6876643286157336 17.101508589712765 3.7601787241932865 2 2 2
211 24 2 -0.8921478546955992 2.8130841638976802 12.745683281740682 6.3346936988798594 3 1 2
94 11 2 -0.9624379326294802 -0.40112842017124706 15.68455335000736 1.9361902683591827 6 1 0
70 8 2 -0.9383694494752699 2.9158197483051156 11.86701878501042 3.6660099045781838 5 -2 8
442 50 1 1.787393657639056 3.192303300617377 13.165106251445746 7.871367341450146 0 -1 -3
189 21 2 -0.9060149190341685 -0.2616049225786421 17.481693212443027 5.628817119247071 -2 1 0
221 25 2 -0.8889496905355907 -2.734646170018489 12.694962135220262 3.8208459298601154 0 -3 1
224 25 2 -0.9086741485265847 -2.469794190138135 10.767091356481245 1.8788974194475083 0 -1 0
86 10 2 -0.9708324203780173 -3.1781654315086456 15.269013841131656 4.416710978856969 -7 8 2
116 13 2 -1.019412953879425 -3.185014735691265 16.63944613450988 9.36987822771115 2 0 6
196 22 2 -0.9245771112384507 -3.060528954048029 12.40771819615334 7.760459410788561 4 6 -1
212 24 2 -0.8948912746464457 -0.38250820680486 17.93866870600642 8.276751486200508 -3 -2 -6
481 54 2 -0.9572025467082952 0.7776581669520066 15.262931666654733 10.167308852259554 0 4 2
344 39 1 1.785958595719491 -3.3968991245241815 11.376196070599462 3.034114153436235 1 0 3
523 59 1 1.823411085654486 3.3392433203179603 17.510747479231032 6.658825780481139 -2 -2 -2
517 58 2 -0.9827698608706981 6.422052702528186 10.295422491596966 8.161856407670394 -4 -4 2
448 50 2 -0.9696745538685067 3.6410648803370496 17.365703663059957 2.558700887481154 -2 -12 6
106 12 2 -0.8904981748277235 3.552170254500518 16.841525380716455 5.1508906667369345 -2 8 -4
176 20 2 -0.983821379967544 6.330421264475424 15.446365954726271 7.069205061755938 5 -2 -5
226 26 1 2.000235645901536 5.156959766503817 15.651691586206386 8.111617543155496 3 2 0
414 46 2 -0.9634313781668735 4.513798119920032 13.552914920384236 4.740344339916378 8 1 -1
277 31 2 -1.030394272727242 8.61238307621099 10.545365041680181 9.501999223014076 -2 2 -6
65 8 1 1.86823717808592 5.834608607790294 11.75301003775768 8.381421228607845 4 -4 -6
413 46 2 -0.9374282649187048 6.3790760188152635 15.497814701910393 4.606085941527057 3 2 1
526 59 2 -0.8791199604643087 7.283568536044104 10.82817513588455 5.497099782772247 4 -7 2
73 9 1 1.442506138972981 7.6858550016571225 16.162263578625375 1.8043999407166926 -7 1 2
252 28 2 -0.8752884984043573 8.642984851147384 15.38128233228337 6.183796442877558 3 -6 -1
166 19 2 -0.9762251209642973 4.014203895956337 14.550941204222323 8.174108271676902 4 -5 3
337 38 2 -0.9400410422085963 7.081909578318037 13.135481623145935 4.6331887446429025 -6 1 -1
34 4 2 -0.9611787223380669 9.162482197025582 14.600892554775498 8.733432360114357 -5 4 -5
540 60 2 -0.8014331551198154 8.465010207024697 14.962911658843932 2.6417571330573457 -1 9 13
71 8 2 -0.9336408664242617 5.829811415237884 15.926271360436385 9.561315203734084 7 -2 -6
496 56 1 1.887870646449987 10.093220865305067 11.014491665574983 9.843953959751497 -4 0 -4
499 56 2 -0.9085469655249631 6.311323704364375 16.958847767060643 2.08104884082044 3 -8 1
365 41 2 -0.9884175306350597 4.41526785974276 16.964084544941418 7.687913790851597 1 0 -4
453 51 1 1.758138402063728 7.617447801602156 12.38231477957941 5.965653301873922 -6 0 3
431 48 2 -0.8996687891509535 9.006534290710269 12.886495696809888 6.633782112084914 -2 -6 7
449 50 2 -0.9120565616092184 5.655707167872297 13.892015969580704 2.5047938802580743 -5 2 -2
438 49 2 -0.9701561650651688 4.616087308513221 11.005921734702497 5.505809377135488 4 -4 -2
14 2 2 -0.8830186792518987 4.225084546249399 11.96051401040798 8.278380242011433 -3 1 2
335 38 1 1.92250400856249 5.891812613283749 14.069384197318051 4.131142292434238 2 7 0
506 57 1 1.846025430239519 3.65553425003156 12.232510731848027 5.056963382594768 -2 -2 0
336 38 1 1.809563194895806 7.146803032344952 16.11795210943356 5.898059169850776 -1 -5 -3
421 47 2 -0.9480636559411234 7.112951647334285 17.729692004762928 5.9480071582804985 -1 -3 3
26 3 2 -0.9702746367576867 6.254106582504777 12.468910226551664 9.746863323469334 -1 3 -5
410 46 2 -0.9347596545618675 6.58908769120835 12.58072053796863 7.179560644446034 4 -3 3
460 52 1 1.744026040269062 9.696265406922974 13.934005947372736 2.142702320093407 5 0 -3
11 2 1 1.787072646638413 9.44809221454336 14.38000433062377 7.1980496136429 3 7 -3
348 39 2 -0.9832228220068984 10.16670601864884 12.581177292205645 10.229766188236363 -4 1 3
154 18 1 1.800176619195193 4.828184815857231 17.21176424120718 1.471583582238612 0 4 2
491 55 2 -0.8861808055746845 10.22668039567547 12.981693956549492 3.380633821287603 -6 1 0
416 47 1 1.950744520176231 9.430484527872 13.989494978574797 10.209272707095895 -1 3 -9
477 53 2 -0.9341734836442614 10.419470083861956 10.396881205166537 3.8518087926191247 2 8 3
72 8 2 -0.9111277887749881 15.37042673733501 15.661377236879428 6.512701465372901 0 -3 -4
191 22 1 1.811254896594494 14.226801313034287 14.916956235084932 5.629899181591216 -3 -1 -3
304 34 2 -0.9328186028726687 13.803070666215792 13.499188123471779 6.261461546908804 6 3 0
67 8 2 -0.8913893223398287 13.016937024473513 15.986227812275107 5.730622324494455 -3 -3 -5
384 43 2 -0.9358876260351656 12.318942655145383 11.945641661323496 4.875805712181354 7 -1 2
533 60 1 1.965341777080117 13.645765264477731 11.975873379092192 5.734781724408389 10 -7 3
238 27 2 -0.9353333748560504 14.701812459150652 14.418854292672453 4.130500722525568 3 -6 1
12 2 1 1.803571291984101 11.724582770612463 16.32534797957068 6.660463218112174 -2 2 1
58 7 2 -0.8658532352311225 12.408484117565603 17.120120352390483 7.877238135488104 2 1 1
235 27 1 1.838238346555834 14.333325001099283 14.768972707826261 2.5974594181145316 -6 6 -6
451 51 1 1.837421363786353 16.526509503427864 11.397597453163666 5.109654398382987 4 -1 2
423 47 2 -0.9292431918399113 14.886153810887897 11.3789094812877 4.938858408916923 -1 6 6
412 46 2 -0.9298135178064397 16.00086867145333 15.021944350262718 9.00129255069668 2 -1 -3
200 23 1 2.050516423669945 11.639134819554833 16.191084140469062 2.307590731518629 0 3 -2
167 19 2 -0.8936323843124435 10.977359547231915 14.939278608941347 7.04537747123416 -4 3 1
327 37 1 1.817620871532698 11.28801871193428 11.724654670018268 3.617136550803976 1 0 6
372 42 1 1.884754183747636 12.259514579654669 17.704244687199136 9.408052959906506 5 5 -2
387 43 2 -0.9428042318168353 16.576932061766687 17.392508492959337 2.9540275313272364 2 3 -9
80 9 2 -1.04522981119242 13.057010946747951 15.726556023627442 2.6194412826848383 -7 1 4
441 49 2 -0.9056290638143891 12.159969677084668 11.355192933736479 2.278427531796725 -1 0 -3
103 12 2 -0.9542519916191413 13.302756787631115 11.35908838944616 9.604814258079092 4 7 -8
303 34 2 -0.962820556942911 13.401718191579011 11.133195165393968 7.076936256995298 6 -1 4
2 1 1 1.962049918877132 16.497891618127195 15.644952657700301 7.6301201355772434 0 1 0
456 51 2 -0.9022789478165959 10.688561191898437 17.465312344804296 6.085402245240471 -4 -3 3
532 60 1 1.866879453720693 16.548492594206817 13.809140277990611 9.967594433717679 5 0 -3
426 48 1 1.994099729870859 12.624071636383668 10.655692657455589 8.362805648576924 0 -6 6
403 45 2 -0.9692289519805318 10.784586093666872 16.625868601746046 3.602574910089855 -2 -2 -5
527 59 2 -0.9696796867166672 11.036168276334768 10.865882909793637 8.546439709329466 -4 -1 0
157 18 2 -0.9208367736074766 17.018777793575385 12.114067227907302 6.506280248128971 -3 -2 1
473 53 2 -0.8940516978241261 12.450800860544577 16.379896489174214 10.284336576883849 -2 -2 1
561 63 1 1.896588343933174 15.951478158770716 17.00096255595398 1.5395164616453532 -2 2 2
400 45 2 -0.9527399845051338 15.57682877948568 15.528518907930504 1.8256746297043451 2 4 4
471 53 1 1.772989579443391 10.481118287255192 17.887802359884972 4.501146131666315 1 0 -3
6 1 2 -0.9113197194347925 14.049276413135189 13.506236713076788 1.6008252949030912 -2 1 -8
482 54 2 -0.9531172588562483 10.873951305498645 14.929844401427129 1.6793587816085167 9 6 3
188 21 2 -0.9952677466244386 17.11826629269499 12.18343577352622 3.8356480106806607 -1 0 1
265 30 2 -0.9360305585959292 15.193597164810665 12.944053064877668 10.169733502364574 -1 2 1
555 62 2 -0.9364348665168623 17.08105451608199 17.08029069963236 7.87604596120475 -2 -4 4
76 9 2 -0.9416936479850906 24.0249516025094 16.467130197651 6.718662789596419 3 4 -4
197 22 2 -0.8888150072917519 23.956765598441685 17.894657296695023 4.545004200196771 1 -1 6
169 19 2 -0.9061587311539121 18.789641764809907 13.866725536370481 2.523681599359467 -3 -4 3
465 52 2 -0.8866153531721811 19.56805049500726 12.793464585788499 7.369332174296878 9 -3 8
282 32 1 1.845460453958347 17.995127773476472 13.063490167268519 7.428665356215044 -1 2 -2
390 44 1 1.856759012389064 19.285537858906682 17.997751002273844 4.372965369295658 5 0 -1
495 55 2 -0.9279703562549942 17.60070878565497 14.571572696859683 7.0768665640692 -1 5 6
182 21 1 1.976762781797486 20.753271946892603 15.40018664178345 4.541224375917115 -5 -2 3
275 31 2 -0.9381492561806761 19.532035830015726 16.48929361031061 4.5873659920828445 -1 3 1
301 34 2 -1.072265744880601 23.2023866319249 14.627380708245585 8.313267632754139 -3 -2 1
485 54 2 -0.8924030279194498 20.730491967531226 11.132018337118215 5.644092828212369 -2 -1 -2
165 19 1 1.888762554051121 23.027011526695976 13.124194152450226 7.85997296925039 1 -1 3
122 14 2 -0.9533928212425583 21.003230630664905 15.162472362214636 2.9960295718260253 -5 -1 0
192 22 1 1.921461136515104 23.573498453379248 16.41613590540336 5.181895270281624 1 3 2
93 11 1 1.781894320938249 20.14912813677891 14.502119098531125 1.7741901533042803 -2 0 -1
443 50 1 1.837504408139083 20.670406529050187 12.740611830170394 6.125769436823264 3 3 2
203 23 2 -0.9221099786055057 22.127758719321164 12.14981746922825 8.777909344107808 3 -4 2
557 62 2 -0.9775711840649779 22.71138953039584 11.647087470736132 2.3757363273504497 -1 -1 3
271 31 1 2.00040548687743 23.456860013995882 16.148534166096834 8.210499297728443 4 -2 -4
77 9 2 -0.5306738914755806 20.106858368890624 15.409718695440919 8.86749151736837 -4 -7 -9
132 15 2 -0.8845661752879368 17.479555100789018 12.96223124911971 8.953954064413548 -2 -1 -3
490 55 2 -0.9774074876549551 20.368508427966983 13.95268652575383 5.155383113875526 3 -8 0
33 4 2 -0.949210264517926 22.062564729626477 16.99579035270767 8.470261735546995 0 -3 -12
461 52 1 1.985710793415867 17.976906496584657 12.48887640787802 2.564505355329989 1 -9 3
92 11 1 1.826197279868794 20.642565348871443 16.88400771890361 9.126459728091163 -1 -2 0
347 39 2 -0.9326016183699256 22.158654738542403 13.106521712387572 6.473703916575677 3 -4 -5
69 8 2 -0.8796519872108857 19.49991923780526 17.892243778501484 8.48198763414178 3 0 -3
494 55 2 -1.018722405298037 22.004620438866187 16.106070746951637 5.15663002922827 -2 -4 -5
564 63 2 -0.9574301298243647 18.928524553954777 11.198148395636718 2.5897948112583618 -7 6 4
525 59 1 1.939920472315933 17.929900163841143 18.17477594675224 8.75721015810415 1 -7 2
385 43 2 -0.9641833181474291 17.77035321008283 17.60778777202761 10.210430425005317 -4 1 1
50 6 2 -0.9282895387086323 3.034925208491071 6.211735521197917 19.174104293129005 2 2 -7
269 30 2 -0.9825299944432503 -0.7195804085735191 7.097298396559456 14.842791342333406 4 7 -3
95 11 2 -0.9236955701905611 1.2761872808874681 5.972826385249862 16.197279185445748 11 4 -9
287 32 2 -1.059345309975688 -0.7036973153524468 4.584230400710064 15.10718738204014 1 2 -10
345 39 1 1.813389023086486 1.8358069893281597 7.218031396625332 11.086539985778755 -2 5 -3
83 10 1 1.986051972968619 -0.33212880155640256 5.9175925229814865 15.80113012932139 -3 -2 -1
101 12 1 1.948098529564874 -1.1012238085092223 7.683681434645728 11.598426020993072 5 -1 2
288 32 2 -0.939414275822084 -1.3635050968274465 6.198972585156184 17.03056502981662 -5 4 -4
195 22 2 -0.9462664333946895 0.3190394272658139 6.956504738118354 11.617561081991633 -6 -5 -3
230 26 2 -0.9356029586938246 2.7454130981660514 5.9198279267921095 11.426593695256862 0 -1 3
397 45 1 1.848055986357249 2.6001822233000267 5.260100766275318 15.549902920943195 5 -2 3
285 32 2 -1.010055563520039 -1.3053613231106556 8.531745135181797 12.897845467123348 -2 -1 3
321 36 2 -1.020445606232869 -2.486672699752281 3.854743598952152 11.908656846450887 4 0 2
152 17 2 -0.9426108102269033 2.3559723511855406 5.028510739026849 13.9751791094989 0 -3 0
563 63 2 -0.9470184171965 2.717168225375655 8.470680213287249 11.629124624028588 7 1 0
569 64 1 2.011127362766326 -1.1923949769989233 8.56931927093796 14.480637953112696 9 -2 6
328 37 2 -0.9344918359386331 -2.176214654654817 6.430913566372606 11.45804207220653 6 3 -6
41 5 2 -0.9484604679568076 -2.612755328101129 8.907780565341696 15.177977135206753 0 -5 8
264 30 1 1.990290582376413 -1.2485100952584918 2.8487753388490398 11.796451456489477 -3 -6 -1
524 59 1 1.873723184393256 -1.577034383835959 5.986962016104963 18.62812730337054 1 -10 2
281 32 1 2.127822415060618 -0.974565864652249 3.0661833481332224 14.75141412670829 3 6 -2
369 41 2 -0.9108739700974425 -0.013513958017185246 9.454878214536217 15.03838148666564 5 -1 0
98 11 2 -0.8757451895821965 -0.8533021514057242 9.599425176061068 18.336245693058373 -10 -2 -3
409 46 2 -0.8298184894673518 3.010732638318342 3.8816153338352093 16.291942367681315 4 5 3
322 36 2 -0.9867630540154714 -0.6231653783516649 2.8005838547068134 13.226246852827213 5 -10 4
521 58 2 -0.8937296338481651 -0.2334450203300884 3.4335182030584757 10.571776459836117 4 1 5
100 12 1 1.893956391688683 -3.1759296653437 5.280868364622554 12.082871361935277 -2 6 -2
516 58 1 1.892918664519066 3.2225942257635714 4.933980951771465 12.662284381377825 -6 0 0
151 17 2 -0.9739451207304886 1.415342252804515 8.321341127292165 18.95266538234003 1 -7 -4
375 42 2 -0.9139299529571218 -0.7688458114501913 4.595894659169297 18.92240263118567 3 9 2
145 17 1 1.929465895681469 2.935063799407149 7.790997071625781 18.831742726524332 -1 0 8
455 51 2 -1.088486890691348 -2.4647410869608075 2.7102045193987196 14.976854432115537 8 6 1
463 52 2 -0.9511646067582603 3.181229199976083 3.40233216702959 12.273073512806642 -1 -4 -2
187 21 2 -0.9182209434114765 -3.1244331536967422 6.222045507277748 19.051621496331038 0 1 3
202 23 2 -0.9575405302692032 0.3967393176311287 2.550134438098162 18.213219739485815 3 5 3
309 35 1 1.952583689873862 3.367563010231642 2.420779819540591 11.036497937531735 -5 0 -1
396 44 2 -1.016870645431467 -3.4717546503132017 5.698257951442086 13.626175172483945 -1 -7 8
363 41 1 1.560737964115235 -2.31510796062414 10.27561414915785 18.19252954131423 -2 -1 0
529 59 2 -1.012205093998853 6.23481371755987 8.906178292265585 19.07987050065143 0 -1 0
21 3 1 1.889464457554639 7.92272173536152 4.995004553057209 19.11937428867183 -1 0 -4
359 40 2 -0.9409039602017828 7.496133098990429 5.495057253824069 17.648117680803765 7 -9 0
399 45 1 1.932343989917017 8.484351943449033 5.440234379085467 14.448400430649368 -6 -2 3
486 54 2 -0.9452575871628127 5.241057655890655 9.186486096198324 10.902027560684957 -3 -8 -4
248 28 2 -0.9923497282351693 5.948054685058583 7.21417986661686 16.69041996434567 -2 2 3
9 1 2 -0.9464503016407941 10.078040589583395 5.348563194891879 14.101542737275063 10 -1 8
139 16 2 -0.9590219810171645 4.767275852260235 5.277425657894357 13.072722006277624 0 -3 2
318 36 1 2.026971652656657 6.131681299463558 5.602365763272594 12.307919341592626 0 6 2
183 21 1 2.00204728568385 7.465349914059352 6.900131095351038 16.89420790423078 2 -4 8
243 27 2 -1.037118917756817 8.187283432460566 7.95438896573508 17.850802953346538 -3 -7 -10
512 57 2 -0.880314744748974 3.8247837908231848 6.338288785723213 15.620387965896343 0 -2 -5
245 28 1 1.921697595051137 9.96409782741545 8.9040805150617 11.90036688478709 -10 4 3
545 61 2 -0.9173023696398472 8.706702926696895 3.6181373608772365 18.85787551233601 2 -3 2
447 50 2 -0.977176891910428 7.403726724297991 5.641205591535344 13.253014812445892 -1 0 -2
291 33 1 1.714599036391331 4.302538508439853 2.792749034037211 16.54293157625942 0 -2 0
206 23 2 -0.836256107137764 5.581872220279637 3.5408308116165377 15.975363841590188 -4 -5 2
215 24 2 -0.9948224758652849 8.082684491591703 4.147998468968858 15.267283456581996 -3 9 5
266 30 2 -0.9452001488709839 8.204763606747566 6.63240695719912 15.470487311596562 1 6 -8
30 4 1 1.728007027185815 7.030395185045899 2.9618389250526658 15.361481274467183 1 -4 3
24 3 2 -0.9300026430721253 8.476882941403582 9.289877364117503 12.405008699315042 9 0 2
133 15 2 -0.9407590311232366 4.636555099484719 8.786742250939572 15.064051329804146 3 0 1
388 44 1 1.924186425101259 4.470598216063904 7.663250740510688 16.263066090136746 2 6 -3
8 1 2 -0.9560909179638873 10.210695764641558 7.627037766928896 10.974872478080568 -5 -1 -4
88 10 2 -1.015665556543215 6.37523407236502 4.41787038009341 11.22177472685636 3 -3 -4
44 5 2 -0.9280347275277939 6.802306752788105 10.236722776616915 14.316777286748371 1 3 -3
367 41 2 -1.069198592182897 6.168971625005774 6.864665149108984 11.36680738468677 0 -4 1
406 46 1 1.890834066170411 3.666204024040347 9.604052330962265 11.021509969005958 6 2 7
254 29 1 1.917631310183848 7.812564008552199 9.12149732945591 18.833823946614636 3 -6 2
457 51 2 -1.011806279158396 3.4593408358377786 8.14851772910263 17.38031968722705 2 -1 -5
343 39 1 1.605681898105673 8.999604128694516 2.407382709152185 17.852776177430663 -3 -2 -1
415 47 1 1.886634573912204 5.335199132652798 10.234815149052206 15.039629084722918 -1 1 -4
329 37 2 -0.881187108367636 4.690577253148348 2.4600874491833165 18.14840652472551 2 -3 3
358 40 2 -0.991913358001555 15.392559620945669 4.040152836406252 17.562661175802255 4 3 -8
222 25 2 -0.9284394278450303 13.248304352550111 8.291118638723736 13.533318250323994 -5 2 0
475 53 2 -0.9200148221312083 13.292739617177574 7.0666944723832215 17.37265945148254 3 0 -3
528 59 2 -0.8883605532961246 14.653311391617859 6.270913930958387 12.966110688420454 4 1 -2
294 33 2 -0.9666930784307477 11.626342360228993 7.470568885281927 15.51628076669358 -10 -8 -9
82 10 1 1.946327750847813 11.910976158315236 8.568699832226386 14.375044027429484 -1 -5 -5
572 64 2 -0.9190190832838613 15.279077987375736 4.394346646316948 14.919247642482272 -7 1 -4
568 64 1 1.854571569958654 14.27663947954758 4.841448793011878 13.662284636182537 -4 3 1
556 62 2 -0.9164391085830134 12.721296304446653 5.0998945276748096 14.087949954706216 -2 8 8
469 53 1 1.915352651021717 11.339702187361535 4.619466288033266 14.721706914526598 3 6 -2
308 35 1 1.874921749035502 16.269452792286735 4.245963697970527 16.21393894280257 -2 2 -1
148 17 2 -0.9152361869650751 11.472549810738125 5.178235446657887 16.237435719195982 -1 -3 3
147 17 1 1.940917171784797 14.256821368910003 3.520325701206124 18.51756829422863 4 1 -8
181 21 1 1.874003181292929 13.736407949196288 7.405478838405308 12.253435553408364 -4 0 -4
54 6 2 -0.9380178747624655 14.078960304799388 3.8839406424576497 12.426385303234696 2 3 5
233 26 2 -0.9405893872574587 14.532728492787246 8.236172513274159 11.132205877896693 8 -1 2
259 29 2 -0.9393950025157977 12.504668226790066 6.734108844586086 11.483210844414065 0 5 -3
244 28 1 1.897376334398093 14.54506337794276 3.350237108582973 10.971291113016514 -4 4 0
519 58 2 -0.9751303358983971 11.27732935511554 3.0267573520492532 14.342243248797702 -5 1 -3
246 28 1 1.892013469895339 11.791634048034723 6.664356872020789 16.82960844248244 2 6 -2
543 61 1 1.829859306503084 15.97359604477618 8.984137665429627 11.126087521650524 0 1 -2
429 48 2 -0.8910895088141835 12.904464051663826 3.288810480964683 17.647835478093043 0 3 -2
47 6 1 1.864923612917905 13.730945299376057 7.992041812473658 18.669778913961565 -1 -2 1
548 61 2 -0.9519572679071252 13.006562455295054 9.398331471986236 18.52961342089496 8 -4 -3
394 44 2 -0.9174940666606942 16.620820487761623 9.207340457208984 12.585105190886878 2 4 2
18 2 2 -0.9155762820169574 11.888632712158817 9.856466477436229 15.361778966722298 -4 9 -4
319 36 2 -0.847369845186301 15.351603248965493 8.155692245586781 18.8389961229852 -1 -1 -2
164 19 1 1.892511366755463 11.278030134227114 6.5121700507753095 10.438025523142747 -8 7 -1
483 54 2 -0.9760324475858451 10.797369470696815 7.0736945760494985 18.002814744381105 0 0 2
89 10 2 -0.9894357675113448 10.60776471454947 10.10456132460639 11.052414841649417 4 1 -4
520 58 2 -0.8810170821604746 17.100084390647837 2.8239689786978817 15.991506428134782 7 7 -5
503 56 2 -0.9156657238913776 10.785007519703651 4.960272426636468 10.417260848056989 -7 -4 -2
177 20 2 -0.9676043546514344 10.822986160115063 8.584087434337945 13.195724044456457 -2 2 1
179 20 2 -0.9161539213841199 20.561507965150145 4.559011990104394 19.184954153637953 1 1 -6
349 39 2 -0.9354712385307751 18.036806738306403 3.9689774778975018 19.19211381339725 -6 4 5
472 53 2 -1.002943862094226 23.992952772509522 2.476615133087423 17.311929210757995 -8 3 -3
48 6 1 1.946024884176121 20.501082765014626 6.157437024045395 19.060684391022924 -2 7 0
552 62 1 2.08166686131762 23.793319918029866 2.989611837635351 15.813799285659018 -5 0 7
338 38 2 -0.8523005829727129 23.975595134707884 8.738278571926111 17.65591619883329 -2 -1 -2
505 57 1 1.95602415556425 18.85011436265334 4.900348969475431 11.92491608136917 -3 6 3
79 9 2 -0.9076890592314873 17.83499640469438 8.029037017441862 16.449379871669958 0 5 2
292 33 2 -0.9837214213411762 21.564535755817776 5.432567693020115 14.371534389559132 3 6 -3
64 8 1 1.670680716001739 23.27161283862199 7.328948226664005 19.116068447876046 5 -5 -8
142 16 2 -0.9707064688275462 23.65115466359727 4.550737895008286 15.843941867357712 -2 7 -6
204 23 2 -1.016165177713984 19.594416141936556 6.387591615217007 15.617623090129612 -2 -6 -5
316 36 1 1.746406373253077 23.593444458087284 8.62140734197333 15.995051709668978 4 -4 -1
262 30 1 2.001605848621385 21.760625748920976 4.2345149167395935 10.926877338262829 1 0 -1
160 18 2 -0.9393639171552949 23.25399443429583 7.04255529359335 15.668748647024074 -7 -1 0
96 11 2 -0.9465327054411647 18.150125250551625 6.008447063929615 10.965172983088674 9 -3 2
323 36 2 -0.9598574061067491 17.98693505944969 3.520236635174398 12.032846813862164 2 3 -3
313 35 2 -0.9731336314950112 19.038323326562328 5.479535913123528 13.422617613529207 1 -3 -3
334 38 1 1.953941963114065 20.707765190408516 8.534981162252413 12.214006634845106 -4 -2 0
229 26 2 -0.9789884367182893 22.890508006480676 5.224512816691707 11.39912583463127 -4 5 0
379 43 1 1.845440670231447 18.337024151249775 9.542933559250642 16.209597540404324 -3 -1 -1
356 40 2 -0.9993819577135796 19.271145055282926 6.406773244063704 18.084300117903915 -4 2 -6
440 49 2 -1.003516462487271 20.80607135593897 10.025561167764685 12.726166616302486 -2 -3 2
267 30 2 -1.057740815302686 21.949211044321288 2.8607848288869335 11.669066862272125 -11 2 3
81 9 2 -1.046001615794031 20.508483536847013 7.595034071686753 13.483503918539627 1 -3 3
74 9 1 2.066309654621649 18.483931319593204 6.567611895952667 16.710581674737355 -7 -6 -6
108 12 2 -0.9671627613785035 22.38164372589251 9.68564906324587 15.633891793268095 3 0 3
279 31 2 -0.929704107371349 18.014935715277016 9.957772463877443 14.6745710431955 0 4 0
97 11 2 -0.87629708655304 19.95439219918898 9.353902306416558 16.531073716821254 -4 -3 -1
37 5 1 2.06971933928319 20.19950089206855 6.2463999832274935 14.207077145171487 -1 8 -4
538 60 2 -0.9406701696305326 21.926020584260932 6.675576780645584 18.61543419049144 1 7 10
149 17 2 -1.023151570293253 19.385118944681594 8.291544338315694 11.384623935203743 -5 -3 3
346 39 2 -0.9250753003072095 17.312394335176396 5.480261695880051 16.49377481453491 0 -1 2
371 42 1 1.975049228534895 23.121654336309064 5.712334182003341 14.848714444364788 -3 -3 3
310 35 2 -1.051996286955924 20.258528922146496 4.655011127300771 11.387354487236173 -5 -2 3
51 6 2 -0.9731157275234695 22.023856382715827 8.17999367691634 11.353709022332877 -1 0 -1
280 32 1 1.912873590971909 18.468615827632657 7.475347932001245 10.313515045576585 3 -3 -4
576 64 2 -0.9282632246405141 -2.856636200323811 16.37826260590763 18.994301062631102 -2 4 -4
135 15 2 -0.9356501124747052 1.5967470241686934 13.652497117309306 17.536471619631854 4 -1 -5
138 16 1 1.833251865681377 1.8394531817811233 14.830805359771425 16.462954005008452 6 -1 -3
544 61 2 -0.5807656226857084 -1.0460014415746661 15.753924841100996 14.09075895896202 -5 0 -4
393 44 2 -0.9348633383587479 1.5043687175453897 16.308721505472786 17.107877424778632 -2 3 1
66 8 1 1.862651218020067 -0.6289786314120653 12.336183306110726 12.564237663797593 1 -1 -2
19 3 1 1.856314656676375 1.547162333325371 12.0636793600484 17.625930065595973 2 -7 -1
428 48 2 -0.9626540151918459 0.9811945726384881 14.654276672418252 15.121715598173493 6 0 -3
389 44 1 1.894629384876284 0.2350580836810141 14.994502361794765 13.711281608087788 -1 0 -6
459 51 2 -0.936808972319887 1.230184755768267 15.950143597838068 12.793308509549362 1 -1 2
153 17 2 -0.9307863474286375 -0.954280266148194 16.311269866958202 17.334781375047935 1 -2 -2
115 13 2 -0.8908319176158526 -2.4744213108269735 11.571178242511483 17.250779712763865 -1 5 -4
407 46 1 2.006301724360858 1.733978921715373 15.864398218314825 11.284117663665455 2 2 -3
105 12 2 -0.9831561549167332 -0.10446676372373132 13.845274234007249 12.718961357123478 4 -2 -5
466 52 2 -0.931705577499055 -2.071032306940558 12.39476110625468 12.020490764711031 2 -4 9
462 52 1 1.945102983455379 0.29291754842136 17.34589135065108 17.071332443148542 -11 1 -5
351 39 2 -0.9064381460048848 0.4645692171775293 11.623648670322392 16.590635965365564 -2 -7 0
573 64 2 -0.5608407313048681 0.37814294661780634 11.583829149716593 11.605446969156468 0 -4 -1
398 45 1 1.860086870868565 -2.844692092991997 13.12427674733517 17.500754792692405 1 3 1
547 61 2 -0.9352228981441848 -0.5348009228871753 11.809487712349423 14.122447134917863 1 -3 2
340 38 2 -1.019890108802508 -1.7999674521541753 17.307064294049557 11.481624116024886 1 -5 0
427 48 2 -1.003761897391533 1.930207287554289 11.194082739414522 14.273950837795166 2 1 2
263 30 1 1.841326546302583 0.5144582885446822 11.074903242050688 15.036087226180616 7 -1 -3
433 49 1 2.05693573093448 -2.9438163349267086 16.347313270044165 10.945709088307133 2 3 -3
22 3 2 -0.9909151716297618 -2.6718292013025033 14.841631085831938 11.167742519952702 -1 3 0
508 57 2 -0.9691188461531967 -1.7930530734874928 14.004208921615383 18.312327567826777 2 6 2
161 18 2 -0.9273925190874006 -3.0849905381860845 13.785941426235532 16.01190438740609 1 4 0
435 49 1 1.996669877800449 3.169636840113818 11.644117735412014 13.38495922000273 -6 -1 0
141 16 2 -0.9503976228316462 3.113901090259514 15.054400497835527 11.231320787429498 6 -7 -2
513 57 2 -0.9928104675569551 3.2145141568643085 13.12693331250831 12.846538063617508 -4 4 3
317 36 1 1.98306076871677 -3.2886848114456426 13.516339170501425 11.854325467304513 -4 -1 -1
150 17 2 -0.9882785399199755 2.138121928906666 17.301396159791405 10.829093396069963 -5 -1 -6
489 55 1 1.904611789697739 -1.528025552460276 15.55130588572981 18.6346500384062 -1 0 -2
90 10 2 -0.9831897878312159 0.005469542254827875 18.115452692142213 15.706342095400574 3 3 10
500 56 2 -0.9044051799039662 1.2726506210660826 11.534984455429012 19.13692502719801 4 -7 -4
333 37 2 -0.938423573090578 2.922004516013928 11.405590483187837 17.022034565329996 0 -5 2
454 51 2 -0.8815113185493921 3.3859161006488305 14.79981105066518 15.96286822878536 1 5 5
121 14 2 -0.9301995137419189 6.737885236835769 18.14297433850864 13.941017235658894 6 -3 -3
7 1 2 -0.9287813570658268 3.4260989254073255 10.78511692816003 11.997643128782856 -2 5 -7
114 13 2 -0.9167034930434342 9.129950225931992 18.226417879457546 12.988220040877756 3 2 3
255 29 1 1.88049643834389 9.323387330275423 11.515110702857765 17.83346780951051 7 -1 -2
562 63 2 -0.905112987360902 7.52057944682587 17.787383740394475 16.46943754247606 3 -1 -2
56 7 1 1.809814044788381 6.098421776745914 17.2285820154005 10.420390084878514 -2 -5 0
518 58 2 -0.9514615366421344 9.46444088797311 12.081730906193826 16.303443212542646 -8 -1 -1
368 41 2 -0.9650346741976359 5.436555835137684 10.85965609756844 16.49452852679022 0 -7 3
541 61 1 2.023506697161251 6.793794652744653 12.935735615176466 11.229318236736635 0 -2 1
355 40 2 -0.872165489639482 7.42991565759371 17.095980178811878 11.35294642222547 -5 -1 0
480 54 1 1.722220839632246 7.747082446848772 17.366363300894154 12.938784035388254 6 3 6
560 63 1 1.43240089944729 7.073282463092083 15.65639905769444 16.65359320516948 -1 -2 0
23 3 2 -0.9507176673340089 9.061325955292943 11.370576876068988 13.841353568641404 -5 -5 1
185 21 2 -0.8878201550345584 9.491407615271601 13.815106842227475 14.099110200617163 -6 2 -1
261 29 2 -0.9777464671370785 4.497255574033388 11.29457953704799 14.153903169139143 -3 -5 -7
253 29 1 1.902376350520801 9.83163345866612 12.369658196031317 14.769535127192821 -2 6 4
341 38 2 -1.001792289114502 7.177947083446142 11.706297344446533 12.145586479106825 1 -2 4
305 34 2 -0.9982653667265365 4.518203952269284 10.836151957522002 19.029513098803164 -1 -4 13
376 42 2 -0.9716233834090408 8.082949056874812 13.82339978471219 11.01864778284928 -7 -8 -1
434 49 1 1.77558054067915 9.117030619177958 15.300403206329278 14.583884508665609 1 -1 2
437 49 2 -0.8617746878338901 8.741494941229966 16.99265206899903 18.759397259725908 2 2 1
87 10 2 -0.86400915618927 4.24780229580553 15.346527143905806 13.529766898523846 -2 -9 0
478 54 1 1.941329992329951 7.797435695299374 10.619429364529218 13.136621085437563 5 4 3
225 25 2 -0.8587388225205403 4.744461120737938 13.076211872134198 17.885689883194615 -1 -5 3
193 22 2 -0.9802283407555772 8.112747644061466 10.55207345274247 18.191219352747325 0 -3 3
99 11 2 -0.8630443626411508 9.354036109368236 12.914501347445128 18.712780785680906 3 -3 -1
129 15 1 1.84732615152104 4.4442619397750605 11.4747009158128 17.58813183901696 -2 -2 4
134 15 2 -0.8987417409072455 5.85303363355291 15.357855470048897 15.69960089901609 -1 -5 5
219 25 1 1.770068508358583 4.405368790300383 15.774863099795393 15.144978044940402 1 2 1
113 13 2 -0.9842372320315519 5.54718627790769 13.735681088144297 11.864342179170542 1 -5 1
207 23 2 -0.9636454851039057 4.707733176730418 17.504223456557238 11.196655392476364 -1 0 5
293 33 2 -0.8158025961443589 8.586968257426472 15.208231857627379 16.07089605825592 -2 2 -2
361 41 1 1.928265984374382 4.117990104825048 14.2870668986121 12.253306605384946 -3 -7 2
205 23 2 -0.8849440478553848 4.558709363484059 15.713362349296972 18.700669099740978 -1 7 1
571 64 2 -0.9153498073046877 8.01121616828823 15.933714925461413 13.56745223468576 -2 -2 -1
247 28 2 -0.7950130707976559 7.080099680080323 14.828958869558498 18.000505423784567 4 -7 3
326 37 1 1.555896454568969 5.316310104955203 14.255253614486524 18.82041517478413 1 -1 0
42 5 2 -0.9137298163798946 4.17735736316674 17.323384959590395 15.653922811193283 -1 -2 4
258 29 2 -0.9445350721356074 10.271191156593797 16.438530868959337 14.524721793453763 -6 3 -1
17 2 2 -0.9186482945627875 15.734374098442565 10.376790469813283 10.403667406935067 1 -1 4
378 42 2 -0.8979005559119086 10.369475213592409 15.034180006066894 11.060587933653347 0 -6 2
445 50 2 -0.9122002888657452 10.445429756421584 18.229110032810876 17.183485277198958 2 3 1
217 25 1 1.926046380206626 14.01749185599111 14.862291320189406 13.369723985811488 0 -2 -1
184 21 2 -1.041556164032317 14.406322963136752 13.4041281411155 13.893816729089233 -1 5 -5
218 25 1 1.917405951304634 13.97065225957213 15.923019179356587 16.165703680075282 3 4 2
209 24 1 1.935604961972398 14.739616298711177 11.928959521838777 13.6101354420529 0 -2 -4
130 15 2 -0.9396043228145604 12.626531365351784 16.602954295797364 16.87546632450361 -2 1 -7
125 14 2 -0.9402527087767697 15.400919031223452 15.426006067314653 12.67687577441808 3 1 -2
143 16 2 -0.9367331454346164 12.78249870346329 14.72186653209458 12.384581287969812 -8 0 -5
223 25 2 -0.9880879373602528 13.61813920463226 15.698469915894865 14.647163356509429 1 -1 -3
339 38 2 -1.005628099859247 15.252723544602041 16.9294380272998 16.200209462928534 5 -8 1
502 56 2 -0.9148350643743448 11.482259859646229 17.0120089633277 12.474815821240181 0 2 1
537 60 2 -1.012509484018431 14.17740735909587 14.62528333205125 17.03445713159242 5 1 3
467 52 2 -0.8456425468540107 15.35248042083801 12.208871210706661 17.43161973548451 9 -1 12
362 41 1 1.65579585083583 14.179825813112533 13.287563955866197 17.869373771242067 -4 1 5
20 3 1 1.546213647515815 12.560976866320136 11.283334621868494 15.50547631649935 4 0 -4
52 6 2 -0.8720323352598862 13.959301664984647 11.081563286823382 14.807151551222464 4 -8 -1
504 56 2 -0.7800002553934828 12.661565090904894 12.149019703572442 17.351527005316 -9 -5 -7
128 15 1 1.878489328685029 11.743129419533416 15.698530496159407 11.586054354981544 -5 1 7
240 27 2 -1.022944855766903 14.317539569887494 11.448338684493002 12.132857135808328 0 -3 0
286 32 2 -0.8539071575958226 11.473993339583387 12.157442265249212 14.679737787608959 -1 -3 1
172 20 1 1.865286326963727 10.574326748220406 17.715448128105248 13.636406368539967 -2 2 -3
62 7 2 -0.9630821578086137 16.26326976632124 11.531741439146884 13.79519881559708 2 2 3
514 58 1 1.929299834496164 16.81067150682244 17.213553362837047 16.534565265455797 -1 -4 0
109 13 1 1.837684632662594 16.99396048878331 12.111879003436428 17.3906688904113 -1 -7 6
298 34 1 1.68267800264509 12.119408411897819 10.716874101413072 18.65565842533821 3 2 -2
444 50 1 1.850070192864397 11.919162204128467 17.813337535775272 17.590867584757184 2 -8 -2
127 15 1 1.912683950419613 14.606868695741401 11.53275949644594 10.579138266321003 1 9 3
458 51 2 -0.9697185577885681 16.92828656593565 17.21588953828774 18.109650758072547 -7 2 -6
241 27 2 -0.9815917481249365 14.630769157617522 17.96861694821443 19.10161163651999 -3 -8 0
452 51 1 1.844688766123054 17.005793544245858 15.229042336923879 12.65769346303425 5 -2 2
117 13 2 -0.9411808820720338 15.628008783936654 18.16375773763611 11.422997037756804 9 2 -2
31 4 2 -0.9584744029110185 11.731074020632038 17.418175003034218 19.170155606364034 0 1 4
68 8 2 -0.9861216610214314 10.560258612694053 10.649844109585121 18.341868826184253 -3 -10 -5
15 2 2 -1.014268628488887 22.48358714843142 18.198582882917513 15.230334015545122 -6 -1 4
511 57 2 -0.9245226266762223 19.940093141178995 18.100942498369424 18.12294690340361 -2 -5 -3
194 22 2 -0.9769497112450443 23.860273581648336 13.841379988270408 13.374144615556734 -3 5 -8
272 31 1 1.781131547502845 17.37097587438919 10.504741363675269 13.278032790375306 -4 0 0
25 3 2 -0.9233616039213629 17.21488555929511 12.408891847703988 18.99278413792041 4 3 -3
534 60 1 1.956353125161801 20.741213877493312 16.79774689123684 17.78461085359224 -4 -12 -7
353 40 1 2.020314747916945 21.792605625107527 17.215851142175342 11.920620785960125 -5 -3 -2
174 20 1 1.865705743178008 17.247775908139975 18.038252952434114 11.66754393732848 0 2 0
213 24 2 -0.9867089645607136 21.723251554432526 11.074411406854992 17.814764546898836 -1 -6 2
28 4 1 2.059602702698409 20.508083154774802 12.901675875618142 14.988847141469362 4 3 -3
325 37 1 1.998985924966776 22.09239409040969 12.222165203927602 18.829965270563207 -4 8 1
32 4 2 -0.9563371267560949 20.791413163218074 16.83867260873704 10.699836980921036 -10 -1 2
78 9 2 -0.8993397209796696 20.69544957927491 11.7834146425005 11.009118670251537 0 -7 -1
39 5 1 1.913502115375458 21.215786756408402 10.373272498105951 16.400429171243132 -4 -1 5
251 28 2 -0.9993549185357028 22.93812416637273 15.663363585865184 14.967382977131255 8 -3 3
276 31 2 -1.087005220100262 20.415622443722523 11.524760931409745 15.675103440803825 -4 -1 9
546 61 2 -0.9797628730877972 17.692839156029848 16.032459757999185 15.960164657580114 -1 -2 1
1 1 1 1.986840083724523 17.97410382437136 14.501514930633295 15.507422996455183 -8 -7 1
567 63 2 -0.9947648339799527 22.226198737139153 17.003140709533884 18.377567609250825 -8 -1 -4
297 33 2 -0.8973645434570474 17.594425420226575 10.587914271245047 17.198534660867182 1 -7 1
85 10 2 -0.9203607356961343 19.858508221035827 15.688306610128297 18.504290751364216 -3 3 2
551 62 1 1.959920918071777 23.65164099610232 17.654914359933535 18.702830036199288 1 0 1
522 58 2 -1.043717175313905 23.21606550824876 16.512824517570046 11.713747327175552 0 3 -2
270 30 2 -1.016558966956537 23.308927376550137 13.10044662876307 18.276266865267914 -4 0 4
312 35 2 -0.8790619865433351 17.62702188183098 16.727369127768647 12.55612489899756 5 5 10
383 43 2 -0.9017396404184306 20.833160818169144 16.55924957637775 16.180334865132945 -3 -7 -6
10 2 1 1.951942406701239 21.8245542804163 16.79147459380585 14.883466111725822 1 0 3
119 14 1 1.949869876396177 22.166259909206936 11.837562298979737 10.355875115404563 4 4 0
178 20 2 -0.9856207733201057 17.355783476387384 14.492928688689798 14.034552742306222 0 12 -7
102 12 1 1.987901383386249 23.365695556794066 14.133411553355291 14.892570034141897 -1 1 -4
283 32 2 -0.9687098429667119 20.342419608928875 12.636412199219386 13.411190986546774 -4 3 2
535 60 2 -1.013526673317709 23.053718095245994 12.974706171550867 10.99889414321653 3 7 -1
510 57 2 -1.013052325708582 19.5114143046422 13.988989409789458 15.412143633261563 -5 -2 -2
234 26 2 -1.014104807790725 17.426441599812794 13.35247324117946 16.442978928383717 2 -4 3
395 44 2 -0.9729893898875176 21.261143019202326 16.881120155455214 13.374484199447647 0 3 -1
515 58 1 1.827753053914237 20.058156922821937 11.39088992760814 12.427046779586542 2 -4 7
450 50 2 -0.9160886319624097 17.281508903060562 14.375855914379127 11.26207182921918 -4 5 5
565 63 2 -0.8982982232649793 18.42021258356123 11.240560630578837 12.277868038191418 1 -4 -2
430 48 2 -0.9978116833840752 20.907212236436276 13.228443595858742 18.970278968413247 -3 1 4
63 7 2 -1.019740424502317 22.013372817771085 13.392700922869427 15.27195700857326 -4 -3 4
566 63 2 -0.9546185370249726 22.87840674030185 10.455791416902848 10.672766106241077 1 0 0

Velocities

366 0.0034716512828276915 -0.0023075246957219983 -0.0023032056268454857
470 -0.0015866486094706935 -0.0038794356590455678 -0.005339704020340343
315 5.6447101998695436e-05 0.0006133360216029646 0.0029036282716827233
290 -0.0061651219850817045 0.0008619105351802505 -0.0007441538824802581
474 -0.001448145328178144 -0.0001458086122335092 -0.003571493076456157
175 0.0012716834084043336 0.0024015552349716525 0.002195543425756572
377 0.00521114608688246 0.004329985170654811 0.00040607849580688826
75 -0.0016055243681892828 0.000362356174239375 0.0024344668572682817
402 -0.003793865974628031 -0.003558701119256555 0.0028931756349371233
488 0.0015530052614788228 -0.002773657409881264 0.0010367523272739518
360 0.008789842635171925 -0.00911022894611728 0.0022023936909469047
220 -0.0041136643293240415 -0.0012047391453314977 -0.004323922488111761
408 -0.0027190961435542764 0.0009667584654600727 0.0003712931085587187
46 0.0006464874987017171 0.002148386917893554 -0.001234592997551066
124 0.004330655878098328 0.004037449043873231 -0.005015060576258951
210 0.0027797498062235465 -0.002598062549263916 -0.0023730870731047166
38 0.003025241446686859 -0.00030827112271737385 0.00067871300618078
314 -0.0005054327550454698 0.0002043134872479709 -0.004656577943172881
419 0.003992688559210888 -0.0030340684549335327 -0.003652122046429196
306 -0.00043121069726162546 0.004197067239185921 0.005356162799729423
401 0.003675569275997549 -0.0007671347175393844 4.833299502012715e-06
118 0.0019264339040517924 0.0021256704403930246 0.0014416097399723338
201 0.0010565144821207595 0.002916473001973153 0.0032656482142794777
364 -0.004659991560999718 0.0028399183198759225 -0.003929745306569453
231 0.0020192204801522374 -0.005126226594533531 0.0025779050881425884
60 0.009521654700316164 -0.0034401801817321638 0.007823444156773014
352 -0.0032421348533237314 0.00015001696816984233 0.003994249450698715
168 0.0014378390749072282 0.0025116012100746972 0.0021202999889482774
536 -0.008155350380829849 -0.00253598359067162 0.0020709206411054447
123 -0.004028754754986339 0.0024906145905583058 0.003955009870050336
380 0.0003297747860744263 -0.008901206674369711 0.0043010106779820785
300 0.00014636852288881142 0.0011075627606781891 -0.0007163586707346034
432 -0.001193509128257256 0.007373896096190959 0.0063455930909929615
484 -0.002264087340328078 0.005007972819617106 -0.004128525089417652
249 -0.008587805083047148 0.0026167451160078576 -0.00047098795052751577
404 0.0031911317382359683 -0.003843679164461489 0.004360320555034891
330 -0.003375703139127128 -0.004808960067681932 -0.0019790043191221488
199 -0.007057929076806936 -0.0014083886583466363 -0.0019758809583431927
392 0.0036060761333490186 0.0024642064003204873 0.002866417312312947
40 -0.0013937366601716442 -0.004165055435289588 0.00790254345442025
550 0.003925531359776324 -0.0010874124028981177 -0.00010079768685134964
311 -0.00039759714203850365 -0.0029304715241605587 -0.00370400589738693
173 -0.004837794371120603 0.0008508007748772263 0.00027083112262392054
228 0.002884704740165298 0.004115049948531702 0.0006792234975323017
464 0.0028224111944399875 0.0013699180874886514 -0.001477679847652971
553 -0.0017566092255904158 0.0020933780330579512 0.005468091782952427
289 0.003398694855474278 0.003154109759749037 -0.0044675699332485915
57 0.001546774613362589 0.007404411613334826 -0.0009058915872091364
558 0.00238175280061201 -9.022288466954612e-05 -0.001254500065036836
131 -0.006713332676860038 -0.0016771397078149352 -0.001683438367400932
498 -0.0025359708304257427 9.127233464922552e-05 0.003029353854483723
111 -0.001350725665542303 0.0010500709572094705 -6.367746379258818e-05
324 -0.00010630990445302182 0.0012896812883135052 0.0015742025939778058
381 0.005983915768905286 -0.0029069580261912613 -0.0013130967529680964
422 0.0030467364569013713 0.005026817767755899 -0.005130160286475264
273 -0.0016989119840949056 -0.003584761938807294 0.003542339804127388
476 0.0011024405005480836 0.004651566771401245 -0.0041773914472488195
411 -0.00015203253065339527 -0.004148916467923466 0.0026096277880009937
180 -0.0062524799147954686 -0.004493910547921283 -0.002573512156686078
107 -0.002123517011375814 0.003870517707971537 0.0008651949221399146
278 -0.003617827075454527 -0.009563642311050103 -0.00178053551427139
239 -0.004710108272205756 -0.0029210636881840265 -0.004614628921085031
227 0.0033612630372918456 -0.0014909794684570576 -0.0010423634349709565
493 0.0002529749226740973 0.0002834832345098335 -0.0034446253322301923
256 0.0026574621810752626 0.006385375495806863 -0.0023511187687537704
373 -0.002620347733969031 -0.0012239515119200537 -0.00489397605265307
35 0.003017701106792003 0.0018872952036780514 -0.003470255193821894
236 0.003818002106025017 0.006118338509481036 0.0008377534420325593
501 0.0039107363420066606 0.0010566745144658038 -0.0034588281080002634
420 -0.008112635387364078 0.001012512197801521 -0.002536684842099261
27 4.980416511064556e-05 0.004522388539595908 0.0069748010338291045
13 -0.0027622273231947877 0.001366600836464303 0.0004107112803198582
186 -0.003804866892749138 -0.001353331828913716 0.008268357606626565
163 -0.0027056076467835114 0.001741675248590327 -0.0007852652852907857
439 -0.0015670694362020063 0.004278255654335159 0.0014992446527062916
559 -0.0018523028592364746 -0.003788253940433843 -0.00039521741606713003
497 -0.0010225600423641376 0.0014916249563301518 0.0011091938841776472
570 0.0031617120005053116 0.002017165823124887 -0.0019779005944749258
91 0.0016013018487025848 0.0020093398239618455 0.005189045832310212
162 -0.00026061982948335675 -0.005478590135588932 0.006455093407767022
370 -0.00021386334476433875 -0.0011596489293279617 0.001234485042301993
170 -0.0018242979689210472 0.003219447241744612 0.002777910521551321
296 0.0037883526795184307 -0.0013121392160670804 -0.00017323658035541523
405 -0.0005147717979613782 0.001996672532310898 -0.0018904868928481778
136 0.0004716951960253641 0.0008728776345543048 -0.0024385249232684045
357 0.0008878169371602573 -0.006319995863388232 0.0011011963846431824
295 0.006699927859250052 0.0010437556168353304 -0.0025111510973317456
45 -0.006671916303945911 -0.002186839335292941 -0.0015951727096218684
479 -0.0007125569972613109 0.001329925136025541 0.0020164262269101083
171 0.005684819359379628 0.002567565403175172 -0.0009013120398505704
382 0.0029106318066488184 -0.0020624108088502366 0.006952651810619134
112 0.008027242685391345 -0.0011177390240373606 -0.004005015429493812
59 -0.002439506809631651 0.008073278405096274 -0.004353223442317484
487 -0.0015168340421857695 0.0029041677156058494 -0.003664697064708341
104 0.0013173123444493735 -0.0019300383695757342 -0.0006289808685934563
320 0.006612798640115162 0.001849431165057143 0.0036993816069216074
43 -0.00393842581908752 0.0054247157082989855 -0.0006913814914931387
55 0.0031995500495047013 0.001534940297918774 -0.002308625740326077
155 0.0014081714221003507 0.00480353748399561 -0.0010021172620604132
284 0.0026068990956959787 -0.0017811134453271232 -0.006834999926289062
49 -0.00028582989203783556 0.0058267807449141965 -0.006269384948806982
5 0.004274035530828392 -0.000856198295898252 -0.0018120858476903534
446 0.0038826290647535275 0.0006703943806411889 0.004099044438576049
468 0.008087253573997559 -0.0003096275293254407 -0.0037573676063621005
84 0.0017814400402212094 0.0037932195375682317 0.002420705393414823
418 -0.00794199819955246 -0.0036472228248117466 -0.005343960871835974
492 0.003779506639607526 0.006541965658471838 0.0071442719605163876
549 0.004961000661090661 0.004596579414121744 0.00560645905638583
232 0.0021264860986683403 0.004273814625087527 -0.003041478852535782
216 0.00020687664877712083 0.007120466711460004 -0.006908443569468843
539 0.003592081508030216 0.0017367318165138893 0.004113595342016823
257 0.006184129519799219 -0.0017052847759551348 0.0014099246380544425
198 0.0035068869110412735 -0.0008439783526014364 -0.009906593111362287
126 -0.00036724240685761123 -0.0003506319540214545 0.00415348331183651
342 -0.0049225477780438795 -0.004749583307485277 0.0073261203619040425
302 -0.005477605556950462 0.00221730921141731 0.004351203775072918
268 -0.0012457264303888963 -0.001741321106704357 0.007314250319400932
417 0.00046684574327787395 0.0017531956119539278 -0.0024859457841316652
374 -0.0004240929641576074 -0.0001240348787347679 -0.00654247951934517
4 0.0005372449989642384 0.004458822034515773 -5.141618292483854e-05
36 -0.00350208198440996 -0.000455310845123728 -0.0015492500702730635
237 -0.0009000430572325514 -0.004894985441302251 -0.0015827633298749263
137 -0.0030068938615932213 0.0022168039200654906 -0.0012865498526013327
120 0.003699810185967874 0.004424118137538565 -0.0032963878920570875
509 -0.0014606685469017492 0.001996001367767403 0.004825584725956303
214 0.007820438636295366 0.011704813910012532 0.00639621309605576
331 -0.007286155535112581 0.004870738151100476 -0.0003566227296524326
260 -0.0030159103375913443 0.0037757019322486062 -0.0051562764101135755
61 -0.002016174471800858 -0.003324885947297906 -0.002142591703096858
530 -0.003260418248528485 -0.0046179793599082 0.001165767218313738
158 0.003130182613450556 -0.0014941451113429192 0.0017454916638946743
436 0.0016333850213384646 -0.005188970583435547 -0.002394647744170399
574 0.0017790513726165856 8.957198154803507e-05 0.0011115899648896429
159 -0.0014837150616536562 0.0013593357938632348 0.0019196324177794411
354 0.0018625838132077348 -0.0029030596533963352 0.0011231619020900144
425 -0.006080319746942605 0.002251406510667874 -5.3073831871879376e-05
110 0.0013753999695494108 0.0018548335165690976 0.002076577745143374
542 -0.0023153722205862958 -0.003944889168613316 0.005067625335182959
16 0.003648303118148579 8.436962368225275e-06 0.0028583246108420967
242 -5.507275243765649e-05 0.0028154979192008462 0.00033327707255963315
332 -0.0033435334217030922 0.0031258376211521013 -0.006584606586282123
146 -0.0011688493167340908 3.584343829849497e-05 0.001008680725292604
531 0.0018106106967565251 -0.0030590175125084 -0.0032484424004744585
507 -0.0017542400481520152 -0.0002608525770696727 0.004770290738896597
424 -0.0006082110652480059 -0.006569936835453275 -0.0008255679817302701
391 0.0005290964312594955 -0.007311742269185532 0.004020135402837648
274 -0.001970264549970356 -0.005871201489907836 0.0029575269376819423
156 0.00371975118596004 0.0008900012337619819 0.0006529668453325844
575 -0.004409185869703688 -0.0019678777058991987 0.003114539325164392
299 0.0007026358473695912 0.003075916830879601 0.0014561929556486971
554 -0.00012328841132569002 -0.00023187093978727365 0.0013979291626118333
3 -0.0013061033153063753 -0.004121183529138548 0.003168194220054356
250 0.005156352833684286 -0.006615111080793475 0.0066066642592885454
29 -0.002137661954997972 -7.762353884165722e-05 -0.0016966269673170558
53 -0.0023857823564619736 -0.002401954312768642 -0.005668657452223468
307 0.0006357921010419202 0.001560727683012817 -0.005030192763597691
140 -0.008582459731125092 0.0006780859877445292 -0.0006860135847821777
144 0.0014688861862195094 0.0038793838185624627 0.0032429796879436027
386 0.001189222046405096 -0.0021173938068028172 -0.00228503432435433
190 0.00022470444928820253 0.0013898202652026606 0.002375180851403219
350 -0.005581631578029905 0.004069860776013704 0.0054056039669311984
208 -0.00022457407421856194 0.0020300376350796214 0.00019142903393315434
211 -0.0016994509658972681 0.0034339372371708678 0.0006626213775536708
94 0.0008451801358921404 -0.005818976169359078 0.00016017331546009235
70 0.0011865229565082402 0.0014468336743038376 -0.00559891200586156
442 0.0037997240746150246 -0.00044769529803057615 0.00010804875557651418
189 0.0059505471519813715 0.004271149213947672 -0.00016528834646930955
221 -0.005644944188902237 0.002424873983828246 -0.0030485816572039573
224 -4.203866301141254e-06 -0.00030531063142651143 0.001454758223673458
86 0.002792001075768094 0.0009795889151388859 -0.001310967483965251
116 -0.0020530078919486655 -0.003461894965034505 0.008354402663885175
196 0.005102915769335289 0.0017576851976823624 -0.0010804815288372948
212 0.00696740663570977 0.0011326740471199477 -0.0018230170508956554
481 -0.0012755725601984798 -0.006965053733196844 -0.00014858412135623176
344 0.0011812965346199896 -0.0038307116883676126 -0.004899182759257732
523 0.0008916594198796384 -0.002765782286970404 0.0007042024930174885
517 -0.0032711131358555204 0.002126777714151611 -0.004504933984099466
448 0.0039196966845479 -0.0011030357428213973 0.003803123028182501
106 0.0008373549590771904 0.004958626096168691 -0.0010029157314726304
176 -0.008742273319441224 -0.002423063660798538 -0.0001609122751509717
226 0.009300802197783533 -0.0011593544268180564 0.002151097049789725
414 0.0009837445769486492 0.001320148880427117 7.583302885703398e-05
277 -0.004828391348519431 0.0061911754391521575 -0.003476180903392269
65 -0.002233898065690902 0.0008647129883797889 -0.0009291426846079424
413 -0.0009187164845683893 0.009828417470261102 0.0023810172085891737
526 0.0008604705466620613 -0.007763702929865104 0.00377713800439204
73 -0.0016632859039311405 -0.003351393607515699 0.003444928678585726
252 -0.00366685273705704 -0.00456026415804785 -0.004505904140697003
166 0.004969874993588478 -0.003450681630930008 0.0005492293704201922
337 0.002184116223772327 0.00239186213891701 -0.0021823481870390134
34 0.0037105278706193743 0.0034019996602215035 -0.002343501260420686
540 0.0018176094023460456 -0.001964075862395414 0.0013568178115023017
71 -0.001855725167285436 0.0032312605195767546 0.0024158548613455555
496 -0.0014641134892288022 -0.0024828540066857735 -0.0004195646760422094
499 -0.002212700563648105 -0.0009193907270567913 -0.0001332801697401141
365 -0.004141308320020566 -0.005434620340683739 0.0014417671082346273
453 0.003375533870268139 0.0051527726139017705 -0.002313465918902345
431 -0.0015178053954680545 -0.0038169100655520882 -0.000998644501231956
449 0.0022577657518416763 -0.006990215775416599 0.0014956252909404527
438 -0.005552643799256248 -0.0010228096494236615 0.0051449771576130374
14 -0.003332840712725702 0.002132539090668199 0.0044067627136997
335 -0.0005127663929039381 -0.00041051338301674814 0.0011043703321622117
506 -0.0005974591639809151 -0.0023818735559960635 0.004995710005193665
336 -0.0031257950775312633 0.0009804574870458016 0.000989697344772189
421 -0.0007030280301038481 -0.0005951656869656798 -0.002864365047150511
26 -0.002276402857948541 0.0026418939041140104 0.00488070165137165
410 -0.00043279186909766853 -0.0032190655021818505 0.0008282440439019073
460 0.00511388438401361 -0.003149789916212863 0.0008496700256619226
11 -0.0034873523517065315 0.0013859321900039014 -0.0017228635806836878
348 -0.0020971902419743807 -0.0019235989968846756 -0.00287844413317542
154 0.00431460300665591 -0.002301384715611346 0.0022119649518134122
491 -0.007480716519285974 -0.00011918353822778836 0.0032809230212916094
416 5.142795999188188e-05 0.0004765229541623598 0.005597329866293371
477 -0.003434960150318556 0.0028213749867344604 -0.0008378762987538661
72 0.0007789905857026899 -0.006000524362648039 -0.002301374083792326
191 -0.0001789558017527603 -0.001461663229315626 0.0013115726641028263
304 0.004610514199715724 0.005690503687773205 -0.006858962333829956
67 0.0009746481267557092 0.00038046177678610415 -0.001383351329723759
384 -0.007037231502385075 0.0029432710473089505 0.004250147456810636
533 0.0009542181250557975 0.002105208424946378 -0.0038850464275341566
238 -0.005982307708712534 0.0017659078582391676 0.00011770842497950302
12 0.00042005678654718863 0.001758807603652016 0.0003802550215793574
58 -0.002712316902535139 0.0007478588437636013 -0.004513064555549139
235 0.002388537288604807 -0.0001585964475630794 -0.0018105614726043324
451 0.0026430386237541502 0.004267372337626908 0.004426016725184716
423 0.0037164002262312867 -0.001713076101575673 -0.004232058094609355
412 -0.0017201678964121735 -0.0010787160293682628 -0.007923370632434723
200 -0.00013069979975497895 -0.004824697925733422 0.0015139195601866764
167 -0.0062335452699727656 0.0038793082137458437 0.0022688380165150138
327 0.0022207899998157627 0.0035899729157758717 0.0023176200318502714
372 -0.0036063549058914283 0.00029713682267357015 0.00017952398797429757
387 0.004081041831533002 -0.003224292139995085 0.002436143118119125
80 0.0037597891153137797 -0.0029084735864848728 -0.00472863059381752
441 7.894339315481165e-05 0.00015616486310195005 -0.0045289727088179965
103 -0.0022753055183428322 0.0020924815024152875 0.0013582907280785097
303 0.002970698494546503 0.004372404187787313 0.0015622178278923424
2 0.001039657468547663 -0.00446963748641625 0.0006332181712118555
456 0.0005165670744190301 0.003026508707752611 0.0038776703368397845
532 -0.004034030423128924 0.0042721814732814 -0.0007719898531766648
426 -0.0011147995366579434 -0.0059861850192303705 -0.001869918094816482
403 -0.0003876195075075253 -0.006459141728674211 0.004846146505859291
527 0.0009483099641321798 0.0007196338230590877 0.0026645727307031335
157 -0.002483947952786952 -0.0004790593130206143 0.0007117632352940689
473 0.0018581800530396713 -0.001851319171825715 -0.006116742236536699
561 -0.003669168797417695 0.001440537337082665 -0.0007754466533697471
400 0.00038523295953101026 0.005257604034556836 0.0032626816217161863
471 -0.005264245795974114 0.003276963243447863 -0.005212331903663419
6 0.002561744329958314 -0.00037803436887488644 -0.0017029974367123075
482 0.002153005553153729 0.0015885539628676542 0.0015846307145688603
188 -0.0006032344391241819 -0.0016599913641457023 -0.009117188905355907
265 0.0029188439971761446 -0.002506027909904861 0.0010190626127075813
555 0.001524434974713017 -0.00328783203586565 0.005026923198691711
76 -0.0022292058975922437 0.0032171560431346856 0.0043789884423496165
197 -0.00017884106606707402 -0.004291389603872828 -0.002572218508251466
169 0.0008878618217566625 6.356337082812719e-05 -0.002164869569905894
465 0.0013512764665870218 -0.002439731006261507 -0.005070616987479487
282 0.0027944559286648706 -0.005128488701235199 -0.0005823564242778162
390 0.0062663955029017525 -0.0019698104262452516 0.0023740782274959903
495 -0.0023273055314921628 -0.007757617028199594 -0.0009436245333485552
182 0.0021307956011704654 0.0034822283082267466 -0.0008184469654294685
275 -0.0041436174175071335 0.006065192373361745 0.0006486079830004733
301 -0.0011801223046170723 0.0066323625097980225 0.005473257996905174
485 0.006510209736981143 0.0040606375421341455 0.0018723375829155244
165 0.0038040902253099725 -0.002541768333170761 0.003728976123162004
122 0.005232978093094617 0.004641482192689976 -0.0030101691371691172
192 -0.0002066317697996471 0.002607341413238939 -0.001729931160231815
93 -0.00019543755975707532 -0.004271760493112446 -0.003210000404560299
443 0.002035177026140638 0.0028220485922073883 -0.00039258313564486655
203 -0.002461384429804443 -0.003709285172006413 0.0007132045736044302
557 0.0022205619301116173 -0.0028291207709053154 0.00042777782629408584
271 -0.00764517881947767 -0.0015092299659427953 -0.000836470671520803
77 0.005941692689157185 -0.0008197650344936031 -0.0017814663287570604
132 0.0006924812616774375 0.004793583216298038 -0.00025737408210337726
490 -0.0030181272712230555 0.008602935149846417 -0.004435469487253208
33 -0.002109807603687543 -0.001346647773060202 -0.0003286994692655996
461 -0.0003401385296046548 0.0032389270207947777 -0.0020041441253673864
92 -0.0016291349707760455 -0.0012162987197512644 -0.004576944855823456
347 0.006322450259464679 -0.008065954036218534 -0.0055254867402066985
69 -0.005241944839894331 -0.0030970563578108907 -0.0038368731235926268
494 0.003086571694066156 -0.0017058784919779051 -0.004937354245744628
564 0.0019095962938485962 0.003891837071813457 -0.002802562462701161
525 -0.0025501398748451944 -0.003690897409552502 0.0015311095590417175
385 0.00415221454765518 -0.0009915674765159253 0.003348855533271674
50 0.003778665142046235 0.007217982383325239 0.002347912614194422
269 0.004119086361748228 -0.004213791273670439 -0.006164671050442958
95 0.0004346214402249042 -0.0007620172669358944 0.0006226057265331435
287 0.007499837000905427 -0.001950635697264036 0.0036550441750792064
345 0.003028111316522047 0.0006894063525074949 -0.0017790602075783482
83 -0.0004224136466303368 -0.0003210613741382839 -0.005266469225837616
101 0.0016692350642773387 -0.002035866453597659 0.0014663273538622482
288 -0.003666060859364429 -0.000890963467658389 -0.0005784140484506274
195 -0.0015953664147459743 -0.00024263481694941888 0.00042036543392735517
230 -0.006215005777407074 0.0006449407486229584 0.0011051715225069301
397 0.0002960197102511572 -0.0027508418334623056 0.0032951046812918472
285 0.009736453140528074 0.0038422618803825304 0.000618100361163192
321 0.0043244710918239745 0.0018179267247298298 0.006610114932811863
152 0.0028793714069326 0.0033556460934455958 -0.0033411669781989693
563 -0.0003444877015067326 0.0026932307323468785 -0.005631574958614509
569 0.0019388739512530828 0.0020949604975588933 -0.0017963820079537833
328 0.00328140883384693 0.0024991914328121 0.00047640642312805643
41 0.0008124759464836347 0.0021465705008824666 -0.005529681149483524
264 0.002121925511552074 -0.00012818956017100544 0.0015624178312524314
524 0.0004683819169038686 0.0038431202290363344 -0.0037018222781879198
281 -0.006182695628380914 0.0023210997357374285 0.004002086442887799
369 -0.010262830284095796 0.004297250111836251 -0.003908861935171055
98 -0.0017066029489888382 0.0025676423198521046 0.0010912197027890581
409 -0.0005343794999792833 -0.0014360310554476993 0.002830409196998138
322 0.0013521296975657021 0.0034698133569008964 -0.004119035466020581
521 0.0059935676055980795 0.0031871692906080577 -0.0030190597304923634
100 -0.0016639101231124254 -0.0057349170271329426 -0.00025281651063128205
516 0.002262407592947227 0.002325243086311622 0.0015567509404560923
151 -0.003267662633194652 0.0032899178264783483 0.0010216059603535825
375 0.0002628995555728265 0.005041093094458822 0.0005542616628512615
145 0.0007676898927786425 0.00018357889055129728 -0.003183973095766125
455 0.003898024929275562 -0.00269535478114815 0.004501230831335511
463 0.005898511048261151 0.0029075115489335312 0.0028782747740527708
187 0.0005031876685021003 0.004478718796801709 -0.0034128897519432725
202 -0.0019564853355603738 -0.0037550446783406093 0.0007680669412993271
309 0.0024118666312850268 -0.0029969408565643472 0.009473446232599455
396 0.0034772637947393485 -0.006390640073229246 -0.001912504211084613
363 0.00029663139042596516 -0.0014758191228702148 -0.0029545834007069743
529 -0.00297042626922961 -0.0015172356159622992 -0.0016778316962682638
21 0.002088021593431632 -0.0029425965001873464 0.0042884267475741195
359 -0.0009858410400396817 -0.005124185691139467 -0.004368769080014386
399 0.005531245319732194 2.6448320761538815e-05 0.001135647446660759
486 0.002393878980029845 0.008211461337441684 0.0036152964418137315
248 -0.0033456270836381627 0.0007411274052032473 0.0046993628961838774
9 0.0009863098366308938 0.002097594371463537 -0.002157390678535025
139 0.004283165088288748 -0.00847390558769945 0.0065786525217596216
318 -0.00048036336219103664 -0.00034083478030389413 0.0019360738220447554
183 0.0012351780225667913 -0.003990021304725111 -0.001593877611060289
243 0.00020276383083486842 0.004022334964520095 -0.0002837956188139258
512 -0.005426286104958731 -0.006828030917272354 0.0007654259670451063
245 0.0028050912309891675 -0.0033395663178928977 0.001191318784333335
545 -0.0025230531462626963 -0.007915774838128787 -0.004420036907721858
447 6.435275636046488e-05 0.0019470176512169917 -0.0021210210710247207
291 -0.0033693275548597377 -0.000822397471543891 0.0022214990328381294
206 -0.0009261241727012941 -0.001329271003714822 -0.001691553997910217
215 -0.0018735464339423402 -0.006665793986159597 0.00027233655540771654
266 0.0024297272773490764 0.003527863376255994 -0.0022099923380000932
30 0.0018509351707976123 0.0053715811434183235 -0.0032607507888651314
24 -0.00436665558120469 -0.004450135497347277 -0.00222174172255994
133 -0.005906309080412694 0.0017918551708433173 0.00036070280133416663
388 -0.002408876267323598 0.0015702286723659664 -0.0010258143036589035
8 0.006147688185221226 -0.00040059120141973625 -0.011884137199621218
88 0.0033230154102147614 0.006678842767810043 0.002692637753657445
44 -0.001963216175402673 0.0017194521132604108 -0.006918179117328563
367 -0.003972853665800055 0.0007386039842462979 0.003766437695679707
406 -0.0002821782007356278 -0.0009888053131679874 0.006842926964772118
254 0.0006203960368977405 -0.00041743928035397926 -0.00016204044818588287
457 -0.00029447956020054795 0.000904044535535359 1.7483020117353657e-05
343 -0.0017113935339615437 0.0001364370793941054 -0.002809501637020959
415 -0.0016660444330206655 0.0035839569943329373 -5.288925012074388e-05
329 0.001793002188315311 0.005621611038165066 0.005750360779338382
358 -0.00017379788520053142 -0.002524930356610644 -0.005851490098334834
222 -0.0032325688991539465 -0.00352317780178857 0.0018327737966754632
475 0.007277813949647984 -0.006533179869034302 -0.003248019328846388
528 0.0018636756068745998 -0.00084896911004567 -0.0021316805050473077
294 -0.00020206952456233715 0.002387677595817324 0.0010946332343579317
82 0.0010369386534971204 0.0015892470745130975 -0.0005726430216855173
572 0.0016024642297470773 -0.0006748654685742641 0.00634598646141092
568 0.004444924790725431 -0.0022464266738329002 -0.0018631486918424026
556 -0.0007016850876058111 -0.006300989248322755 0.001085901916875747
469 -0.0008435257052328383 0.004335059810804902 0.0038015001617172973
308 0.00025909488294106236 0.0017205741750594976 0.0017957998643656486
148 -0.003143500241611218 -0.003537979659912519 -0.0009681466684707339
147 0.0017953469800833987 0.003177324736845088 -0.004122211864048113
181 0.0073648268958976925 -0.0046315347289402 -9.426924313830848e-05
54 -0.0004212511354118102 0.0009728851386351382 0.0043713455505216955
233 0.003896912669850836 0.004079076865809436 -0.0004220853911622103
259 -0.004304815995594506 -0.000801427502325092 -0.0058150943174786725
244 0.003334030227426048 -0.003993631272856485 -0.0034520304226230945
519 -0.006479795187551661 -0.006741463946651173 -0.007223057413866166
246 -0.002155671073859518 0.002748760493126507 0.007932535464352719
543 -0.002355890140808614 0.0006666490686774226 0.004769001945500829
429 0.0004972051148724164 0.004708419502233131 0.0002448084781762703
47 -0.004017096552654883 0.0019429875882516628 0.005618738261108516
548 -0.0029734488000218266 -0.00019503023760108638 -0.005117418982542861
394 -0.001567103302302834 0.004468236961434417 0.0005636905828139581
18 -0.0017706656293658694 -0.0017265825237099263 0.00044318253514600685
319 0.00028528131498471455 -0.0032904501519016136 -0.005574823791561178
164 -0.0033000753794351703 -0.0004125833360181566 -0.0027016207539820136
483 -0.0005257489842495286 0.0025516401179847058 -0.004313468260611394
89 0.002003050475055867 0.005901150376010247 0.004099879829814999
520 0.006617023094233049 -0.005326148583830251 -0.0013352230030530354
503 0.004905481549867683 -0.0001077410537729176 -0.0007076036003367065
177 -0.006083619266818572 -0.0016507639526911302 -0.003976969944986548
179 0.0010858349912022554 0.0037788882000688315 -0.0017428119048611731
349 -0.0044246441754380705 -5.512124654692421e-05 0.0009685522274814029
472 0.002991964287950862 -0.001992940425596035 -0.004421459473384798
48 -3.267780167055551e-05 0.0002400566130650077 -0.0008144176971611057
552 7.506197141634642e-05 0.0016658926040403002 0.0007250523614199428
338 -0.00409357369702431 -0.0006443552736185609 0.0028205900026787734
505 0.0024453314142379944 0.005017025284816688 -0.0005587657166120724
79 -0.004274964997440147 -0.003686629584028693 -0.006050287259939133
292 0.002966530622035162 0.0010049601321569666 -0.00353503385360851
64 0.004716802430614577 0.0027624105074586045 0.0006788654255452906
142 0.007056166375158205 -0.005539416320631315 0.001366812625413803
204 9.981948244929208e-05 0.004695839678371236 0.003919546123282049
316 -0.00031915467159067477 -0.001190259964268358 -0.0009291999783559915
262 -0.004535178992004761 0.003844462279598782 -0.00019756195090364553
160 -0.0005539126503286077 0.006308007919487037 -0.00751439754074588
96 0.006531256532219004 0.005861199854510461 0.002094964440534587
323 0.0012850187218123063 -0.004328473405464062 -0.001663617694651797
313 -0.0013891273877733035 0.0003045668674733202 0.004973456345571972
334 -0.0020551550442144658 -0.0011891655219109587 -0.004496015807525957
229 -0.0009006643987765179 0.002250850217593349 0.0040018694886862615
379 0.0023273905060498777 0.003843269538269899 -0.0034787870921550177
356 -0.004513780016765136 -0.0004314379934308366 0.0036106207712869286
440 -0.001573015297776174 0.0006860928820130542 0.003477258187801221
267 -0.000976664679278194 -0.007674067845715577 -0.0005584508866831094
81 0.00045486644203968036 0.0022292290395588563 0.0023233906035314503
74 0.0016670342556942335 0.0003741307598590319 0.003433769963539265
108 0.0035016867697900563 0.0016491481167938877 0.002386501306880689
279 -0.008447531661312095 0.00017594361720147577 -0.0028845823151492467
97 0.002081133339000522 0.0011306373850062416 -0.0009140114076797765
37 0.00785359571299282 -0.0030000676062339926 -2.7828329739986914e-05
538 -0.004122178583188125 0.0038773603322061314 -0.00026798527605627126
149 0.0021124246129951775 0.0007400881863258978 0.0021812606738088347
346 0.00032395338150993083 0.0013121810683365289 0.001031678774752944
371 -0.0025634388436161447 0.0003706365799642322 0.0006246030037918442
310 0.008652846368039414 -0.0018391317493368412 -0.003348566974551184
51 -0.009692245280499827 0.0005855787286716505 -0.0008792061243343215
280 -0.0030854643158172044 -0.0009263065266521011 0.0014425522770656466
576 0.002618737449730644 -0.006869089226907106 -0.003805650801300929
135 -0.0053756418748642735 -0.007699598847948608 0.0025370428045506112
138 0.004737535510243009 -0.0013545779509153359 -0.005627165034152364
544 0.0009293119890733787 0.0009819344988724003 -0.0012940250821535664
393 -0.0063575585720123335 -0.011041709171438504 -0.0009275940178619051
66 -0.00017800765841961448 -0.002189397275005117 0.0008029574370829918
19 -0.006268259535302864 0.005213364313894966 -0.003758290837465995
428 -0.0010727438036203885 -0.0027470067115742285 0.008643325501868828
389 0.0028041807889859762 -0.004046779985825118 -0.006793355292144071
459 -0.002421117570005738 -0.0031519676678749687 -0.0011391858794028578
153 0.0037967837265436293 -0.007658632652237637 -0.003134930987272852
115 0.002013133852812596 0.002221368593840174 -0.004903427678790554
407 0.00012139210750540569 -0.0010813828724159874 0.0016661256581456767
105 -0.003433788470049867 0.0016977381106291455 0.0023057887966959124
466 -0.0007027632547349509 0.0013622028915442968 -0.0028212923040417826
462 -0.004608747799306155 0.0004572565796380465 0.0024417844575127354
351 0.0016791638286006464 0.0014644142273885386 -0.0012257231275400332
573 -0.00018211402254224993 -0.003380507468732401 0.0021050158481234417
398 0.002142109522832414 -0.0009805910970595794 0.0011037134202039358
547 0.0006425072432130268 -0.0028361135565499527 0.004002833877978558
340 -0.0015833114858851117 0.0010257520868448887 0.0001519282148947853
427 -0.0021633023078377997 0.006690342212153546 -0.0019466498134862284
263 0.0041204983961591075 0.0004730922808271637 -0.00033141692407617047
433 -0.0019792016932580073 -2.3126492574301807e-05 0.0028795159754941685
22 -0.006615776782638768 -0.004494448152934058 0.005610411227974272
508 0.0034640579494818148 -0.0014550772346328034 0.0013283298303594984
161 0.005635157314589357 0.008855987845230137 -0.005834626332188725
435 -0.0024921765026538773 0.0018718516032330081 -0.003885279415081504
141 0.006616960420268528 -0.004400596586158401 -0.0018830468115240506
513 -0.001402761877046257 0.000725078502008005 -0.0004944804798340644
317 0.0024922979005426163 -0.008464132862604282 -0.0006010888718275169
150 -0.00573842946947345 0.002458550098086706 -0.0013336902563810908
489 0.005505993954686212 0.0018311651319107445 -0.004706094944645023
90 0.006159710946346678 0.006235780100436728 0.0028493028533419485
500 -0.0012594717079528449 0.005246416073284792 0.006885938135148209
333 -0.005939241596100089 0.002461229835914791 -0.0011513264404447768
454 0.004553945681131887 0.004742844671456744 -0.0009524780315918513
121 0.007870356339928334 -0.0004488256928530337 -0.0008515019952306089
7 0.0029870785125451845 -0.00375569676849391 -0.003139717798352153
114 -0.003037357673177921 -0.0017585424262289567 0.01173798416857734
255 0.0007409449939228463 -0.003086487142612074 -0.0005511913039656294
562 -0.003291159448048489 0.006364281935379824 -0.00048634087388096296
56 0.004074430299010786 0.0015171712419187826 -0.0009384701651446823
518 -0.002629180710237168 -0.00411266696593434 0.006630826398461938
368 -0.004477323194282899 -0.0028671987782473807 -0.0014922573399328077
541 0.0003353336784600301 0.004127577024240997 0.0027546370034308766
355 -0.007927131604634853 -0.008333314695349342 0.008646252373519315
480 -0.005386363230926837 0.003358911391792342 -0.003481619876754374
560 0.0027265386402462568 0.0014872591102276331 -0.0033160394938361076
23 -0.0016173676166719787 0.005633857747262317 0.0018812598869147239
185 0.0022996777870980143 -0.00463884859105765 0.002285937114838769
261 -0.0021519164543615165 -0.0009387871821924207 0.00021295071393593058
253 0.004920890440368362 0.0058282313260873434 0.00024332725825691853
341 0.0033386720821475943 0.005120659451312864 -0.0012635831790786263
305 -0.0011416771397949024 0.002689165562779932 -0.000503923798021765
376 -0.0020963994744056507 0.0012319335540851228 -0.0026331659453818646
434 0.0009561187213376162 -0.0029595603146810702 -0.0017113685764599826
437 0.0002624311179723031 -0.00418437972526823 0.008639394954297958
87 -0.0007371960588600384 -0.0024430978045201003 0.005881977577313347
478 -0.0022129894222531307 0.007053226201737757 -0.00028689279168356524
225 -0.00396202510363069 0.0023699489235398615 0.0018412871952517991
193 0.0008693078887014298 0.0012699153449982994 -0.002948450297809028
99 0.003655770112024465 0.004387248831878325 0.0031574162434322233
129 0.000198305075982739 -0.0002970769806473921 0.0013851306992609354
134 0.0025416948639330117 -0.006567583436552228 -0.000771857644985142
219 0.0004783729227248537 0.004061070075565129 0.002260875539713713
113 0.008467053989817964 -0.00023110409599307066 -0.004465336727549576
207 0.005080150650205292 -0.0021380458315993795 0.004125666801413402
293 -0.00445265822453471 0.0013394459759422418 -0.0031848217674478904
361 0.0009331053594317428 -0.001766035614109525 0.0020295844528484216
205 0.0009218505627517341 -0.0019370622376744754 0.005015194437751581
571 -0.0031900884665314725 -0.002471170739873882 0.00256120688291559
247 -0.0003207903491413914 0.003242290408216586 3.959349463016943e-05
326 -0.0005337165431016684 -0.0038151836576503346 0.001489232536297222
42 -0.006653964285292859 -0.0019416546091368984 0.0014853036147504238
258 0.005464792036251246 -0.0022618298132784007 -0.007504271892409195
17 -0.0015153916095890256 -0.00601858952038146 0.0004209553419379805
378 0.0033280748448642405 -0.004572498859398393 0.011343466798371641
445 -0.0047521918061434595 0.004264120430530062 -0.003911719073636991
217 -0.004474883254468195 0.0007711045876535188 -0.0038465936332083305
184 0.002236587186354244 0.0012702354440496477 -0.0032103370810097186
218 -0.002232524829476777 -0.00027708667888008866 -0.0003441546380858782
209 0.0008347553584343866 0.0018579213941490162 0.00032548886747382175
130 -0.0056541250831518425 -0.0050986843075750184 -0.000982335668165181
125 -0.003977948580230369 -0.007148399946983941 0.0032267423825048766
143 -0.0034995305195289683 -0.0009716495631422736 0.004221923133491612
223 -0.00028837364568149907 -0.00021316980922594657 -0.003393504041489198
339 0.003164415419185867 -0.002924414529493781 -0.004427733519742352
502 -0.0005484532445155449 0.0003858743758461609 -0.010975814847885578
537 0.003061672929879708 0.001569734703007254 0.004265779124910792
467 0.0030843694734716703 0.0020065686544225012 -0.001233235748809496
362 0.0020516868145472947 0.0010671786859688698 0.0032196979675340096
20 -0.0016945120508970214 9.597448029275158e-06 0.0018328842977920427
52 -0.006134744839135039 -0.004380488827940665 -0.001071724138644145
504 0.0022642367924761504 0.005761460301209849 0.007753796022345559
128 -0.008638139263697029 -0.000575187395911738 0.00040467601777675015
240 -0.007693010211817516 -0.0011603953444951287 -0.01039779759605992
286 -0.009035110530121265 -0.0023836296378444105 0.004066858925141105
172 0.0004818015745388953 0.0005686431725673782 -0.0013236661002084859
62 0.0026497344662234365 0.003028602056474057 0.005125461105143267
514 0.0029312386122240766 0.007524839983719267 0.004085685963261649
109 -0.005243982778019245 -0.003092086357576409 -0.0058221733330214255
298 -0.0029401119206318464 -0.0023431494439308527 -0.004898774066752553
444 0.00035982071632147236 -0.005769043708137346 -0.0007109860984364943
127 -0.0013628876965832315 -0.0019448553537759663 -0.0006589826230649619
458 -0.0021130200217639385 0.002411971896772754 -0.005213115230110981
241 2.987964537782558e-05 -0.0018235085366401695 0.004925514269110471
452 -0.002529691918829134 0.0028315486446168227 -0.0005440395093724385
117 -0.0012886735580073248 -0.0017566922767556106 -0.005078003076418745
31 0.002536741316481024 0.0004712510964504727 -0.0011881782192257337
68 0.001203359943625238 0.005799168363061703 -0.001731454048572686
15 0.00231353220311735 -0.004270300742803661 0.003927036278503176
511 0.00358494890959443 -0.0008731838139368301 -0.0009206801881203208
194 -0.0008049455852546741 0.00011106325984227224 -0.0038946052176296927
272 0.0004911181369931136 -0.0026199658056788233 3.6668943197173923e-05
25 -0.002645671660842682 -0.004667145384186508 0.0014818304725537133
534 -0.0012902133712324162 9.782523479490247e-05 -0.003685889554923445
353 0.00067123833422001 0.0023805322517623253 -0.003066391009258288
174 -0.008001185326720712 -0.0025801118914531265 -0.000830158071147852
213 -0.0008992100365067357 -0.003616254076348684 -9.332401293942228e-05
28 0.0010857589382408316 -0.002590552663202017 -0.00486401525457585
325 -0.003332162931550284 0.00031678811080289906 -0.0025810305487290416
32 0.0010934083134459174 -0.000198974627412342 -0.0007593848515072368
78 0.0037097909238987285 0.003123519014663083 0.004255600452515158
39 -0.0021988788407408446 -0.008018743466823717 0.001868185559980188
251 0.0025695958541528036 0.002926555201244849 -0.0032197073558545195
276 -0.0012380394774193487 -0.00019875733306532584 -0.0021681468316098705
546 0.0025550655282243102 -0.005082532054413036 0.005657456074788016
1 0.0026041471684062054 -0.0024290917997752265 0.0017266715012988264
567 -0.0008279424504338849 0.002648256561835022 -0.0016706680075432609
297 -0.0018368605614122258 0.0033098608399107264 0.0029181511614953678
85 -0.001123013454896848 -0.0028505068159700928 0.004137918845786153
551 0.00352661760499671 -0.0011986061108818643 0.0026689797734649693
522 -0.0004085372803546025 0.0006688612542515474 0.00520928550093674
270 0.0036426606344112248 0.002640398718496203 -0.0009511336878561816
312 0.0010722645785977143 -0.004642499300649162 -0.00212049667390656
383 0.000841189821268888 -0.0050759052051225564 0.006079175049563775
10 -0.0007873112478505518 -0.0012802938690330747 -0.002585987171072148
119 -0.004486180447710954 0.0005797435566966376 0.0021506271888137958
178 -0.0013807378278202808 -0.0011951727351078934 -0.0016867729149392136
102 0.0018625479046998747 -0.005002527919881634 0.002893490091996127
283 0.005225975569720201 0.0030145456791509035 0.00040617887590462003
535 0.0003296952020357153 0.0021448108417143155 0.002378435911778237
510 -0.0004479997867139038 0.0029848050390379978 0.00314807845056665
234 -0.0032569536546012408 0.0030467713070550582 -0.006944443894344531
395 0.0003927814676824966 0.0005335055018412419 -0.006168668288955333
515 0.0009814489579560034 -0.0006538773927787929 -0.0007770277917572289
450 -0.0022519157322091242 0.002075504345925722 0.0014520861519384716
565 -0.0004409618046586637 -0.004644225780743044 0.009016982169973249
430 -0.006089732070122712 -0.0022707206867203476 -0.000448348614262886
63 -0.004553872722854755 0.005613168368593775 0.003503919933322758
566 -0.0045698195724270295 0.00023525125564580803 0.005756150095754926
