LAMMPS data file via write_data, version 4 Jul 2026, timestep = 1000, units = lj

1150 atoms
2 atom types

-20 20 xlo xhi
-20 20 ylo yhi
-20 20 zlo zhi

Masses

1 1
2 10

Pair Coeffs # lj/cut/omp

1 1 1
2 0.5 3

Atoms # atomic

785 1 -9.149339398736066 -19.46927911954823 -19.11278141252917 0 0 0
618 1 -8.485758848667933 -19.538816885876365 -18.21289444386518 0 0 0
348 1 -7.465415674163305 -19.87215861067421 -18.532955792963254 0 0 0
377 1 -8.065420949345182 -19.20057037409822 -19.199083879549473 0 0 0
551 1 17.783684541712944 -18.839720356625865 -16.708941098675268 0 0 0
484 1 -17.209083693390777 -16.925086251956937 -17.867185572886683 0 0 0
765 1 -3.8460819954393295 -14.383400536587853 -17.98590110546763 0 0 0
836 1 -2.9841652370814504 -14.109514625664032 -17.328371975165297 0 0 0
176 1 13.860093048477017 -17.40524589066348 -17.555573074588516 0 0 0
723 1 -8.644882094791637 -14.679658741955555 -18.49928382767863 0 0 0
908 1 -1.5547521151096817 -12.662255743704742 -17.64215564500555 0 0 0
629 1 2.100787465179241 -15.27941144379645 19.71715551997593 0 0 -1
471 1 -11.214322866143634 -10.630273394237609 -19.9378979599478 0 0 0
142 1 -3.8425275230037563 -12.70751628688875 -16.546555455256087 0 0 0
887 1 -3.9516218433921155 -12.50234934497007 -17.653860218951234 0 0 0
211 1 7.365857483024369 -12.8834060271507 -17.86467881312633 0 0 0
192 1 -11.608230851171044 -9.58670321457597 -19.950278112237285 0 0 0
109 1 15.430030087800693 -9.398717448871338 -18.430534027769358 0 0 0
497 1 15.620218839040918 -10.495907195252459 -18.54914740966774 0 0 0
607 1 16.475975677735075 -9.784280502292168 -18.334837072229863 0 0 0
63 1 -15.350593619638731 -7.100410755739996 -18.752434559190053 0 0 0
647 1 -10.78803925816176 -8.829148737741406 -19.913677742591148 0 0 0
1096 2 1.842830867280901 -4.981298228011494 -18.235117333427034 0 0 0
653 1 9.792935431210587 -4.728460951090335 -17.74743880919664 0 0 0
977 1 16.826236928858556 -5.234263262161255 -18.99034547000354 0 0 0
175 1 -19.000950465831714 -3.9836744248241134 -17.644860556196527 0 0 0
422 1 -18.597022521927816 -4.826973459093796 -18.265872255925153 0 0 0
430 1 -11.673740335378866 -3.2654803230172385 -16.260870733669595 0 0 0
783 1 -18.590538659190578 -0.35608412743415263 -18.288285027001333 0 0 0
586 1 -13.933713830620714 -0.8636649707968044 -19.586850598472317 0 0 0
32 1 16.639188177851757 -0.44493642426775337 19.849730579269437 0 0 -1
128 1 15.621153126521973 0.0173990773899486 19.782627905350783 0 0 -1
490 1 -18.8569389037585 3.7582950504397745 19.808020229057743 0 0 -1
1098 2 7.17870775514688 3.6607146239575328 -17.593180180042257 0 0 0
1040 2 -3.2384412336843256 4.45849893400478 19.94585906099806 0 0 -1
598 1 8.240075303904836 4.228064264847844 -16.063349395965513 0 0 0
921 1 12.56818155015086 5.389186554555586 19.803957648665417 0 0 -1
76 1 14.003007590341495 8.156794541824079 -16.947732954088004 0 0 0
561 1 7.195142822885238 10.517202924489503 19.86679862815363 0 0 -1
244 1 8.011943437923405 11.265951112973301 -19.951971030235878 0 0 0
492 1 15.08530508306621 8.004434721457837 -17.09014863804714 0 0 0
402 1 -8.087293574424182 12.70214119454798 -19.076017836130188 0 0 0
915 1 6.9367787853469505 11.58935932884543 -19.915185102125864 0 0 0
575 1 10.449178456855323 12.096916365272156 19.360290341706687 0 0 -1
562 1 14.165109530444568 12.874887597336517 -17.802954196600634 0 0 0
91 1 17.43754514097878 12.172278395175942 -19.788732358839532 0 0 0
133 1 -17.328621290338827 16.116769802292712 -19.519775908863892 0 0 0
567 1 -8.750949446567768 13.601589410075084 -18.97459090280725 0 0 0
104 1 14.633726783033183 15.307163192624627 -17.655091780334093 0 0 0
25 1 -17.657205130259428 16.97044594946047 19.833749617777507 0 0 -1
77 1 -16.820302455922256 17.110753970323074 -19.42902714831725 0 0 0
564 1 -2.186542635330019 16.542622956894636 19.9955573164804 0 0 -1
732 1 -17.875467932357576 16.981374803239998 -19.063612595714883 0 0 0
901 1 -17.57334628773547 17.924952181334266 -19.58613005906875 0 0 0
760 1 -8.371029737035768 19.727150436727218 -19.056437190266674 0 0 0
734 1 -2.2763174380818176 17.633774389806927 19.74903748968146 0 0 -1
960 1 4.822829607327287 18.056320711834356 19.9990773341402 0 0 -1
20 1 8.56928458275612 -18.6239237504984 -17.230828036748107 0 0 0
322 1 9.14849120315812 -19.35847585696274 -17.852006165800955 0 0 0
193 1 16.6889054842903 -18.654098099752318 -16.813756236206736 0 0 0
489 1 18.851833144097565 -18.914448827005806 -16.397431260235265 0 0 0
498 1 -3.909621477372704 -14.580362655695128 -16.884974619121756 0 0 0
810 1 3.861420886027474 -15.439204275256415 -17.044732431976538 0 0 0
202 1 7.487113930689049 -15.798188653039695 -17.523274986380684 0 0 0
979 1 17.392362282358352 -17.79519108898723 -16.6508344227425 0 0 0
144 1 -19.353459634524782 -15.16476490284592 -15.710580882644898 0 0 0
437 1 -6.660291354001567 -14.773340046969665 -16.089644629627273 0 0 0
270 1 -4.024764502622442 -13.555628260333014 -17.28229693835528 0 0 0
347 1 -3.393278377369274 -13.721994848403055 -16.38805804378395 0 0 0
382 1 3.7863939586384054 -14.455253497340882 -16.50976476201258 0 0 0
60 1 13.982749694775036 -14.906306640892245 -16.63306467333207 0 0 0
500 1 -16.012939348547835 -10.09896374887765 -18.93275753890689 0 0 0
659 1 -2.077599783022164 -13.324105075434975 -16.89263917837431 0 0 0
945 1 15.724839388761437 -10.023700732284976 -17.539877786094593 0 0 0
929 1 -16.443876236567 -10.97863347249435 -18.40213876354722 0 0 0
982 1 -15.32687840514983 -10.788864085177282 -18.3902696027793 0 0 0
1101 2 -2.654063879706608 -11.195448735956095 -17.05980460816841 0 0 0
280 1 14.715783457004061 -10.141879464812193 -18.004486830891445 0 0 0
1148 2 4.255714856381182 -6.790106812312268 -16.73662183686156 0 0 0
593 1 -18.969048797585305 -5.024345687422509 -17.22541224930139 0 0 0
526 1 -18.01574723984991 -4.452727908248274 -17.381590059165042 0 0 0
1074 2 -1.2693674830512272 -5.194515724768022 -16.965038006249515 0 0 0
649 1 -11.539129804828317 -4.305993466855529 -15.862119129091486 0 0 0
1076 2 4.099396584811031 -3.4610873476973385 -16.251535345488282 0 0 0
246 1 11.686378862523094 -3.024492126880153 -16.109211270754503 0 0 0
930 1 -18.74992915879446 0.7540128039348369 -18.23775864791833 0 0 0
1091 2 6.803194933573774 0.3239159264714497 -17.32770736738461 0 0 0
946 1 17.500851140755582 1.8545488039044062 -15.089311367402024 0 0 0
70 1 14.383709872031648 7.121002437476159 -17.08011186418287 0 0 0
99 1 14.079646851306228 7.443974707937564 -16.062359706155874 0 0 0
686 1 13.287629337892366 7.3190394481232355 -16.83586390832199 0 0 0
110 1 -8.470096038402525 10.077563370782107 -15.735085033667993 0 0 0
592 1 -8.191857137287112 13.213269777755052 -18.081900886037825 0 0 0
902 1 -7.413001209119815 10.374063224657068 -15.503892377444787 0 0 0
889 1 -6.415278844040021 14.412145024288554 -16.617372653766356 0 0 0
302 1 17.71809847480718 11.05573641722082 -16.24054861931059 0 0 0
119 1 -11.650865923569738 13.370629431611912 -17.054872433105775 0 0 0
877 1 -12.65933381849946 13.449432184184074 -16.56821642750623 0 0 0
506 1 -6.716676121176733 15.49157393941904 -16.568931067339612 0 0 0
568 1 -5.632938985640151 15.207178408646783 -16.55656193332877 0 0 0
730 1 -2.645281101962886 15.741070973896523 -16.397983372443573 0 0 0
389 1 2.797963415111245 15.140215352183153 -16.292124340832686 0 0 0
65 1 -11.864757578934297 17.326738034814117 -16.06356171250784 0 0 0
998 1 -6.2921825347023645 14.983060015955694 -15.665219438776274 0 0 0
457 1 2.03551476033293 15.85252010353922 -15.87832477345727 0 0 0
748 1 7.178643569309722 17.195861703644848 -15.795246937603483 0 0 0
881 1 14.747294396178509 16.013325317125066 -16.789727389527727 0 0 0
505 1 -2.4660239919244584 17.268709763255757 -17.200126082420905 0 0 0
518 1 11.378883932487907 19.06571763746889 -15.824755784671504 0 0 0
993 1 12.319208984039214 19.089724967352804 -15.212185563932339 0 0 0
909 1 18.931289453094468 -18.65903837172403 -15.30781499608943 -1 0 0
555 1 -14.276584184827474 19.785974151758676 -13.876877997143039 0 -1 0
670 1 -4.148464170013312 -18.901681541437203 -14.200707610463972 0 0 0
507 1 1.0287090926258633 -17.975100256994033 -14.313419131513077 0 0 0
899 1 11.636959163797108 19.98092425069712 -15.228387223749722 0 -1 0
926 1 18.20308299559681 -18.118982436908897 -15.95718555945313 0 0 0
436 1 1.5439783397737021 -17.14166152923971 -13.765880511945628 0 0 0
530 1 17.17128739773638 -18.51256145124647 -15.8167698649926 0 0 0
333 1 -7.119891401721024 -14.742291900714479 -15.06574385888636 0 0 0
709 1 -3.0426489344674508 -13.027671224686713 -17.2540835119566 0 0 0
74 1 7.3003476357956805 -13.225308565954338 -14.100379975567908 0 0 0
814 1 10.980703830272576 -15.086048833100161 -12.964079556933404 0 0 0
336 1 -10.19337150805522 -11.825661935681635 -13.6303273045386 0 0 0
454 1 -2.781152392017662 -12.844756071834773 -16.1751221929412 0 0 0
223 1 -18.76025857413793 -10.933638075426785 -13.277110493171303 0 0 0
306 1 -18.14789926856707 -10.136812960415428 -12.777022816032446 0 0 0
459 1 -3.3048357099866026 -9.900023263635028 -15.771027442419108 0 0 0
882 1 7.720566702873774 -9.95967415772733 -14.63404201969225 0 0 0
1139 2 -2.6737857653499257 -8.061903453489482 -15.886863779342757 0 0 0
1085 2 6.552747949115262 -8.427427440166143 -14.896606903178055 0 0 0
816 1 10.813453088883902 -6.540175765669159 -14.795897060228935 0 0 0
888 1 13.219337270133297 -5.513664257331954 -13.768086628507277 0 0 0
282 1 17.034220278866485 -4.538687403396323 -15.301765858681309 0 0 0
360 1 -12.397678620738423 -3.675800455947081 -15.507611494812005 0 0 0
247 1 -9.261341292390052 -2.8872915992165815 -13.286807993094854 0 0 0
1103 2 -10.829752022896761 -3.0945945625210314 -14.516485356453735 0 0 0
1069 2 -7.971410252734374 -4.3397673265773165 -13.5496113260336 0 0 0
388 1 12.635364433707418 -4.697818025427148 -14.271578719833164 0 0 0
301 1 -16.98451721993919 -0.6242424765298523 -13.525288417349005 0 0 0
1052 2 2.17865014534736 -1.0387367810251678 -14.91475832592984 0 0 0
795 1 11.506018126474562 -2.368879285457976 -15.219628696509425 0 0 0
911 1 10.923928997709204 -1.4662205674918736 -15.536594213450343 0 0 0
906 1 15.213865567433228 -1.2400807899639714 -14.605968105577595 0 0 0
478 1 -16.272811393027407 0.16859067584458562 -13.179993111236039 0 0 0
1009 2 2.296585151488167 2.217505112818231 -14.059207894547605 0 0 0
644 1 17.042429512655673 1.7132615634292212 -14.074502110091663 0 0 0
924 1 18.147938900299117 1.5781878678773604 -14.214793913008194 0 0 0
606 1 -12.56115000165643 3.988571009833893 -15.240814252517323 0 0 0
1111 2 10.083676648605515 3.62365104711292 -15.904742626757566 0 0 0
277 1 -19.737123601420375 6.76961132873215 -13.192597117854588 0 0 0
676 1 -16.47293446205106 6.1880554606751526 -13.85212586372558 0 0 0
1118 2 6.393792474905732 5.933814042612226 -11.414997987859305 0 0 0
1138 2 7.3576489092468735 5.028645128167568 -14.523322643096545 0 0 0
853 1 -7.771752311558023 9.34721841327133 -15.251150402375421 0 0 0
585 1 12.334754072862758 7.770404982404441 -16.46080342026038 0 0 0
335 1 13.01460642674686 7.204581313627269 -15.761053228354005 0 0 0
782 1 13.286773584169763 8.223062029952192 -16.11641862705043 0 0 0
831 1 -8.842246180880124 9.400275679375289 -14.924837900305173 0 0 0
401 1 -8.149535468288647 10.244544314020633 -14.674601055472209 0 0 0
300 1 2.6866631277415527 11.062758043700537 -13.908653086534361 0 0 0
1062 2 3.2078635209193793 9.397295954155913 -14.759807733745038 0 0 0
634 1 4.566563748290285 10.77762554650371 -14.895829657193438 0 0 0
525 1 17.89795617784118 10.786753825719769 -15.165715771219384 0 0 0
231 1 18.268116192901672 11.766888333122113 -15.56849100543583 -1 0 0
200 1 3.7192881063204806 11.223801241843924 -14.31345254792098 0 0 0
984 1 8.04910147452065 13.219887458071568 -14.797168036147205 0 0 0
578 1 17.167526318782308 11.598143037453083 -15.426548237898002 0 0 0
224 1 -5.23594528349197 15.315416061998066 -15.518363177216255 0 0 0
811 1 9.085341008644471 13.600801489859963 -14.999734514618916 0 0 0
910 1 -17.64110988578807 16.186806369141813 -13.466514077894415 0 0 0
134 1 -6.002262466899724 16.03894187227844 -15.902866273502891 0 0 0
589 1 6.797131705067057 17.67165949560761 -13.07646520225821 0 0 0
237 1 15.731400917512529 17.497545223835527 -13.293254225227908 0 0 0
692 1 -14.75143054217617 19.249161638657995 -14.725812302726856 0 0 0
787 1 -14.478281973385318 18.69008126019385 -13.79243231574834 0 0 0
722 1 -13.679937332395388 19.046655535044664 -14.490141838162812 0 0 0
943 1 -13.18033350115921 19.946811007917262 -14.051586177273771 0 0 0
762 1 18.033424960531203 -19.20324096755677 -15.686555014099575 0 1 0
746 1 0.91855844079994 -17.882472809608203 -13.20022191637643 0 0 0
646 1 -17.004363431273767 -17.312350741056743 -12.091666272883948 0 0 0
180 1 10.838974807058749 -15.846229839775969 -12.150471684509348 0 0 0
327 1 19.609634598132136 -16.432012341540943 -13.219692779565056 0 0 0
594 1 -11.919766791127515 -15.520458480119919 -12.345675375473535 0 0 0
981 1 -5.637696824934253 -14.469146498350689 -12.847179906745708 0 0 0
117 1 -18.44555016563961 -11.056549010666059 -12.2066588376073 0 0 0
376 1 4.883121354182752 -11.263206857885491 -11.858147535158919 0 0 0
312 1 -15.288616299803053 -10.372534715192051 -12.265697248290232 0 0 0
173 1 -10.223436117392575 -10.801713080434412 -13.171485265614548 0 0 0
432 1 -1.603698569202139 -10.344616408161848 -11.62657700979086 0 0 0
245 1 2.074399617842331 -10.159407954968938 -13.141988671150491 0 0 0
71 1 -19.219409957117197 -10.290724002376479 -12.479837792950214 1 0 0
574 1 -14.363268187331057 -5.999010169286634 -10.73885655618179 0 0 0
870 1 -9.808100924415031 -3.817344960777068 -13.009917597677054 0 0 0
1137 2 2.8007146417839004 -5.470789844247912 -12.262031922342853 0 0 0
983 1 10.9277620417448 -6.297830907856859 -13.705966306046777 0 0 0
860 1 -17.751447555531623 -0.8021825669336186 -12.72875352156066 0 0 0
467 1 -16.696622212998832 -0.5581826598019509 -12.440165354092837 0 0 0
935 1 -9.980089514628146 -2.044846799930212 -13.144527788667498 0 0 0
1130 2 6.139236140610177 -0.8933638191656279 -12.114827663820025 0 0 0
362 1 -17.35463844054033 0.23134540347186172 -12.897393724225362 0 0 0
216 1 -12.552709054156407 1.4866854129120302 -12.198974050034 0 0 0
1064 2 -7.457261137718664 0.8483436896447039 -10.452237009830872 0 0 0
1083 2 -5.448804744562335 0.428106963603695 -13.14351702292325 0 0 0
1057 2 0.2918870488944834 1.2529424041453812 -11.531430683958426 0 0 0
873 1 14.195281569551435 0.450615726865818 -13.479900540827252 0 0 0
1048 2 -2.488851922026555 3.1343224379537045 -11.272419297749735 0 0 0
1150 2 3.3056581177744304 4.907594429268746 -12.29832943855055 0 0 0
642 1 -8.026710932324152 9.257154524984804 -14.167700806118985 0 0 0
728 1 6.5109338829638945 7.799518909173745 -10.995940205211951 0 0 0
820 1 19.962052128905494 7.297303537697751 -12.248651935611509 0 0 0
167 1 -16.417572086735515 10.036774125823941 -12.903395146600648 0 0 0
920 1 -2.083092620976017 9.826920908651767 -11.119164349347606 0 0 0
857 1 -16.987230575329267 11.00329952158109 -12.93968202132762 0 0 0
611 1 -5.868886551693241 13.146250160892972 -11.909805804189297 0 0 0
466 1 13.489072041296184 13.412824041250161 -12.295315767635346 0 0 0
781 1 -17.818108549144817 13.376722376000378 -9.954890114216427 0 0 0
263 1 -9.053092390382886 15.128996654980133 -9.938346610494929 0 0 0
132 1 1.8946903644167874 15.54813663733691 -11.601481316854203 0 0 0
627 1 0.8788138167172413 15.586479377067695 -12.077348699902437 0 0 0
363 1 14.569889001568257 13.56854371818602 -12.035481786762235 0 0 0
569 1 13.808952423686527 14.346968970856143 -11.761502123450475 0 0 0
261 1 -19.911855778044078 13.546981710913 -12.4703396830666 1 0 0
92 1 -18.62881301576268 17.398347154280586 -11.465459873896663 0 0 0
482 1 -13.527869848122368 19.112406142964062 -13.382519488389567 0 0 0
695 1 1.374158744533655 16.53364590429988 -11.734664308825545 0 0 0
537 1 7.8271765097246275 17.96858220622286 -12.77819881952113 0 0 0
742 1 8.300709290642699 18.9813227385242 -12.792018089919004 0 0 0
974 1 7.239485996446707 18.8582762190469 -12.446659696941463 0 0 0
400 1 15.301582093119883 18.099336460437584 -12.448832375282585 0 0 0
305 1 -17.23789526272837 -18.01027544334317 -11.24414919726104 0 0 0
544 1 -16.187333261135198 -17.646262830554075 -11.398170031229201 0 0 0
711 1 -10.493175083857055 19.89412070371404 -10.62512393260672 0 -1 0
308 1 3.769195355667377 -18.17069634718246 -10.217278019879895 0 0 0
393 1 7.740472398820235 -17.85534108916097 -9.233150837517645 0 0 0
337 1 8.610357217682099 -18.11362753687974 -8.573269314555933 0 0 0
148 1 0.7603286543997434 -17.083620676960358 -8.053066129227053 0 0 0
241 1 17.630941904435634 -15.125969864048008 -9.243789324408127 0 0 0
907 1 7.741265807383965 -14.133619275423019 -9.680973137702521 0 0 0
443 1 12.967717768213987 -14.846217609508109 -9.905378848237136 0 0 0
528 1 -12.292146065511847 -11.88805449928588 -10.410354062376603 0 0 0
81 1 -6.897988828337199 -9.797683429088925 -8.636695124106083 0 0 0
367 1 -7.659594377877463 -9.955089112749068 -7.830277460828404 0 0 0
736 1 13.836462813108035 -8.780979309176047 -10.039380623342584 0 0 0
80 1 -5.589783077892054 -6.6463267597693925 -7.525830623523347 0 0 0
21 1 14.334335723494675 -7.7899823136672355 -9.865808210752563 0 0 0
595 1 -13.968701950799927 -5.7823871863903085 -9.710608630803812 0 0 0
1024 2 -5.944369670610288 -5.492901381611589 -9.153321888497704 0 0 0
191 1 9.271763888148229 -5.504440190270716 -10.607833067871846 0 0 0
435 1 15.39589594394264 -4.833566117085821 -9.91054654974783 0 0 0
509 1 -15.103984293285613 -2.4942397520989097 -10.608079444006245 0 0 0
1077 2 -9.80949140334197 -2.753661873379774 -11.361909678198595 0 0 0
1078 2 3.345564345802757 -2.401695567142575 -10.981674935483763 0 0 0
801 1 -15.87129764201914 -1.8220835075135147 -10.139647831458731 0 0 0
84 1 -15.250266115504198 -1.451117103917097 -10.997615439835432 0 0 0
326 1 -14.778088753771215 -1.6151312715990003 -9.991571134125897 0 0 0
1095 2 -9.173813324611132 -1.23448028593481 -8.377508547248066 0 0 0
228 1 9.252009586165649 -0.10708114417538801 -8.220109801859653 0 0 0
694 1 19.199405823197814 -0.5171037156436756 -9.128779693639292 0 0 0
66 1 -19.811655742521847 -0.17436112307811494 -9.527518339931296 0 0 0
273 1 -19.5408845387722 0.8916838691096797 -9.315936994804492 0 0 0
1102 2 8.677128821170003 0.21874920037510615 -10.180502383550865 0 0 0
1027 2 4.97506169399568 1.9850484188683633 -8.734670981828872 0 0 0
1142 2 2.8693860214454308 4.616929439836826 -8.971446018883741 0 0 0
1134 2 7.830991374375278 3.465569797314233 -9.587566711573121 0 0 0
797 1 8.248556592328226 1.6640221661580858 -8.925566485577903 0 0 0
875 1 14.543950343363333 3.345145739181355 -8.002657127978342 0 0 0
276 1 18.054109988651753 6.080507563496553 -8.81225264064154 0 0 0
364 1 -17.863952370884547 6.708707511823636 -9.196354985993935 0 0 0
958 1 -7.608362321402405 9.129060543038952 -9.48019395938066 0 0 0
1065 2 -0.5949802461542164 8.935716768649074 -10.242042685034548 0 0 0
398 1 6.5792105075486855 8.23919022182557 -9.96992528081805 0 0 0
937 1 6.009323097980832 7.288176224175055 -10.116572507951048 0 0 0
452 1 7.124021668205064 7.287831009552457 -10.212138856543126 0 0 0
475 1 -18.84072933686084 13.016727818650251 -9.679744505490653 0 0 0
346 1 -7.424659652283548 8.680938903891521 -8.469861118163408 0 0 0
554 1 -6.7960500835797575 9.534521247976429 -8.82098576752055 0 0 0
69 1 1.0336227686590411 9.983558826855154 -10.411111420532581 0 0 0
409 1 15.23819213775032 9.9617547149681 -9.072164748472336 0 0 0
126 1 15.80366975397357 10.68839929726329 -9.714166633558003 0 0 0
405 1 11.518092328023233 13.29483800233512 -8.77437871651105 0 0 0
862 1 -19.935335902643633 11.118202834740979 -8.405638419779912 1 0 0
472 1 -18.46645310615203 13.978737995854992 -9.261739409407664 0 0 0
959 1 -17.75740854499991 14.491825480632556 -9.942635969964478 0 0 0
67 1 -16.830377281335792 14.806157615035197 -9.40664954919213 0 0 0
855 1 -16.82438499387901 13.88123414851962 -10.04515105041993 0 0 0
871 1 -17.367136968432625 13.890937022967467 -9.070967397821676 0 0 0
717 1 -8.44731871249189 14.215169443209911 -9.700869638526012 0 0 0
750 1 -9.198593426555176 14.598303019642394 -8.96824163002941 0 0 0
349 1 -8.250530974652932 15.180650753477089 -9.163959872658667 0 0 0
989 1 -2.921889437983447 14.88276550459039 -8.422596821421571 0 0 0
154 1 6.484920029891984 15.087081312005175 -9.75238337634063 0 0 0
758 1 7.450845074720948 14.787066838140676 -9.261892602468219 0 0 0
540 1 -9.353047649781756 18.565737585720413 -10.720618549815443 0 0 0
288 1 7.081883083277161 15.845405495065158 -9.17610543210177 0 0 0
116 1 7.460399519539667 15.460081419397364 -10.157393110226316 0 0 0
560 1 11.13923017860306 14.05763543505902 -9.49665537165469 0 0 0
197 1 -15.423092486676767 17.733531137169294 -8.921959854086559 0 0 0
942 1 -9.405674991878522 19.661585326306756 -10.49912667602131 0 0 0
434 1 7.018767123522159 17.862678046305884 -12.000282629253554 0 0 0
533 1 -14.10523226145273 -19.12455529125607 -7.398704446286715 0 0 0
837 1 -10.159319483311286 -17.47133103216134 -7.928964693391686 0 0 0
137 1 -1.3353003379148836 -18.886860298025503 -8.724437535983842 0 0 0
210 1 2.30373747672911 -18.054885636755902 -7.95948215816618 0 0 0
759 1 8.249748003396181 -17.058396444594255 -8.632515928868251 0 0 0
832 1 -9.221157695846202 -16.855819265947176 -7.8992584966587955 0 0 0
291 1 1.4050776319873894 -17.827095986031328 -8.588033894673444 0 0 0
45 1 1.8750697839979047 -17.020055455646535 -7.962364969916997 0 0 0
204 1 7.610756234300508 -16.793857005890136 -7.755792679021598 0 0 0
413 1 7.134319454353444 -17.054967348212877 -8.737450868309537 0 0 0
447 1 7.625080712443125 -17.849800021480302 -8.118765955083976 0 0 0
990 1 -10.223807600245395 -16.35184154397571 -7.876788774135172 0 0 0
10 1 -5.139264516552532 -15.74854166916765 -7.006443773735163 0 0 0
449 1 -4.448570812222702 -15.506045479796269 -6.1557626056315415 0 0 0
22 1 17.845263649375827 -15.149564841604581 -8.140429021944882 0 0 0
55 1 17.132276343984845 -14.386084749303361 -8.56136469796609 0 0 0
310 1 18.23657081469378 -14.306967520027694 -8.768032947382846 0 0 0
417 1 -18.002328775971257 -11.77492896423359 -8.806653679620768 0 0 0
354 1 -13.548257204971346 -12.339834358869584 -6.824046935648015 0 0 0
633 1 -6.571966665287431 -10.137431371525917 -7.6221055191757525 0 0 0
62 1 3.469182065459321 -9.77004372453167 -7.663787796388361 0 0 0
481 1 7.240407597950334 -8.999985054573996 -7.106400883124146 0 0 0
1005 2 -6.868179734252987 -8.205378930504398 -7.532394149422416 0 0 0
43 1 11.044820134270319 -8.554841224883747 -8.540810694630341 0 0 0
130 1 -16.973675704176788 -5.072373803615667 -6.936219118139434 0 0 0
991 1 -17.59446568142299 -4.20867298066498 -7.295180121691441 0 0 0
849 1 -9.343626818354682 -2.543614123165706 -6.964200824351124 0 0 0
1059 2 2.856834985802539 -3.362618971688975 -6.50333276100753 0 0 0
1015 2 -2.7917464882096956 -0.883227340357017 -8.803818760814062 0 0 0
1113 2 4.972569369489822 -1.3459638398046818 -8.224750894163256 0 0 0
1092 2 8.283432348845679 -1.6224492934503747 -7.516795481048442 0 0 0
970 1 8.879202675530339 0.00024363877846188113 -6.4130102248013365 0 0 0
605 1 -12.725036775257164 1.6701274909052146 -7.2407281201688924 0 0 0
1082 2 6.9392442716549505 3.257159850996574 -6.273808723309379 0 0 0
1054 2 9.476759913512707 1.6243586440774525 -7.410201601491344 0 0 0
1000 1 19.703865258680185 0.37253047397760486 -8.672099498456788 0 0 0
1144 2 -4.354633490833642 4.281891457375488 -8.714843128611127 0 0 0
394 1 8.811820029111482 2.825231503254181 -6.051686073103757 0 0 0
96 1 15.22295108326996 4.232238413151345 -7.884801416613231 0 0 0
212 1 14.847559403741826 3.688186201892627 -6.980451205567886 0 0 0
391 1 -14.119018472907733 6.423117751628733 -7.26116877844805 0 0 0
678 1 8.389563273163997 1.8301251368528635 -5.758576029461403 0 0 0
573 1 18.752590834106627 6.4654034290074085 -8.022346816538654 0 0 0
222 1 -8.222023457013346 9.021313422197943 -7.765885829982424 0 0 0
768 1 17.66420362224788 6.738193840672496 -7.9904963354546945 0 0 0
164 1 -19.357520893660812 10.927045149163938 -7.4717650662221855 0 0 0
677 1 -19.274584425878697 11.886004430915598 -6.890257895737639 0 0 0
232 1 -7.866844204840429 9.71825982426305 -8.562891083402748 0 0 0
149 1 -8.473011383729043 8.817838104700273 -8.840458171927544 0 0 0
118 1 0.8514892282656258 9.842789345641103 -9.312503676282931 0 0 0
992 1 5.60140535175005 8.241432102838434 -10.526259582369734 0 0 0
541 1 -19.237458416577045 11.903697075044006 -8.007977278822667 0 0 0
513 1 10.766447093942446 13.074906226386364 -7.978343350844304 0 0 0
445 1 19.798920337922667 11.674198572155525 -7.475478360694779 0 0 0
100 1 -18.022321381032896 13.00034831649997 -8.920633733552275 0 0 0
293 1 -18.087279229773525 13.870983005869958 -8.22077095737913 0 0 0
285 1 -8.675634910159966 15.1240747658478 -8.13709110591944 0 0 0
779 1 -9.1137060558951 14.104455543413561 -7.972064329435428 0 0 0
672 1 -8.204979785960115 14.213983314355293 -8.61247907723343 0 0 0
865 1 -3.7396460656061064 15.449021836527166 -7.90245365419201 0 0 0
774 1 6.551205885532376 15.019812264842564 -8.636249726035697 0 0 0
14 1 10.79103227854798 14.093155283132004 -8.4361651580291 0 0 0
108 1 11.62445751058263 13.764963491839854 -7.762948740172995 0 0 0
704 1 11.850450738256896 14.360946273269441 -8.683609824592711 0 0 0
7 1 4.014369662007793 16.536557398457102 -7.342547721513495 0 0 0
184 1 3.154664141856815 16.807718387797877 -6.67357245052448 0 0 0
446 1 11.455783410407976 18.150347610826486 -8.623662574091592 0 0 0
789 1 15.823651639489313 -19.083064756473057 -4.316460474414755 0 0 0
880 1 -16.62830319902519 -16.59874301551542 -4.7711802304543625 0 0 0
299 1 -5.4535261951728 -15.961582805331112 -5.950331224581616 0 0 0
582 1 -4.646424015942135 -16.576049236797346 -6.430474663263141 0 0 0
491 1 1.3159372924458423 -17.860542249907724 -7.467981278321367 0 0 0
775 1 -16.379768883818354 -15.515230256242562 -4.9363127568791425 0 0 0
879 1 -13.116673206638922 -13.358241063510777 -6.63295611170405 0 0 0
268 1 -9.972080960457431 -15.472952887451815 -5.433683291117322 0 0 0
635 1 -13.302698735570278 -12.65771028583492 -5.775882062275899 0 0 0
932 1 2.109126587317422 -12.328290019231785 -6.138493258893826 0 0 0
57 1 2.3976720128871674 -11.841845466543038 -5.168955062253776 0 0 0
788 1 15.832529279858884 -11.794731722714518 -5.28633840741853 0 0 0
303 1 17.8438119810446 -14.107031120365367 -7.743073474256087 0 0 0
591 1 -9.932779340769455 -8.721336477818914 -4.440610449465027 0 0 0
287 1 -7.283996106893668 -9.946697692875263 -6.77681948657788 0 0 0
613 1 -6.184508616491305 -9.778175673469308 -6.635522194402509 0 0 0
778 1 6.169734036179254 -9.769415002335554 -5.8433355889536545 0 0 0
157 1 7.042210170109117 -9.936949331651634 -6.525519144195682 0 0 0
636 1 15.107049862295508 -10.995576924242698 -5.59450665973327 0 0 0
469 1 -16.592072606121192 -7.8135896378174685 -6.511885730122322 0 0 0
387 1 -11.00734856549413 -8.749703556917222 -4.768382910261626 0 0 0
410 1 6.1870996671300444 -9.284852356322256 -6.853032675461703 0 0 0
72 1 6.88589641972793 -8.932356853937636 -6.0460555000386424 0 0 0
1070 2 -5.868968780191649 -5.543588856605391 -5.861026404226012 0 0 0
1018 2 -2.591075014584538 -5.2195106244554585 -5.165420950644822 0 0 0
1136 2 -3.68917589618602 -7.315953682596861 -7.588430221209687 0 0 0
867 1 16.849646621857534 -5.685954659098885 -4.648530505066112 0 0 0
645 1 17.7233813294538 -4.978788028610002 -4.653587602708712 0 0 0
651 1 -9.753431831128363 -2.322820177872471 -5.946303813789109 0 0 0
1125 2 5.99380908537832 -2.8045582437933003 -5.3853525335670716 0 0 0
966 1 16.73951905034189 -4.659663420195992 -5.083467818804029 0 0 0
1051 2 -7.89165184397257 -2.855937024174481 -5.715464376911298 0 0 0
1106 2 10.516080557592835 -0.5693818399068548 -5.3712140843500045 0 0 0
531 1 9.65080446951931 -0.29007229958404324 -7.173235710825777 0 0 0
28 1 15.030756769883599 2.925531863841269 -5.008016799764559 0 0 0
411 1 -13.132399843257707 3.702246033732855 -4.694878164066491 0 0 0
125 1 14.858237974435028 3.620592590446803 -5.868292006338592 0 0 0
744 1 14.36242318667589 3.819311095396189 -4.88487073921438 0 0 0
262 1 -13.370149633518952 7.129633556370687 -6.813991143752892 0 0 0
517 1 -19.98229993717012 11.078991074409585 -6.5570320750851785 0 0 0
600 1 -9.711662439939552 9.789062699113282 -4.5970749442634125 0 0 0
840 1 -9.069637332521468 8.98672557248759 -5.049021207778302 0 0 0
532 1 9.693576166581725 8.498297642950858 -5.0580441558079094 0 0 0
584 1 -18.874904792366028 10.932786389610849 -6.465408538468069 0 0 0
650 1 -7.345388305346888 12.594659058131382 -6.499439117184921 0 0 0
725 1 -6.931437679213098 11.915687922886196 -5.705616401149478 0 0 0
933 1 8.19969304183515 14.174703143901773 -3.439713025189606 0 0 0
455 1 12.671061542766655 11.723622933171756 -5.698680524172503 0 0 0
26 1 13.652096984063634 11.710340604627449 -5.062311266250933 0 0 0
94 1 -8.127791809409905 14.377479136556877 -7.511939774691038 0 0 0
415 1 -3.3847557067939733 14.468175065677853 -7.487829131000787 0 0 0
916 1 7.209590976608401 14.671110263251782 -3.644669542963715 0 0 0
628 1 16.23197110745117 14.407647001691783 -5.197906248885496 0 0 0
923 1 4.209530875546995 16.957284047587486 -6.320366262325115 0 0 0
386 1 8.157473324659563 15.114442513420451 -4.043953941183667 0 0 0
973 1 11.072299372690544 16.073187962439683 -4.981583967854382 0 0 0
604 1 -18.005227384547837 19.796880510324623 -6.520079814047923 0 0 0
281 1 6.92660522876156 -19.795178981125364 -4.340737472627804 0 1 0
428 1 6.450606295819873 -19.250040166698593 -3.482683902490293 0 0 0
8 1 14.909283967468602 -18.858000216893203 -3.705560512651774 0 0 0
654 1 -18.08970880694859 -17.304752173490282 -3.8582556684983267 0 0 0
640 1 -0.09797392292076842 -17.075699779242058 -3.0645480425667233 0 0 0
29 1 0.9646512222190848 -17.407452768044326 -3.2085215105490708 0 0 0
23 1 -11.16395279619872 -13.444998049029993 -2.8276669484042007 0 0 0
777 1 9.668970997202262 -16.090264581119623 -2.5253939180142853 0 0 0
691 1 -2.980622967364847 -12.715799248127501 -2.463117037397253 0 0 0
168 1 7.31503623047091 -13.075090674492898 -3.835664169720901 0 0 0
776 1 11.444238365836704 -10.302246820891739 -2.6082051943557145 0 0 0
11 1 15.872848445962521 -10.782995352869023 -4.801870260490281 0 0 0
152 1 -15.74959631239889 -6.437442917417362 -2.9509697513578534 0 0 0
1033 2 -7.38167233111969 -7.296671299123911 -3.515798034338485 0 0 0
267 1 -16.51195199580602 -5.680057431397483 -3.2666228378739093 0 0 0
464 1 -16.38672769399203 -5.923286003266105 -2.1803297380672526 0 0 0
1003 2 -4.9150002584985835 -5.2329313663815205 -2.7243800274205614 0 0 0
1132 2 -4.285300675978849 -8.023269881767309 -4.3727591768879845 0 0 0
912 1 13.962260987755606 -6.004477304085786 -1.8720475548316124 0 0 0
499 1 17.540927642744975 -5.640471992081716 -3.7684451804072054 0 0 0
985 1 16.847765328328435 -4.785215088761576 -3.9756920643281317 0 0 0
1019 2 0.4013021250917077 -3.9093941672569206 -4.207772408221927 0 0 0
1084 2 3.397202269174918 -2.6975495628175907 -3.2611587993300883 0 0 0
520 1 -9.124059271925129 -1.5581380863570755 -6.468345173110773 0 0 0
290 1 9.217783396795083 0.5496468337531927 -4.31333982552055 0 0 0
664 1 10.25118837435806 0.7168156036292958 -3.9231821931131727 0 0 0
988 1 16.301478959243983 -2.421017341472569 -2.93730256857146 0 0 0
928 1 -17.58953852366335 2.156333917298055 -2.4020208510845356 0 0 0
1075 2 -4.671994556534307 0.25387661911113335 -3.76701123410655 0 0 0
1050 2 7.417121070718597 0.26632865384345356 -5.051255386338232 0 0 0
1100 2 4.6150153224961565 1.1654213230990083 -3.41746483633451 0 0 0
1135 2 9.388028847146481 -0.039181316170264366 -2.337014276636542 0 0 0
610 1 -18.417847616156575 2.7915670801623405 -2.8146382415955626 0 0 0
373 1 -17.354879818577178 3.1473362206965154 -2.8741106170141557 0 0 0
113 1 -12.073895023619011 3.6252847896548968 -4.329407368599144 0 0 0
1056 2 -7.525627634844328 1.8662528273987635 -2.9479772925479697 0 0 0
1129 2 9.615272958309557 2.522187101652203 -4.316530849071058 0 0 0
666 1 15.471222485166276 3.9582727685054397 -4.994690059917402 0 0 0
580 1 -13.837548954806808 7.384770364187528 -3.088560333828931 0 0 0
655 1 -6.025069530473363 8.687691901584186 -3.3681487041076585 0 0 0
1006 2 3.516590771275994 7.423403907967206 -3.991344875140776 0 0 0
861 1 9.656773879420768 8.03131094156451 -4.0380000033036385 0 0 0
623 1 -11.549429617209482 9.630414392394258 -1.922299025372333 0 0 0
724 1 9.493202106172681 9.13550665655257 -4.15597100562077 0 0 0
688 1 0.8973037222479757 13.393808783463959 -3.3415461691091948 0 0 0
597 1 -2.0999413270184113 14.333535217410459 -2.301867449367027 0 0 0
73 1 1.6574706830323676 14.219617561135244 -3.3284755335891933 0 0 0
545 1 7.403221494666571 14.186475939453032 -2.6620124921856463 0 0 0
936 1 6.869166755132487 15.165450004550978 -2.693633377412934 0 0 0
631 1 7.945442952925952 15.146565243901073 -2.954911762996715 0 0 0
463 1 -19.500649625340333 16.44527436613494 -3.615261612893295 0 0 0
309 1 -16.79673082499753 17.365411178139727 -3.4744430018328654 0 0 0
905 1 8.463389680772377 14.353254425838033 -2.3661782376980054 0 0 0
619 1 -2.3637767186075265 18.923766067684504 -3.516575970876704 0 0 0
423 1 -1.8910136008665719 18.99110502857541 -4.532366624807541 0 0 0
429 1 -1.4065165664893318 19.493814457386804 -3.6534092190442187 0 0 0
726 1 15.507561585303451 -19.785152003785687 -3.4997098241544444 0 1 0
165 1 -13.503879354204969 -18.021712114577873 -0.44252991413992837 0 0 0
511 1 10.024336174091793 -16.903613417999836 -1.838217083875067 0 0 0
798 1 15.928157226732054 -18.776984238916498 -3.24160497300899 0 0 0
745 1 -18.52719118722586 -14.462968762603758 -0.5948696798640545 0 0 0
127 1 -13.381995794172802 -16.906517530358695 -0.48003616117493375 0 0 0
804 1 0.3874929400852877 -17.748058582314027 -2.308057110176724 0 0 0
397 1 4.101471160402999 -17.177431009343998 -2.0802543564124254 0 0 0
307 1 8.941306608256543 -16.609058583088334 -1.8460930910487479 0 0 0
379 1 9.70954005539028 -15.91151377966241 -1.4180300733592224 0 0 0
851 1 19.894516296454736 -17.492539196244106 -0.5100982573632049 0 0 0
583 1 -18.574789422013758 -14.01444502968908 0.430892794697927 0 0 0
41 1 13.21213047138056 -14.118615584373945 -1.4459288801618482 0 0 0
707 1 13.506697411184428 -14.764818271872567 -0.5766758005560936 0 0 0
615 1 14.285724073043948 -14.168554341322345 -1.1221433407120118 0 0 0
265 1 -18.866800425219548 -13.40980016343669 -0.4692043743620808 0 0 0
863 1 -19.586389984693536 -12.587710021043469 -0.1915634244429545 1 0 0
220 1 -2.0193277600221164 -10.675459454113252 -0.7404645025316363 0 0 0
40 1 9.672557702297134 -9.082155510973235 1.0182606553179574 0 0 0
661 1 10.136516325017036 -9.923753395266687 0.45634819465153886 0 0 0
284 1 17.65662967925976 -9.316656030577976 -1.106910361850177 0 0 0
705 1 -5.601169889005747 -6.5179025374818025 -4.115699688011233 0 0 0
352 1 -18.835729778817388 -5.485071246160166 -0.10057893294810652 0 0 0
458 1 -15.589327252502951 -5.348002594561542 -2.7251830112786055 0 0 0
494 1 -15.30505834792974 -6.126045957105912 -1.9712237966904893 0 0 0
1031 2 4.38834059863693 -5.346277051335929 -1.4231316484166285 0 0 0
737 1 8.988803873755824 -3.765819985843753 0.39155324784523265 0 0 0
163 1 13.540929027317095 -6.211547949427963 -0.8524598547921289 0 0 0
846 1 -19.042613690093436 -4.384941277000215 -0.14513720226822902 0 0 0
841 1 -16.642133016999633 -1.8831573089424296 0.37982424617367955 0 0 0
1072 2 1.3401703102324034 -3.9743233201765977 -0.946146167436512 0 0 0
904 1 8.900076152156357 -3.465063229578383 -0.6874166227425093 0 0 0
313 1 -16.628995978508797 -0.8964121589418667 -0.14330159231995848 0 0 0
834 1 -8.767155984462466 -0.2629769513365815 1.27482862925612 0 0 0
1120 2 -1.2541413937139878 -2.0715956988578235 -1.9070084531872002 0 0 0
1124 2 6.3885538343419315 -1.4850918392763923 -2.3344258582237662 0 0 0
590 1 18.865351436349936 -0.12355500515962364 -0.9963162979332847 0 0 0
50 1 -9.570916614196687 0.4794318097499917 1.4509146877357804 0 0 0
1109 2 -9.435359157320201 0.48853967420827044 -0.44255079487483134 0 0 0
819 1 19.655821337857816 0.46693223255812233 -1.5317494215643583 0 0 0
421 1 -17.8789679489072 3.108191600405523 -1.8822933378922904 0 0 0
1079 2 -4.372052881769228 4.090814624367458 0.17281673841706752 0 0 0
1011 2 -1.442646027692204 3.2716938200175627 -1.3776500813402357 0 0 0
441 1 14.793821813714029 3.2573390436458345 1.69237184660435 0 0 0
147 1 -11.651877051983847 9.004067552009126 -0.9964593271456824 0 0 0
1126 2 1.500920682300568 6.482504184976941 -0.9885508838605008 0 0 0
1028 2 4.652693380375847 7.663711825595375 -0.8415359953099084 0 0 0
673 1 14.4950191167373 6.706300857718073 -1.8147446992170662 0 0 0
392 1 -15.534069192503313 9.165053986416083 -1.0819329432030527 0 0 0
408 1 -12.05173134468903 10.05277008818004 -1.0115617505906391 0 0 0
953 1 -3.923610589435983 9.940903289248752 0.7639954612612471 0 0 0
444 1 -4.133944727310839 8.853782971968439 0.8951085592519796 0 0 0
266 1 0.022122402188446095 10.42653714486785 -1.421405084008822 0 0 0
1115 2 0.5686000285825217 9.494409566612063 0.1942259187751291 0 0 0
522 1 6.182687378625859 10.96546529886211 0.4070066561088575 0 0 0
869 1 -14.913612190468882 12.689360925553721 -0.5551937184256973 0 0 0
891 1 -9.031600968535018 14.698364885803786 -0.4746091461923005 0 0 0
938 1 -15.12190922379429 13.761085386912427 -0.8159823515753849 0 0 0
850 1 -9.189791875811228 14.617160343775481 -1.5873186176737337 0 0 0
828 1 -8.244486785978863 14.235219316275462 -1.1195752614737149 0 0 0
854 1 7.638390113141221 14.961433939233151 -1.8990533177593127 0 0 0
817 1 -9.456262347014256 15.56247032162332 -1.0511118597254054 0 0 0
236 1 17.182841131649983 17.08892087999094 -1.0462726695660993 0 0 0
803 1 -5.057097144723096 18.085827289258976 -0.33876794280730144 0 0 0
652 1 1.2688749614824273 -19.905711238735496 -0.03569737360741396 0 1 0
146 1 -11.087094630007625 -19.025612801856777 1.9389290675540083 0 0 0
194 1 8.702581868587798 -18.644115965894894 0.33197663645219133 0 0 0
996 1 -1.95177147262756 -16.45647821047934 1.0363210232582492 0 0 0
961 1 1.467165293157399 -16.296837509762067 1.5247521044204435 0 0 0
156 1 2.3869564084364683 -16.53522104707055 2.1224105761633307 0 0 0
542 1 1.7219771945472162 -17.364187337720395 1.760732345384115 0 0 0
251 1 -17.591492280018183 -14.154252057210883 -0.074173265841262 0 0 0
599 1 5.7091120286248165 -13.915269751675922 0.7123621247012565 0 0 0
667 1 -2.415610679124005 -11.114614029716561 2.831608564649654 0 0 0
24 1 4.665668153274307 -13.532853987717493 0.8229140293053321 0 0 0
218 1 10.352361374731828 -10.164394432046942 2.3174275354342524 0 0 0
504 1 -19.578327746956635 -13.540865391854721 0.38577939478831835 1 0 0
255 1 -12.296255091369723 -10.57656036122717 2.439292575598816 0 0 0
225 1 -11.607113373261088 -10.77112865853997 1.5727977787443796 0 0 0
1049 2 -2.842778575658065 -10.562537399823078 1.01716426239363 0 0 0
727 1 3.3955869510498307 -9.868041515886588 0.020237300780193115 0 0 0
516 1 9.63567933296195 -10.11502182810724 1.448950126192834 0 0 0
129 1 10.469501837299193 -8.512276396666731 1.5603151942975877 0 0 0
963 1 10.657992884954027 -8.921345955893186 0.5260103112834837 0 0 0
407 1 -17.98624783119119 -4.763182760306038 -0.21127731283593423 0 0 0
577 1 -18.547333268363655 -4.829027075094953 0.760515837783339 0 0 0
178 1 -9.144807269801946 -1.0899432726987015 3.0192546987389655 0 0 0
1097 2 -1.700845536981256 -4.493426307242852 0.39262874698528244 0 0 0
380 1 -18.214546818915693 -3.8327702457688027 0.3699925190267156 0 0 0
83 1 -9.832356922253846 -0.5486498361774923 1.1018092891070674 0 0 0
1029 2 7.1054604928633855 -3.8622271580787078 -0.0664711364496004 0 0 0
1063 2 4.119984629904801 -2.3180428675346323 -0.002900522585791843 0 0 0
864 1 -17.467832702768654 -1.1473975338386033 0.5585822459679604 0 0 0
824 1 -16.44366044224187 -0.9297820003557583 0.9572537130235498 0 0 0
15 1 -9.450125424427275 -0.41013300776027695 2.1475960002697745 0 0 0
1107 2 0.022937618211223892 -1.713212916756408 1.1970022389586652 0 0 0
1017 2 2.8964028291618216 -0.925316410808693 2.78216037641804 0 0 0
329 1 10.37645662221251 -0.7995610879867535 1.4986295371961276 0 0 0
473 1 10.822607979115098 -0.4224808131327985 0.5406947685196177 0 0 0
764 1 9.719464499799267 -0.3301381382317381 0.7134788965399808 0 0 0
718 1 10.436207306978874 0.3012331162165495 1.30124561349128 0 0 0
1140 2 -7.3137092788404585 2.487735338728889 1.1639728252759738 0 0 0
1093 2 9.13817413848923 4.869637999156214 1.1273867728872582 0 0 0
839 1 13.861238541910614 3.8205940787580985 1.955524002547759 0 0 0
460 1 16.62974796987409 2.7346439860782894 0.5419553257273005 0 0 0
716 1 -13.653540121635448 6.432097104881518 1.2795974572748037 0 0 0
1088 2 -5.253818759985569 7.309541534714219 0.8560724638719522 0 0 0
1047 2 3.285255772073671 6.178836868553326 1.8624622522427146 0 0 0
111 1 10.140650956289793 6.525131261795488 1.492374335650124 0 0 0
254 1 9.078907147614283 6.699370059965641 1.734053426239144 0 0 0
131 1 11.09845435271211 7.017870641773993 1.1115581952261864 0 0 0
203 1 -19.146523572485886 10.096038268451725 0.9013192038639717 0 0 0
395 1 -11.251839210388043 10.78113272397815 2.473240306342877 0 0 0
740 1 -9.204962166181588 10.916937464502583 1.7961597766317847 0 0 0
264 1 -4.206762319265979 8.485642376061271 1.9567938775879106 0 0 0
508 1 6.364382384435065 9.869396226585097 0.26024565746696804 0 0 0
68 1 7.0135068780273535 10.453683476833424 0.9640519253738928 0 0 0
433 1 7.096786600703961 10.615035477255118 -0.1446994376694883 0 0 0
86 1 14.491031486123779 9.359445562686332 1.0222033631280292 0 0 0
552 1 13.61193067663702 10.056903154284194 1.047326708808176 0 0 0
766 1 19.952328336568275 9.826695464668575 1.5139427604872666 0 0 0
37 1 -15.620832545695183 13.292833669522004 0.07379694791795514 0 0 0
42 1 7.163339383301117 11.486516525134213 0.556391807440673 0 0 0
269 1 11.892987790159811 16.6761456864893 1.2958940580396212 0 0 0
679 1 15.603723102317307 13.950860469840299 1.0972247794964274 0 0 0
226 1 8.62805481458006 15.43314034884714 -2.1279563856489925 0 0 0
221 1 12.225571402089658 17.38404621537413 2.1010151828169343 0 0 0
324 1 12.861934890373968 17.229809755284272 1.189597658437014 0 0 0
105 1 11.89121274018846 17.784507772466593 1.1114709967419154 0 0 0
319 1 12.777836097848258 18.255261198859575 1.6403837159682706 0 0 0
16 1 13.887109616478032 19.037532085604237 1.8650195757003651 0 0 0
214 1 -17.719888928215898 -18.17321652461459 2.749870802625022 0 0 0
138 1 1.3702753666779444 -16.67759818395062 2.576217107313676 0 0 0
442 1 12.551825980281727 -16.061725802655342 2.793672407020922 0 0 0
971 1 15.298142904688145 -17.294603965757027 2.5173277919799224 0 0 0
365 1 -18.71860503506859 -14.0192257626147 2.9897151535171687 0 0 0
721 1 5.032878225611733 -14.359942440114516 1.481952485951521 0 0 0
4 1 -17.57159418692234 -10.66127605509161 3.3254711546369298 0 0 0
199 1 -12.414880788887121 -11.505221090486096 1.8243377443331823 0 0 0
120 1 -11.530615282669544 -11.397097218921258 2.50333405771622 0 0 0
603 1 -3.49246899772755 -10.797934509268174 2.834352462954777 0 0 0
790 1 -17.8998582083523 -9.838728085985844 4.0150967942834255 0 0 0
209 1 -11.207775042646453 -10.32463640197284 2.519278530373093 0 0 0
660 1 0.5688629158418559 -12.560614938708996 6.527578880015972 0 0 0
374 1 9.79935172010034 -9.223653491545615 2.105812836997584 0 0 0
948 1 10.614885476450427 -9.599192293673504 1.404022209086788 0 0 0
79 1 14.334741212880328 -9.340364637313344 2.376779140543111 0 0 0
242 1 17.434576873458603 -8.339734999351904 3.0850559353016704 0 0 0
815 1 -16.82270779141252 -9.918669063623899 3.709747843319453 0 0 0
331 1 10.873161575298083 -9.163511550292089 2.386936072416582 0 0 0
425 1 17.42828345314929 -7.309507011897135 2.645488631213132 0 0 0
733 1 18.35353699257162 -7.702376379259201 3.1486290615757 0 0 0
663 1 -9.36479842782325 -2.0702061853781726 3.565105496609219 0 0 0
1045 2 7.295553125651609 -6.023036775233615 5.682791744439412 0 0 0
153 1 17.44626981560415 -7.44665965546403 3.76103156657424 0 0 0
256 1 18.050771968674688 -6.63261422832274 3.285024833209053 0 0 0
780 1 -15.956217799056864 -1.8870825769246915 1.26106874566967 0 0 0
972 1 -9.959742010271736 -1.1423535307818153 3.7761543895538345 0 0 0
294 1 15.653788544646053 -2.267666952976383 4.113845408559279 0 0 0
403 1 -17.059677472327387 -1.7487723280874432 1.410439896400681 0 0 0
1037 2 -3.0643303409507423 -2.2073474927208636 2.4528025273794563 0 0 0
1117 2 10.051687017178018 -2.159633773243002 0.16626928184561562 0 0 0
1133 2 8.887596182211862 0.009436407535016383 2.4352814867348394 0 0 0
292 1 18.3166248743407 -2.027431126827465 3.772842968643915 0 0 0
338 1 -10.470567959737009 -0.034738539773288266 1.8561282956568925 0 0 0
1058 2 -9.776889329960326 1.177745884985973 3.1727469433706577 0 0 0
1146 2 -1.181429911043115 0.3437911786316865 3.595953026524928 0 0 0
1023 2 -0.9470330083426945 3.6861363324992413 3.113385047784197 0 0 0
135 1 14.621138367847102 3.5862708355950343 2.7495120617269997 0 0 0
835 1 9.747820010619693 6.13868486590699 2.450317411305687 0 0 0
476 1 14.099181096345786 4.5774773266353685 2.746464496276654 0 0 0
418 1 14.855551033789132 4.344689900029023 1.9536726317534439 0 0 0
1105 2 -2.416263927612762 9.140119641543146 1.7065960045784039 0 0 0
1007 2 -0.01946739150483024 6.7739416675283275 2.0778854611852977 0 0 0
171 1 10.235426533609898 6.4249034573734 4.9536316067806565 0 0 0
238 1 -12.106743670238393 10.565285008616984 3.169091387048825 0 0 0
38 1 14.074968155887834 9.702805175005372 2.006556899868747 0 0 0
122 1 -12.019055293369105 11.573391805745267 2.6841565216610697 0 0 0
318 1 -4.3580591761093626 9.56486942439352 1.7273670876381348 0 0 0
874 1 -3.7746397296992953 10.518522198653626 1.7120538860040668 0 0 0
340 1 8.106783099642126 13.24488987288441 4.122182189126369 0 0 0
477 1 -5.324798459192408 14.03458201469956 2.9802143986551166 0 0 0
786 1 5.826735489365523 15.863160450126603 3.4432906949046127 0 0 0
749 1 6.497493789002789 16.525095316662377 2.850363845909505 0 0 0
1 1 15.613897798730203 14.414103802255184 2.119586330231259 0 0 0
78 1 -18.58019462918786 16.334173667771122 4.0254797929351485 0 0 0
539 1 -12.110781501587157 16.23449647555126 3.112293439306271 0 0 0
878 1 -9.144793931556872 17.044865971819014 3.6682602742024946 0 0 0
112 1 5.419747001423542 16.787304792790643 2.93474430678993 0 0 0
412 1 4.789715571900075 15.87128202841761 3.033484374600709 0 0 0
587 1 6.851252891856089 16.088839498140803 3.821654947500192 0 0 0
757 1 7.116925925220105 17.142888620450936 3.543489930453718 0 0 0
529 1 -11.296219639566212 19.983507634075465 2.423197137054067 0 0 0
124 1 10.077249207274352 19.005514227375407 5.640824088561544 0 0 0
922 1 -12.886380026241678 -19.72704707854506 4.750255431261589 0 0 0
488 1 -1.1569211105832322 19.880417271197892 5.6948855071908575 0 -1 0
947 1 -2.178132451694227 -19.661324615795742 5.61190008185298 0 0 0
350 1 -15.787689578011246 -15.889073179678256 6.921906264256182 0 0 0
320 1 2.7360799626885055 -15.530729429481926 5.211124561225823 0 0 0
304 1 7.578893775546011 -16.03843363623373 5.066723715869583 0 0 0
370 1 -8.871845983107786 -14.215273087724713 6.294192698429193 0 0 0
714 1 -8.086589761885653 -14.262323455124402 5.493517995535209 0 0 0
997 1 -17.266693312729174 -10.679329583183021 4.405605751906481 0 0 0
115 1 -14.751965531768931 -11.43301827818412 6.857727323650436 0 0 0
848 1 -0.0670777167585115 -13.441667770049216 6.776903641403879 0 0 0
283 1 16.373211996345596 -10.435075789576809 7.141533267542546 0 0 0
807 1 18.134662858235178 -10.121057872212022 7.468454204360806 0 0 0
968 1 -10.524693983851325 -8.531786589199577 6.262795322697052 0 0 0
1016 2 -2.629059952056304 -9.863673225835397 4.304528225560474 0 0 0
239 1 6.496049685588611 -7.793136261995253 5.776557696180192 0 0 0
856 1 -16.138826215704356 -5.2522073431183625 6.151184209692843 0 0 0
808 1 14.749276717289582 -6.3077751278862975 6.504677306799855 0 0 0
1022 2 -8.353017079027783 -1.1132144703984468 4.8809568485838595 0 0 0
1143 2 -10.621216079832655 -1.9388388583250193 2.1201963996430173 0 0 0
1030 2 0.03762579636194155 -1.0471904407097472 6.430804709666598 0 0 0
1121 2 3.402742444850094 -0.7223104391719283 6.083841682742375 0 0 0
1039 2 6.054442196195477 -1.1411069231061366 3.9781545578926965 0 0 0
868 1 17.89709859481078 -0.9941701002026319 5.872003943670651 0 0 0
279 1 -14.365549225492032 1.5506522217665306 6.186980264255523 0 0 0
141 1 -13.299745114228454 1.4762464660370087 5.842819793220795 0 0 0
1110 2 -6.800485740584106 1.9931162028003013 4.450642845109844 0 0 0
859 1 11.113813951627568 -0.4510443995034983 8.591888137558325 0 0 0
698 1 -13.83907668521234 2.459255237208558 5.790510499259535 0 0 0
486 1 -19.75156043667491 6.378445114614025 5.82176508002049 0 0 0
927 1 -8.990088084080144 4.9496615976435105 7.988563966014108 0 0 0
962 1 -8.066133533869035 4.518306942599423 8.459159639657248 0 0 0
1035 2 -7.884771369743103 4.550129401464919 6.488958541309397 0 0 0
1013 2 9.920991290804473 4.849057081850784 6.067275923129875 0 0 0
185 1 9.690569699888588 5.361550441709129 7.877109625968782 0 0 0
253 1 -6.38395942703502 8.368489639595985 5.318477098768827 0 0 0
713 1 19.3194985481825 6.990163918618397 5.670735230296225 0 0 0
187 1 -14.34989269015114 10.408817660023203 6.941173546632552 0 0 0
550 1 13.787114397053763 9.858805347186673 5.898312696415394 0 0 0
315 1 19.831231038399956 13.409344184696863 5.327647683833603 -1 0 0
90 1 -10.062204459113692 12.001858264092514 4.684126677881647 0 0 0
298 1 -5.595371625634692 12.685498032813632 5.862252174647863 0 0 0
64 1 1.2626027987056194 12.751574923024442 5.704183963466075 0 0 0
710 1 -16.352431422884475 16.47701663899758 5.9344091881423635 0 0 0
252 1 -5.0712519698574585 13.521402211467656 5.326725099002004 0 0 0
274 1 0.687659534703363 13.567558134255322 6.217871556962531 0 0 0
689 1 18.964708742940637 14.118443703700656 5.2488728854258975 0 0 0
703 1 19.393239747425678 13.865498740332477 6.255021269353791 0 0 0
101 1 -15.404293889539652 16.48708107721692 6.53530157273023 0 0 0
925 1 1.448643060468761 16.4741614406999 6.990814043936836 0 0 0
720 1 5.039620514070074 16.477527588605483 3.9438999787305726 0 0 0
896 1 6.070642425896863 16.887722056555123 3.832465386090068 0 0 0
770 1 16.812970537442652 17.75589598041636 8.019467962140084 0 0 0
289 1 -15.600050862078081 17.295959151296632 5.782104568525222 0 0 0
892 1 1.3243315949852608 17.336065649976064 7.68441020751329 0 0 0
201 1 10.90730430935358 19.630746855285267 6.064602711397747 0 0 0
700 1 11.142430235766122 18.663026419585535 5.55958395505656 0 0 0
616 1 18.548250541504835 19.436145819105686 5.159212169295513 0 0 0
624 1 -16.52665190330585 -19.261622943623085 7.25808809621628 0 0 0
608 1 4.125526291765295 -18.376693377059585 8.406345897488787 0 0 0
791 1 9.936197760930687 19.54221222424235 6.609323366587561 0 -1 0
151 1 -8.188557415838003 -15.103463523104834 6.229729265131245 0 0 0
809 1 -0.41582143979073183 -13.402730838556034 7.82994762471621 0 0 0
818 1 -0.5608411217063689 -14.337576466408386 7.211206787545946 0 0 0
27 1 -12.106170468740727 -14.82721045106986 10.15240541920262 0 0 0
487 1 -7.7875487131193974 -14.110010043789607 6.564637095250647 0 0 0
12 1 0.45900742924980653 -14.057474111460262 7.558802487094891 0 0 0
48 1 -15.619425470168919 -11.467860744696047 7.569206807836471 0 0 0
852 1 -14.679746480536696 -12.036185947210484 7.801604293457378 0 0 0
581 1 0.5659862577094075 -12.949479191673557 7.573670698808184 0 0 0
205 1 1.0438208708979875 -13.551269456509237 6.755877632865983 0 0 0
5 1 16.938788798811576 -11.385324067803843 6.939627400824863 0 0 0
328 1 17.244311934785348 -10.71681172405581 7.778314776108611 0 0 0
969 1 18.027413395973262 -11.191243319691225 7.141655601675645 0 0 0
743 1 -18.494308397381293 -9.788265328300897 8.762801506776862 0 0 0
371 1 4.753031826737451 -10.73249385742388 7.3316270648631825 0 0 0
515 1 17.390241904155225 -10.397759169090733 6.6855351500123845 0 0 0
82 1 7.2118499035365895 -5.324185153911895 7.498713090177815 0 0 0
682 1 14.477263268245572 -7.267186048685304 7.019963215981731 0 0 0
735 1 17.112283960691165 -9.653716071692193 7.468348691872359 0 0 0
1087 2 7.368801075966902 -3.4065499000623074 7.803540462813464 0 0 0
1010 2 9.828324420632706 -1.457438406007288 6.545921183042334 0 0 0
140 1 18.19738075409861 -1.9956862724837277 6.279816726338334 0 0 0
296 1 -17.770261991158673 -1.3483869634658119 7.189214812892783 0 0 0
1044 2 -1.7470838238458937 -2.789832124480391 8.7294600710832 0 0 0
355 1 9.402776893045326 -0.23365083575399112 8.009335781206559 0 0 0
332 1 10.16162233072459 -0.9799706437574867 8.363782707202548 0 0 0
480 1 10.141343049794507 0.05593362431724273 8.797069590103938 0 0 0
918 1 -18.17417616966563 -0.3866590081385835 7.603767253770934 0 0 0
685 1 -13.547356258667586 2.031454448164067 6.7864054372546665 0 0 0
1099 2 9.802952113840371 1.6937031771696627 7.828857811978995 0 0 0
827 1 10.481935832296207 -0.10495726434323274 7.7407714904115315 0 0 0
1086 2 -6.451953570711642 3.785557565029487 9.30851647260123 0 0 0
1071 2 -3.2133770984815717 2.9542187285713624 8.932078526084725 0 0 0
866 1 9.596273566044372 4.252471839342701 7.975425153124254 0 0 0
558 1 -16.039395521819213 6.797037793778132 8.183572402447263 0 0 0
950 1 14.919838263844504 6.571936272221101 8.78030578285226 0 0 0
519 1 15.866324756119873 6.182622139661522 8.319350433207905 0 0 0
453 1 -16.826404822001354 7.578783900422554 8.012062556423059 0 0 0
572 1 -8.088249110248725 5.583488960601326 8.125356072360987 0 0 0
384 1 8.83768423610443 5.92534317667885 7.433985746095685 0 0 0
271 1 15.031685541515909 6.547935404678868 7.663672940630232 0 0 0
681 1 -15.097498010351686 10.469395571805352 7.773048590908042 0 0 0
638 1 -14.001279108312636 10.591650488675018 7.98984137050058 0 0 0
186 1 -14.7538615974373 11.227994897780224 8.522131295399504 0 0 0
396 1 -14.556671183659653 11.394143609498514 7.432124323202221 0 0 0
913 1 -4.7190739359823155 13.196675824818733 6.342265983219597 0 0 0
553 1 1.548940874595837 13.073082635912247 6.740817207949438 0 0 0
462 1 -12.325035761188637 13.661126235975114 7.295398875536734 0 0 0
821 1 -16.200138380340324 17.254370019941675 6.7297518803868535 0 0 0
536 1 -4.816852744991678 17.275401040911305 6.967706601233805 0 0 0
295 1 1.2964970008078125 16.276720359104125 8.087606587617389 0 0 0
978 1 0.4619944564598007 16.68802894764923 7.462945655074605 0 0 0
665 1 -1.9951896823098811 19.503431155070807 6.339016059999634 0 0 0
964 1 10.059925494651937 18.862180922310106 7.486372160351716 0 0 0
967 1 10.625212046770331 18.652117543283087 6.547905575350254 0 0 0
404 1 17.93881304646976 19.16376633684966 8.310007479478667 0 0 0
538 1 17.37545870331966 18.591444056811056 7.529047385896919 0 0 0
995 1 -14.657246904720857 -17.20520192052229 9.534479449149599 0 0 0
102 1 -4.685698193459552 -18.82935436369819 10.646556851890201 0 0 0
773 1 0.06899539192957174 -18.361173557937466 10.81396690387554 0 0 0
563 1 10.904561880291165 19.532352879606584 7.176457735198623 0 -1 0
17 1 -15.73156274988589 -17.043490234106276 9.251246826502395 0 0 0
366 1 -15.16585890211123 -16.238651641111804 9.792306933449193 0 0 0
357 1 -11.709656435170455 -16.850985427226558 10.948101494273681 0 0 0
183 1 1.878613185437068 -18.620609985891335 10.550935093519568 0 0 0
39 1 9.80755469969685 -16.946116104388597 11.159966707167051 0 0 0
182 1 -11.907536328311993 -15.883849290665875 10.446904332708716 0 0 0
325 1 -11.04773292203399 -15.962823969667209 11.148081701647842 0 0 0
468 1 -1.3115607465481964 -14.048182134189831 7.984682097368674 0 0 0
767 1 -3.678521095515259 -10.72382160209087 10.672555324785037 0 0 0
98 1 -0.29666837276565705 -14.408641287683533 8.299443954060747 0 0 0
390 1 5.243190326423672 -13.694470066576367 8.874224070091802 0 0 0
502 1 -6.848916232482719 -12.00236815885414 9.94350462053794 0 0 0
556 1 15.321240102756207 -13.060502797309422 10.563162361540101 0 0 0
172 1 -14.684199692976579 -10.914822822213573 7.851142812961232 0 0 0
297 1 -3.2783238186562342 -9.868475022293664 11.26563903442144 0 0 0
419 1 3.9130260582433505 -10.42026045393768 10.430265192444404 0 0 0
114 1 12.969242911598856 -9.010717477162121 10.47348178188563 0 0 0
227 1 11.954066025490167 -8.71950653823805 10.093306652693174 0 0 0
833 1 -14.008577510566404 -7.760902203635139 9.260402155603941 0 0 0
547 1 -9.540017286948677 -6.303234192578064 10.670017201183573 0 0 0
975 1 -8.03982263499256 -7.028438477792494 10.378290098289554 0 0 0
557 1 -18.59518826119221 -5.732917519131885 10.968392207644946 0 0 0
601 1 -17.60928021006651 -5.331590791202659 11.324623871478229 0 0 0
751 1 -10.12690654299524 -5.811820644478816 11.482809934565244 0 0 0
106 1 -8.460010763798035 -6.09753598288902 10.82054600040446 0 0 0
987 1 -9.120711557628557 -6.22536339839987 11.719365725811251 0 0 0
1055 2 1.3924370551897074 -5.543345430050942 10.434128963745144 0 0 0
399 1 -9.20489426863124 -5.312808007458557 11.08316319372629 0 0 0
1145 2 -3.4912912647101897 -5.300177386727115 10.162346677255169 0 0 0
1053 2 4.435093102712217 -4.313085184246952 9.324772751894455 0 0 0
802 1 -18.032226643539065 -1.2727227409787731 8.278053871814498 0 0 0
51 1 -11.641902048268333 -2.1063553064420475 9.477895402581854 0 0 0
1089 2 8.815089185486519 -0.9956213298211223 9.711979602135324 0 0 0
1119 2 -8.000902990558558 1.3435258290077232 7.476223961286613 0 0 0
549 1 -19.060549739097713 2.9810975873849315 9.775237275802334 0 0 0
793 1 -10.920307780154321 3.207687007320985 11.420080756759686 0 0 0
939 1 -9.860580203305869 2.9618444122638863 11.621553517373593 0 0 0
58 1 -10.139762992177726 3.2151847814392145 10.574988168238171 0 0 0
1108 2 -9.457887475982792 4.8568134559645815 9.814009073315608 0 0 0
1147 2 -8.714998115873598 1.7828744228808964 10.733457145767273 0 0 0
614 1 8.739985870746054 4.820487325830158 7.542504099953191 0 0 0
13 1 -10.971450613746127 3.962592840988833 10.611403202279565 0 0 0
1004 2 -6.734135415884821 6.933515013569249 8.451933163939293 0 0 0
345 1 -16.816538936990202 6.992854156414587 8.969451552897791 0 0 0
427 1 -7.669311978070343 5.323143342902919 9.125584630593409 0 0 0
527 1 -8.385940428080335 6.181192919099247 9.01430088411886 0 0 0
1020 2 5.52452927953125 6.661574640013426 10.264693742355849 0 0 0
1026 2 8.504667892754073 5.30202786036286 9.355029350628142 0 0 0
944 1 6.51465156763578 11.205837424954607 9.574026952353279 0 0 0
772 1 9.100762807310426 10.394516042436143 10.947071861413056 0 0 0
625 1 8.486899609669557 11.3117090909768 11.151686072020881 0 0 0
799 1 18.826153966982922 11.169723081947176 9.535838286176247 0 0 0
31 1 -18.816551943110888 15.082983894790477 10.470015219155249 0 0 0
621 1 -18.568180183726795 14.644998219653415 9.466807420283446 0 0 0
378 1 -6.4385869803226825 14.38652665659417 10.090603649579737 0 0 0
470 1 -5.4620575301147065 14.917505858127084 10.246720177567168 0 0 0
805 1 0.16904142726566249 15.766208938210108 9.17659535630784 0 0 0
159 1 9.615286548200094 14.832790002086131 10.39247239042431 0 0 0
162 1 9.521747242549962 15.304878705472149 9.378937478438509 0 0 0
52 1 10.371420471958247 15.581882932657136 10.054607426218057 0 0 0
708 1 14.347177451895226 14.934538467443941 11.031565188573131 0 0 0
181 1 0.39097510492474763 16.68829929667664 8.573892810205537 0 0 0
207 1 9.862218432710888 16.369725457472708 9.441896638475667 0 0 0
639 1 9.315690227007597 15.904781667777508 10.302441756033522 0 0 0
637 1 15.30243296573137 16.785071225635797 11.123991530652514 0 0 0
696 1 14.192527660914823 16.668499791833067 11.231976878266126 0 0 0
234 1 -9.897348305282032 17.774562976852156 11.0811014655222 0 0 0
571 1 0.8781192999325427 -19.10972554031203 10.634380065139926 0 1 0
674 1 1.3734595330397386 17.15888328931961 8.788799914570381 0 0 0
174 1 4.607268663709605 19.341390350041905 10.274946966272713 0 0 0
233 1 4.760742109235213 18.24216694939068 10.44331973977827 0 0 0
699 1 5.617673901486733 18.955070375207754 10.574883587559814 0 0 0
240 1 16.9336865507014 18.733268314491795 8.553236340304492 0 0 0
426 1 17.818736273538885 18.054672381273683 8.411828652174691 0 0 0
534 1 -15.52310658788931 -18.65497049999322 13.147807456254364 0 0 0
465 1 -12.358186513150732 -17.03258981023227 11.834465173062112 0 0 0
195 1 -10.628650245516987 -16.9974931950832 11.169526283783078 0 0 0
213 1 -8.215418256302106 -19.72622795249542 13.18687603795872 0 0 0
949 1 0.47883878161121596 -18.958927787173625 11.670340620577816 0 0 0
955 1 1.5759216011048915 -19.116188227265255 11.510921330558578 0 0 0
690 1 10.221126102550851 -17.1451435412901 12.186225751091262 0 0 0
898 1 17.073918140869292 -18.739643840169066 10.94197686695487 0 0 0
257 1 -15.201332833156263 -17.626302969320157 12.834011579479506 0 0 0
752 1 -11.314203440703114 -16.654085055672624 11.983884243281524 0 0 0
190 1 -2.3419814906113823 -16.840937073931006 13.037973505981622 0 0 0
872 1 -2.364026813246022 -15.832425328924916 12.545684307021478 0 0 0
503 1 -1.3815311529374072 -16.332508888925624 12.757098548662476 0 0 0
543 1 1.0970127910170593 -18.153063493337548 11.19729486036429 0 0 0
602 1 9.572636342397802 -16.244581661035305 12.006445574121672 0 0 0
683 1 -12.737094774060735 -15.320932785274827 10.937625922129099 0 0 0
44 1 -11.670412727272302 -15.040093056086047 11.15754994626053 0 0 0
886 1 -12.09403817127899 -15.989060686655929 11.549972103239247 0 0 0
260 1 10.608168948952386 -16.28550584983415 11.581200782234049 0 0 0
668 1 -19.41339875485085 -11.49204211060619 12.549323276210526 0 0 0
940 1 -19.277057834240157 -10.484500128951526 13.025799247709205 0 0 0
662 1 -3.4772258318944966 -10.8442310821801 11.773547439100026 0 0 0
559 1 19.88898780625425 -11.136663772274698 13.359718592707669 0 0 0
170 1 -4.343070220498201 -10.232162424509902 11.420343476995708 0 0 0
680 1 -3.7329839190183476 -9.877246023466887 12.28794019364928 0 0 0
883 1 12.09162758477019 -8.993580673832476 11.173066457233745 0 0 0
249 1 16.673298873578734 -9.741678714521065 13.105587879477648 0 0 0
917 1 -18.171338557582565 -6.075390441679762 11.949735241933547 0 0 0
747 1 -8.897575189928439 -7.110123012293762 11.085067642489449 0 0 0
1080 2 -4.4079981548570535 -8.32343647319999 11.301783438730265 0 0 0
895 1 12.51490413334828 -8.031156079233906 10.780005503906564 0 0 0
343 1 16.501307824936383 -8.632467665105963 13.106308633963083 0 0 0
784 1 19.919234181134485 -9.864524432383806 13.477713023819161 0 0 0
219 1 -17.692044262235967 -6.3991517934991755 10.98778778979935 0 0 0
1034 2 -7.353440129532968 -6.791624309401058 12.207037596704735 0 0 0
1116 2 7.248538688034132 -3.7116941478198746 11.118921523045131 0 0 0
229 1 -15.606764743586325 -3.283558318679989 13.12204221539598 0 0 0
75 1 -11.416965957566628 -2.570118086266038 15.42250584437355 0 0 0
1104 2 -1.0630034929182683 -3.757965034292052 11.892442098572339 0 0 0
344 1 14.049285664341074 -1.7237367919426727 12.743165447017589 0 0 0
630 1 -15.030736484339123 -2.464343947436421 13.629816111587495 0 0 0
931 1 -10.651482141708074 2.3304324427633887 12.082525095051942 0 0 0
1112 2 3.078340265281368 -1.8134116560527602 11.143639348771302 0 0 0
1073 2 6.167715142195038 -0.59197278611146 11.714519267574666 0 0 0
188 1 14.083225387151938 -0.9787059271355165 13.56444844059604 0 0 0
957 1 14.441046792060344 -0.6942645602588867 12.550602128510771 0 0 0
1128 2 7.7255199821086995 2.136855624531603 10.419909287534134 0 0 0
617 1 13.203391865339245 -1.6664247168760886 13.469234377740145 0 0 0
330 1 -18.833587016282557 3.299294371944898 10.82745387833382 0 0 0
6 1 -10.528090089275034 2.2683247144151513 10.985579749252533 0 0 0
1008 2 4.9139577669573855 2.450194636837061 12.310001013838239 0 0 0
1090 2 7.282612509672035 4.808477291347747 12.440124571302626 0 0 0
858 1 16.503389293862618 4.4707467137901515 11.479392344480718 0 0 0
334 1 -10.137187839968714 4.005916742761869 11.356124391823187 0 0 0
136 1 -11.031141726104135 9.61977309045948 13.936807239585804 0 0 0
1114 2 2.054050548358998 8.276890734361869 13.646569092742633 0 0 0
956 1 16.85674872176004 8.129779372726222 12.575707573303973 0 0 0
372 1 -11.004692557872321 10.22626690354663 13.002166557670986 0 0 0
1123 2 -0.31898804874925013 9.69913042541982 11.727443019741196 0 0 0
876 1 8.847669737051142 10.675907955130779 12.003741547323669 0 0 0
158 1 -14.818586722965769 12.231372733397134 14.21484815865492 0 0 0
88 1 -2.3685590538731267 13.13364594080072 13.486540133166324 0 0 0
951 1 3.3798381402627213 12.978823405425022 13.376794193481995 0 0 0
431 1 -14.235033237448935 15.032002796951566 11.765442378365718 0 0 0
800 1 -11.561703688068443 15.043553543621828 12.343338433932676 0 0 0
719 1 -3.2081482343998395 13.862685539384119 13.623808472659107 0 0 0
61 1 4.139451184531472 13.598490016957763 12.830056264101596 0 0 0
823 1 -2.1699922957881643 14.229751594538936 13.40854112970628 0 0 0
980 1 0.9230395579776323 16.507840202724623 9.536701926042152 0 0 0
248 1 10.176762035367773 16.588823337963248 10.496360215542436 0 0 0
166 1 -9.043254680622413 19.51675095478687 13.145798385387266 0 0 0
450 1 14.737458420999083 17.452437446030146 11.82761063195142 0 0 0
890 1 9.126041985225289 -17.271723449457387 11.98721979116399 0 0 0
414 1 2.671409185915811 -17.705914148023044 15.202420449780934 0 0 0
339 1 -2.0016595018046943 -15.932847448871922 13.603234997407236 0 0 0
702 1 4.562082837903187 -13.55923213800057 14.346925943786525 0 0 0
806 1 9.499225080839128 -13.550298160219462 15.78414047880271 0 0 0
903 1 13.374873824175713 -14.165203985360616 14.365495442230465 0 0 0
18 1 18.865034974279485 -14.824861450342345 15.271431110263125 0 0 0
160 1 -19.03735534107214 -11.416741250501753 13.596848235143089 0 0 0
143 1 -12.86558062781945 -10.980287373688503 15.406040803027363 0 0 0
521 1 3.8318259633859766 -12.833985995245099 14.794785682332506 0 0 0
741 1 9.852745670171773 -12.602880331849299 16.25633521252838 0 0 0
609 1 -19.5368183336004 -10.571617647109559 14.129801473282079 0 0 0
150 1 -11.972558521413736 -10.370990656475575 15.104063853974756 0 0 0
179 1 -15.370865604031891 -7.72943969907964 13.689482167323396 0 0 0
87 1 -10.051098873894464 -6.138776524729342 14.708889174305977 0 0 0
771 1 -9.363633347933593 -5.49395114385714 14.099172147904202 0 0 0
1149 2 -5.3701962150776925 -8.279865661752025 14.48846867884535 0 0 0
1012 2 -0.9056658325997478 -8.177615512631355 15.148789890345618 0 0 0
1061 2 -1.2831405127739006 -7.130373198074926 11.937685834066968 0 0 0
626 1 19.964877438973485 -9.06777562530699 14.279593137020083 0 0 0
448 1 12.037120591904287 -4.594796370971815 15.063325939071115 0 0 0
523 1 12.558277826265986 -4.0728456789270675 14.219915386698068 0 0 0
756 1 -15.464150722321662 -3.303930139205579 14.235363035007408 0 0 0
361 1 11.440114742867683 -4.049001007156411 14.282930281094538 0 0 0
566 1 12.059417970159407 -3.4714281854144433 15.022125686527428 0 0 0
885 1 19.177185646953777 -2.948138052870723 15.06808910050097 0 0 0
842 1 -10.320446878641024 -2.427317080299547 15.540743416624942 0 0 0
753 1 13.040846185684764 -0.5910870699703534 13.753274569898178 0 0 0
893 1 13.342925629876463 -0.8561556574763821 12.71482833185931 0 0 0
496 1 -17.442770410799643 0.5879912756439298 14.885342116898101 0 0 0
501 1 -14.086672104622561 -1.318554693966398 15.762726916483867 0 0 0
145 1 -11.378192337828425 2.665244698743039 14.470355148913546 0 0 0
701 1 -11.017527078751886 2.5956686235317448 15.526178825449575 0 0 0
1001 2 -10.50208253799041 3.877990399827089 13.19453308574196 0 0 0
483 1 19.22454944892855 -0.735094407969358 15.033549462557257 0 0 0
493 1 18.447913880556754 -0.4982065932710228 14.26283904710669 0 0 0
812 1 -11.967838354432239 3.5971337567070285 14.368922486608007 0 0 0
316 1 -11.029992299286873 3.576863760807574 14.98302673824493 0 0 0
763 1 -10.283192496472932 2.7948534314796762 14.725716572834514 0 0 0
1021 2 4.080919254825079 5.616993626009333 13.149210208592892 0 0 0
706 1 -6.283546880906762 9.123067089695446 13.815252633811564 0 0 0
579 1 -16.327075220335626 11.931896365204008 15.346729507000985 0 0 0
440 1 -10.111862656642748 10.217612658954783 13.677553675249388 0 0 0
548 1 -5.634186942879743 9.792514245262145 14.440445453115641 0 0 0
474 1 -2.063870190645603 12.731770348151981 14.48284375695395 0 0 0
986 1 -3.143795276236389 12.95430246171267 14.275270785183727 0 0 0
994 1 4.472772018534408 12.851273059827701 13.598486541024462 0 0 0
658 1 15.008973546798277 13.401202161215913 14.535950797513669 0 0 0
33 1 -15.408567304586471 12.530998218518878 15.118611084856454 0 0 0
479 1 -2.4100523169172376 13.790703342990279 14.406823667458792 0 0 0
456 1 8.384489342318064 15.04711469098721 14.831528948004019 0 0 0
177 1 -16.78570613587259 16.37960518767644 13.804861728561267 0 0 0
36 1 -11.876210635563025 15.481444459393849 13.327707717321116 0 0 0
671 1 -10.882315518012845 15.75546911975697 12.88353297278228 0 0 0
107 1 -5.897335356447886 16.3675639552131 17.44533629134303 0 0 0
161 1 -3.0130745599479742 18.283601462490555 13.337660762901557 0 0 0
35 1 -10.385439592200433 -18.926705807567007 17.591079231249385 0 0 0
230 1 -10.596479574066816 -19.6958166690971 16.809463961073476 0 0 0
3 1 -9.290870941089983 -18.933961734967482 17.83003745621692 0 0 0
258 1 -1.4637688188035123 -19.925832817908347 16.915277745853825 0 0 0
169 1 16.242382161431387 -18.05703735150564 16.218894608407446 0 0 0
693 1 18.230859610909498 -18.613889417251304 17.273460050806676 0 0 0
311 1 -16.24236843438801 -15.99408134026451 16.05237686429592 0 0 0
687 1 -12.777757755546563 -15.984414155650844 15.605102606235373 0 0 0
712 1 -4.8260558058179 -15.55891954627568 16.34739440627391 0 0 0
941 1 -16.857157849609628 -15.328397976651628 16.7148964780848 0 0 0
369 1 -8.632872940881034 -14.868944995932653 17.7517155630742 0 0 0
510 1 -4.765847194501614 -14.608430011469004 16.941430658875277 0 0 0
697 1 -4.107261448731285 -15.478118142066263 17.20570176578989 0 0 0
30 1 4.518963964535993 -13.421587564310894 15.460139190225103 0 0 0
85 1 8.851209867737685 -13.025334523831903 16.534856609191056 0 0 0
976 1 9.778330867081394 -13.55354642895286 16.86346612193811 0 0 0
189 1 15.571955057450063 -14.944500205596254 16.19434629188267 0 0 0
155 1 19.74309534288634 -14.261316860296569 15.68615843481745 0 0 0
95 1 -19.306507595980996 -11.96705891392933 16.06240211103928 0 0 0
794 1 9.50087001347437 -12.558857148709805 17.311605308898002 0 0 0
845 1 10.573295562306383 -12.808823949011357 17.076944356415805 0 0 0
356 1 14.660721738832537 -11.654748721163852 16.07177184288198 0 0 0
632 1 13.88973880867325 -12.466572534683488 16.15360559786182 0 0 0
715 1 14.440122206904562 -12.120546740676755 17.06884215934324 0 0 0
196 1 -4.81390301268016 -9.68738167631395 15.704785432098086 0 0 0
420 1 -5.930132681772523 -9.606802128955751 15.793039016868633 0 0 0
999 1 -5.270243476054469 -8.878852652060182 16.3357242201794 0 0 0
243 1 -1.4863920198541818 -9.156211032386702 16.72796776599961 0 0 0
769 1 -0.5753785326865681 -9.68271404781651 16.33742240656569 0 0 0
900 1 13.682493154832542 -11.450074795258736 16.582805055652244 0 0 0
622 1 -19.223811564286994 -7.530717509518781 16.749713833018212 0 0 0
424 1 8.815053872205398 -6.6144194687945665 15.769619107875956 0 0 0
884 1 13.491588785302769 -7.070604634869565 16.77372138987328 0 0 0
792 1 19.771609711446672 -7.873302277559758 17.092799561412267 0 0 0
250 1 -18.969905338573348 -6.563957464800289 17.271189405357653 0 0 0
19 1 -18.228394366563094 -7.052026174273998 16.593876763105378 0 0 0
754 1 -10.937442254932442 -2.866332830463234 16.378773045076123 0 0 0
1131 2 -10.471063906456541 -4.302618299817288 15.19289775299718 0 0 0
612 1 11.132944918025906 -4.003568286655086 15.359172138155085 0 0 0
103 1 19.368728687429243 -1.8433399829797645 15.078907838551986 -1 0 0
684 1 -14.397309997499255 -1.6254078265011083 16.79622969137149 0 0 0
731 1 -13.581409613798561 -0.8673835277016203 16.658307932367556 0 0 0
919 1 -10.358818117772952 -1.9261202081297937 16.533033298747128 0 0 0
383 1 -9.822633451395282 -2.912255854752779 16.41704469440575 0 0 0
1014 2 -8.628332444694834 -1.547266115470303 15.738520740749761 0 0 0
272 1 -10.779009146952225 1.792898033293056 14.781164589534873 0 0 0
1043 2 0.3530180663928135 1.0321374856308774 16.15981791649679 0 0 0
1122 2 9.826997948595059 1.9349082630043715 17.579601913411828 0 0 0
341 1 -10.722187464512034 2.900072423702788 16.558713294221686 0 0 0
1081 2 -12.437873178656194 3.6686091741870404 16.207465465009097 0 0 0
1032 2 7.27664076658408 4.123280548809379 17.374949666976043 0 0 0
485 1 19.886067323777056 3.529808355199802 18.47496351675392 0 0 0
739 1 -16.633845058749205 4.975695302253566 16.488340674517715 0 0 0
416 1 -12.564453744276268 4.532122475947413 14.441750630840263 0 0 0
1067 2 2.738208923175658 6.217666428331036 16.203761580207306 0 0 0
512 1 13.868462859701731 6.071582058022565 18.1239300136757 0 0 0
139 1 -11.488792430618007 4.552790798130113 14.732583631753048 0 0 0
1042 2 0.042524846341811785 8.245662429546652 16.36056573540497 0 0 0
1141 2 4.772432280679069 8.822245691421783 15.56135192525438 0 0 0
546 1 -13.1608291043913 9.802034198149476 17.41749652438011 0 0 0
657 1 -12.19464795039827 10.369983882001954 17.354634558761052 0 0 0
439 1 -10.388010406492244 10.061647631983144 14.753383433132669 0 0 0
675 1 -5.204554480572524 9.721025013941182 16.688527581073718 0 0 0
323 1 -15.540458051118655 11.50704889694033 14.671900178795022 0 0 0
342 1 -13.126243027192046 10.793843730893458 16.893047047920405 0 0 0
53 1 7.975213757706108 11.26666264651007 18.144355905174137 0 0 0
286 1 7.006309193991162 11.839384620690568 18.204819512584834 0 0 0
495 1 11.001370033163553 12.293606426668159 18.402831997127485 0 0 0
451 1 -5.370465269443079 15.53646121035224 17.984763490543777 0 0 0
729 1 11.2929725200391 15.6388040870858 17.43950022914718 0 0 0
259 1 14.710819560547357 14.16516366407988 15.302370301107416 0 0 0
847 1 -4.781298268628307 16.32599016406753 17.44803110633656 0 0 0
438 1 11.944788110480733 16.5345290774785 17.620640246488243 0 0 0
844 1 -19.04196738673124 19.688014841486048 16.3145907900024 0 0 0
47 1 -9.625484653980417 -19.145024955033985 16.781661355639624 0 1 0
406 1 -9.818234139702854 -19.892877001159246 17.593357716341494 0 1 0
843 1 8.63887568600958 -19.883466659237634 19.90486345569092 0 0 0
894 1 16.19831893391461 -18.696677783283807 19.876008203742522 0 0 0
34 1 -9.726689323170401 -18.114460314314563 17.199553816963686 0 0 0
217 1 -5.211347760226774 -15.530351423981898 17.40129703751081 0 0 0
535 1 1.553365061900304 -16.160126203073595 19.287481968241433 0 0 0
9 1 2.646622364613171 -16.241874885318328 19.528418239775913 0 0 0
97 1 5.96809030990697 -14.075482437493537 17.950571147585034 0 0 0
381 1 10.02879741341612 -13.325759189583147 17.921993721137973 0 0 0
825 1 11.103090392057272 -13.042654434515887 18.02952559589002 0 0 0
351 1 -16.82489842644425 -10.692538821961115 -19.425272817230727 0 0 1
278 1 -16.369144259841395 -11.291239984612748 19.736394011213644 0 0 0
368 1 10.315263308861937 -12.244038696045102 18.00483832581576 0 0 0
838 1 16.5232246678162 -10.485543589954341 -19.21260572670769 0 0 1
359 1 -15.970000003947268 -10.283897240819538 19.97960889242754 0 0 0
49 1 -15.828348381782224 -11.162149171094278 -19.310678510441136 0 0 1
796 1 -15.0405464543258 -10.38942714770796 -19.406354428138197 0 0 1
813 1 -15.255758425446915 -11.102114383308457 19.74819917308846 0 0 0
235 1 -11.536721842368836 -10.162121038733186 19.094936580937087 0 0 0
314 1 -10.598269034205192 -9.818535735782582 19.605688048667698 0 0 0
897 1 4.148432064278155 -9.92731796514357 18.42980036533821 0 0 0
565 1 4.655616573264701 -9.201406298320904 19.119537399076204 0 0 0
588 1 -19.555083944939756 -7.347000766559892 17.81152447521634 0 0 0
54 1 -18.477371633179445 -7.523650432710068 17.580840088523246 0 0 0
59 1 -11.267232562987033 -9.078956303579652 19.102706361578488 0 0 0
738 1 -11.842262821471339 -8.5104926470876 19.87274847882476 0 0 0
1025 2 2.746478576213163 -9.055807721821223 19.456815196181097 0 0 0
353 1 10.899811892971094 -8.671242928029 19.705610720888004 0 0 0
358 1 19.978695941521774 -6.778314751324085 16.96375105053168 0 0 0
1041 2 -0.8124474869285021 -4.201828837420854 19.84778160505228 0 0 0
2 1 -13.397146194204376 -1.9423344456261382 16.393072799862708 0 0 0
1036 2 -10.492121049890224 -2.833076713335399 18.238229101897293 0 0 0
1066 2 -3.7215444351253706 -2.5155750055083494 19.684292147395343 0 0 0
1046 2 -8.648800691358383 -0.08042572532595299 18.74556113757904 0 0 0
1002 2 -1.0834869191532206 -1.4988948738079624 17.854925408465576 0 0 0
1060 2 -0.18284253704805362 -0.22282356596051558 -19.162438935327245 0 0 1
826 1 15.840342588416426 -0.9282713033195916 19.223775723178036 0 0 0
123 1 16.90030096016036 -0.9049755067057531 18.86239253775538 0 0 0
215 1 16.302650363755316 0.041843083613640655 18.89402436221177 0 0 0
830 1 -19.81941558622909 2.523043424226029 18.873236411467747 0 0 0
1127 2 -1.8471884874032862 1.6909338737543238 18.62234013813172 0 0 0
121 1 10.897817069468083 1.8894727548535812 19.201237018337537 0 0 0
952 1 10.227309276632823 0.9897259104292495 19.23049287626871 0 0 0
275 1 -19.057253678838077 2.661534315887166 19.68177356171774 0 0 0
954 1 -19.059644911662485 3.342340343000509 18.791769845148988 0 0 0
641 1 -10.220948117675167 3.3783069976652733 15.685661406173299 0 0 0
1038 2 -9.307427806813283 1.7319414892654539 15.987748761786241 0 0 0
934 1 9.141696780636638 3.743461131857485 17.773525938355117 0 0 0
375 1 -19.88697686218389 3.4047318843166474 19.5611651931211 1 0 0
1094 2 -1.8349845171459132 7.380493678005973 19.025617030763573 0 0 0
46 1 13.2448496091597 5.626403153829254 18.94223378888434 0 0 0
965 1 -8.986569430599511 8.737818328059848 18.52760437477876 0 0 0
1068 2 4.625538014892278 7.532679213928922 18.668198965070115 0 0 0
822 1 -18.289364898898025 10.504799547255953 19.869352647712 0 0 0
206 1 -13.025055028012412 10.745624378966609 18.009949095857323 0 0 0
576 1 -9.397519160407516 9.561985991362647 17.885720186997652 0 0 0
755 1 -9.745981926572481 9.450319498890666 18.946762081196354 0 0 0
570 1 -8.702233424709434 9.803946100844641 18.733219031920143 0 0 0
514 1 -0.8788437522931875 8.730342377089167 18.004049760430842 0 0 0
198 1 11.202548276042966 11.354662397913064 18.983915020352992 0 0 0
321 1 -17.496829863015062 11.299308453931797 19.845585779899764 0 0 0
656 1 7.40707804428114 11.314755155684779 19.105073803522156 0 0 0
93 1 -6.287748954818895 15.996496330288648 18.423842758678497 0 0 0
761 1 1.504977378762249 13.881461286456638 18.1497103874926 0 0 0
56 1 -13.820844379407646 15.990297718804845 18.84638784043052 0 0 0
829 1 -12.819177855048956 16.084245251875362 18.34854599230983 0 0 0
596 1 -5.320841736358263 16.5756734357155 18.391672495607857 0 0 0
648 1 -6.2903197471742 17.095094729939092 18.195056807173756 0 0 0
317 1 -2.891848487653045 16.879569863872952 19.189383785267403 0 0 0
669 1 -1.7825881403238815 16.933592928440802 19.02404010856183 0 0 0
89 1 3.8881775945329085 17.545496609483976 19.652371325722665 0 0 0
643 1 3.7491406595652275 17.7360360275731 18.55737646826075 0 0 0
620 1 4.781511856771267 17.608989867576184 18.973010279022446 0 0 0
208 1 -6.042853424759226 16.732190352379114 19.22732554305082 0 0 0
914 1 4.1882329455294185 18.5340557629732 19.209322137954853 0 0 0
461 1 8.055273533192686 19.245396287417844 19.50323086356758 0 0 0
385 1 9.090471461361178 19.089058804110753 19.90799576966141 0 0 0
524 1 18.31628345725737 18.57944235090513 19.355500858709565 0 0 0

Velocities

785 0 0 0
618 0 0 0
348 0 0 0
377 0 0 0
551 0 0 0
484 0 0 0
765 0 0 0
836 0 0 0
176 0 0 0
723 0 0 0
908 0 0 0
629 0 0 0
471 0 0 0
142 0 0 0
887 0 0 0
211 0 0 0
192 0 0 0
109 0 0 0
497 0 0 0
607 0 0 0
63 0 0 0
647 0 0 0
1096 0 0 0
653 0 0 0
977 0 0 0
175 0 0 0
422 0 0 0
430 0 0 0
783 0 0 0
586 0 0 0
32 0 0 0
128 0 0 0
490 0 0 0
1098 0 0 0
1040 0 0 0
598 0 0 0
921 0 0 0
76 0 0 0
561 0 0 0
244 0 0 0
492 0 0 0
402 0 0 0
915 0 0 0
575 0 0 0
562 0 0 0
91 0 0 0
133 0 0 0
567 0 0 0
104 0 0 0
25 0 0 0
77 0 0 0
564 0 0 0
732 0 0 0
901 0 0 0
760 0 0 0
734 0 0 0
960 0 0 0
20 0 0 0
322 0 0 0
193 0 0 0
489 0 0 0
498 0 0 0
810 0 0 0
202 0 0 0
979 0 0 0
144 0 0 0
437 0 0 0
270 0 0 0
347 0 0 0
382 0 0 0
60 0 0 0
500 0 0 0
659 0 0 0
945 0 0 0
929 0 0 0
982 0 0 0
1101 0 0 0
280 0 0 0
1148 0 0 0
593 0 0 0
526 0 0 0
1074 0 0 0
649 0 0 0
1076 0 0 0
246 0 0 0
930 0 0 0
1091 0 0 0
946 0 0 0
70 0 0 0
99 0 0 0
686 0 0 0
110 0 0 0
592 0 0 0
902 0 0 0
889 0 0 0
302 0 0 0
119 0 0 0
877 0 0 0
506 0 0 0
568 0 0 0
730 0 0 0
389 0 0 0
65 0 0 0
998 0 0 0
457 0 0 0
748 0 0 0
881 0 0 0
505 0 0 0
518 0 0 0
993 0 0 0
909 0 0 0
555 0 0 0
670 0 0 0
507 0 0 0
899 0 0 0
926 0 0 0
436 0 0 0
530 0 0 0
333 0 0 0
709 0 0 0
74 0 0 0
814 0 0 0
336 0 0 0
454 0 0 0
223 0 0 0
306 0 0 0
459 0 0 0
882 0 0 0
1139 0 0 0
1085 0 0 0
816 0 0 0
888 0 0 0
282 0 0 0
360 0 0 0
247 0 0 0
1103 0 0 0
1069 0 0 0
388 0 0 0
301 0 0 0
1052 0 0 0
795 0 0 0
911 0 0 0
906 0 0 0
478 0 0 0
1009 0 0 0
644 0 0 0
924 0 0 0
606 0 0 0
1111 0 0 0
277 0 0 0
676 0 0 0
1118 0 0 0
1138 0 0 0
853 0 0 0
585 0 0 0
335 0 0 0
782 0 0 0
831 0 0 0
401 0 0 0
300 0 0 0
1062 0 0 0
634 0 0 0
525 0 0 0
231 0 0 0
200 0 0 0
984 0 0 0
578 0 0 0
224 0 0 0
811 0 0 0
910 0 0 0
134 0 0 0
589 0 0 0
237 0 0 0
692 0 0 0
787 0 0 0
722 0 0 0
943 0 0 0
762 0 0 0
746 0 0 0
646 0 0 0
180 0 0 0
327 0 0 0
594 0 0 0
981 0 0 0
117 0 0 0
376 0 0 0
312 0 0 0
173 0 0 0
432 0 0 0
245 0 0 0
71 0 0 0
574 0 0 0
870 0 0 0
1137 0 0 0
983 0 0 0
860 0 0 0
467 0 0 0
935 0 0 0
1130 0 0 0
362 0 0 0
216 0 0 0
1064 0 0 0
1083 0 0 0
1057 0 0 0
873 0 0 0
1048 0 0 0
1150 0 0 0
642 0 0 0
728 0 0 0
820 0 0 0
167 0 0 0
920 0 0 0
857 0 0 0
611 0 0 0
466 0 0 0
781 0 0 0
263 0 0 0
132 0 0 0
627 0 0 0
363 0 0 0
569 0 0 0
261 0 0 0
92 0 0 0
482 0 0 0
695 0 0 0
537 0 0 0
742 0 0 0
974 0 0 0
400 0 0 0
305 0 0 0
544 0 0 0
711 0 0 0
308 0 0 0
393 0 0 0
337 0 0 0
148 0 0 0
241 0 0 0
907 0 0 0
443 0 0 0
528 0 0 0
81 0 0 0
367 0 0 0
736 0 0 0
80 0 0 0
21 0 0 0
595 0 0 0
1024 0 0 0
191 0 0 0
435 0 0 0
509 0 0 0
1077 0 0 0
1078 0 0 0
801 0 0 0
84 0 0 0
326 0 0 0
1095 0 0 0
228 0 0 0
694 0 0 0
66 0 0 0
273 0 0 0
1102 0 0 0
1027 0 0 0
1142 0 0 0
1134 0 0 0
797 0 0 0
875 0 0 0
276 0 0 0
364 0 0 0
958 0 0 0
1065 0 0 0
398 0 0 0
937 0 0 0
452 0 0 0
475 0 0 0
346 0 0 0
554 0 0 0
69 0 0 0
409 0 0 0
126 0 0 0
405 0 0 0
862 0 0 0
472 0 0 0
959 0 0 0
67 0 0 0
855 0 0 0
871 0 0 0
717 0 0 0
750 0 0 0
349 0 0 0
989 0 0 0
154 0 0 0
758 0 0 0
540 0 0 0
288 0 0 0
116 0 0 0
560 0 0 0
197 0 0 0
942 0 0 0
434 0 0 0
533 0 0 0
837 0 0 0
137 0 0 0
210 0 0 0
759 0 0 0
832 0 0 0
291 0 0 0
45 0 0 0
204 0 0 0
413 0 0 0
447 0 0 0
990 0 0 0
10 0 0 0
449 0 0 0
22 0 0 0
55 0 0 0
310 0 0 0
417 0 0 0
354 0 0 0
633 0 0 0
62 0 0 0
481 0 0 0
1005 0 0 0
43 0 0 0
130 0 0 0
991 0 0 0
849 0 0 0
1059 0 0 0
1015 0 0 0
1113 0 0 0
1092 0 0 0
970 0 0 0
605 0 0 0
1082 0 0 0
1054 0 0 0
1000 0 0 0
1144 0 0 0
394 0 0 0
96 0 0 0
212 0 0 0
391 0 0 0
678 0 0 0
573 0 0 0
222 0 0 0
768 0 0 0
164 0 0 0
677 0 0 0
232 0 0 0
149 0 0 0
118 0 0 0
992 0 0 0
541 0 0 0
513 0 0 0
445 0 0 0
100 0 0 0
293 0 0 0
285 0 0 0
779 0 0 0
672 0 0 0
865 0 0 0
774 0 0 0
14 0 0 0
108 0 0 0
704 0 0 0
7 0 0 0
184 0 0 0
446 0 0 0
789 0 0 0
880 0 0 0
299 0 0 0
582 0 0 0
491 0 0 0
775 0 0 0
879 0 0 0
268 0 0 0
635 0 0 0
932 0 0 0
57 0 0 0
788 0 0 0
303 0 0 0
591 0 0 0
287 0 0 0
613 0 0 0
778 0 0 0
157 0 0 0
636 0 0 0
469 0 0 0
387 0 0 0
410 0 0 0
72 0 0 0
1070 0 0 0
1018 0 0 0
1136 0 0 0
867 0 0 0
645 0 0 0
651 0 0 0
1125 0 0 0
966 0 0 0
1051 0 0 0
1106 0 0 0
531 0 0 0
28 0 0 0
411 0 0 0
125 0 0 0
744 0 0 0
262 0 0 0
517 0 0 0
600 0 0 0
840 0 0 0
532 0 0 0
584 0 0 0
650 0 0 0
725 0 0 0
933 0 0 0
455 0 0 0
26 0 0 0
94 0 0 0
415 0 0 0
916 0 0 0
628 0 0 0
923 0 0 0
386 0 0 0
973 0 0 0
604 0 0 0
281 0 0 0
428 0 0 0
8 0 0 0
654 0 0 0
640 0 0 0
29 0 0 0
23 0 0 0
777 0 0 0
691 0 0 0
168 0 0 0
776 0 0 0
11 0 0 0
152 0 0 0
1033 0 0 0
267 0 0 0
464 0 0 0
1003 0 0 0
1132 0 0 0
912 0 0 0
499 0 0 0
985 0 0 0
1019 0 0 0
1084 0 0 0
520 0 0 0
290 0 0 0
664 0 0 0
988 0 0 0
928 0 0 0
1075 0 0 0
1050 0 0 0
1100 0 0 0
1135 0 0 0
610 0 0 0
373 0 0 0
113 0 0 0
1056 0 0 0
1129 0 0 0
666 0 0 0
580 0 0 0
655 0 0 0
1006 0 0 0
861 0 0 0
623 0 0 0
724 0 0 0
688 0 0 0
597 0 0 0
73 0 0 0
545 0 0 0
936 0 0 0
631 0 0 0
463 0 0 0
309 0 0 0
905 0 0 0
619 0 0 0
423 0 0 0
429 0 0 0
726 0 0 0
165 0 0 0
511 0 0 0
798 0 0 0
745 0 0 0
127 0 0 0
804 0 0 0
397 0 0 0
307 0 0 0
379 0 0 0
851 0 0 0
583 0 0 0
41 0 0 0
707 0 0 0
615 0 0 0
265 0 0 0
863 0 0 0
220 0 0 0
40 0 0 0
661 0 0 0
284 0 0 0
705 0 0 0
352 0 0 0
458 0 0 0
494 0 0 0
1031 0 0 0
737 0 0 0
163 0 0 0
846 0 0 0
841 0 0 0
1072 0 0 0
904 0 0 0
313 0 0 0
834 0 0 0
1120 0 0 0
1124 0 0 0
590 0 0 0
50 0 0 0
1109 0 0 0
819 0 0 0
421 0 0 0
1079 0 0 0
1011 0 0 0
441 0 0 0
147 0 0 0
1126 0 0 0
1028 0 0 0
673 0 0 0
392 0 0 0
408 0 0 0
953 0 0 0
444 0 0 0
266 0 0 0
1115 0 0 0
522 0 0 0
869 0 0 0
891 0 0 0
938 0 0 0
850 0 0 0
828 0 0 0
854 0 0 0
817 0 0 0
236 0 0 0
803 0 0 0
652 0 0 0
146 0 0 0
194 0 0 0
996 0 0 0
961 0 0 0
156 0 0 0
542 0 0 0
251 0 0 0
599 0 0 0
667 0 0 0
24 0 0 0
218 0 0 0
504 0 0 0
255 0 0 0
225 0 0 0
1049 0 0 0
727 0 0 0
516 0 0 0
129 0 0 0
963 0 0 0
407 0 0 0
577 0 0 0
178 0 0 0
1097 0 0 0
380 0 0 0
83 0 0 0
1029 0 0 0
1063 0 0 0
864 0 0 0
824 0 0 0
15 0 0 0
1107 0 0 0
1017 0 0 0
329 0 0 0
473 0 0 0
764 0 0 0
718 0 0 0
1140 0 0 0
1093 0 0 0
839 0 0 0
460 0 0 0
716 0 0 0
1088 0 0 0
1047 0 0 0
111 0 0 0
254 0 0 0
131 0 0 0
203 0 0 0
395 0 0 0
740 0 0 0
264 0 0 0
508 0 0 0
68 0 0 0
433 0 0 0
86 0 0 0
552 0 0 0
766 0 0 0
37 0 0 0
42 0 0 0
269 0 0 0
679 0 0 0
226 0 0 0
221 0 0 0
324 0 0 0
105 0 0 0
319 0 0 0
16 0 0 0
214 0 0 0
138 0 0 0
442 0 0 0
971 0 0 0
365 0 0 0
721 0 0 0
4 0 0 0
199 0 0 0
120 0 0 0
603 0 0 0
790 0 0 0
209 0 0 0
660 0 0 0
374 0 0 0
948 0 0 0
79 0 0 0
242 0 0 0
815 0 0 0
331 0 0 0
425 0 0 0
733 0 0 0
663 0 0 0
1045 0 0 0
153 0 0 0
256 0 0 0
780 0 0 0
972 0 0 0
294 0 0 0
403 0 0 0
1037 0 0 0
1117 0 0 0
1133 0 0 0
292 0 0 0
338 0 0 0
1058 0 0 0
1146 0 0 0
1023 0 0 0
135 0 0 0
835 0 0 0
476 0 0 0
418 0 0 0
1105 0 0 0
1007 0 0 0
171 0 0 0
238 0 0 0
38 0 0 0
122 0 0 0
318 0 0 0
874 0 0 0
340 0 0 0
477 0 0 0
786 0 0 0
749 0 0 0
1 0 0 0
78 0 0 0
539 0 0 0
878 0 0 0
112 0 0 0
412 0 0 0
587 0 0 0
757 0 0 0
529 0 0 0
124 0 0 0
922 0 0 0
488 0 0 0
947 0 0 0
350 0 0 0
320 0 0 0
304 0 0 0
370 0 0 0
714 0 0 0
997 0 0 0
115 0 0 0
848 0 0 0
283 0 0 0
807 0 0 0
968 0 0 0
1016 0 0 0
239 0 0 0
856 0 0 0
808 0 0 0
1022 0 0 0
1143 0 0 0
1030 0 0 0
1121 0 0 0
1039 0 0 0
868 0 0 0
279 0 0 0
141 0 0 0
1110 0 0 0
859 0 0 0
698 0 0 0
486 0 0 0
927 0 0 0
962 0 0 0
1035 0 0 0
1013 0 0 0
185 0 0 0
253 0 0 0
713 0 0 0
187 0 0 0
550 0 0 0
315 0 0 0
90 0 0 0
298 0 0 0
64 0 0 0
710 0 0 0
252 0 0 0
274 0 0 0
689 0 0 0
703 0 0 0
101 0 0 0
925 0 0 0
720 0 0 0
896 0 0 0
770 0 0 0
289 0 0 0
892 0 0 0
201 0 0 0
700 0 0 0
616 0 0 0
624 0 0 0
608 0 0 0
791 0 0 0
151 0 0 0
809 0 0 0
818 0 0 0
27 0 0 0
487 0 0 0
12 0 0 0
48 0 0 0
852 0 0 0
581 0 0 0
205 0 0 0
5 0 0 0
328 0 0 0
969 0 0 0
743 0 0 0
371 0 0 0
515 0 0 0
82 0 0 0
682 0 0 0
735 0 0 0
1087 0 0 0
1010 0 0 0
140 0 0 0
296 0 0 0
1044 0 0 0
355 0 0 0
332 0 0 0
480 0 0 0
918 0 0 0
685 0 0 0
1099 0 0 0
827 0 0 0
1086 0 0 0
1071 0 0 0
866 0 0 0
558 0 0 0
950 0 0 0
519 0 0 0
453 0 0 0
572 0 0 0
384 0 0 0
271 0 0 0
681 0 0 0
638 0 0 0
186 0 0 0
396 0 0 0
913 0 0 0
553 0 0 0
462 0 0 0
821 0 0 0
536 0 0 0
295 0 0 0
978 0 0 0
665 0 0 0
964 0 0 0
967 0 0 0
404 0 0 0
538 0 0 0
995 0 0 0
102 0 0 0
773 0 0 0
563 0 0 0
17 0 0 0
366 0 0 0
357 0 0 0
183 0 0 0
39 0 0 0
182 0 0 0
325 0 0 0
468 0 0 0
767 0 0 0
98 0 0 0
390 0 0 0
502 0 0 0
556 0 0 0
172 0 0 0
297 0 0 0
419 0 0 0
114 0 0 0
227 0 0 0
833 0 0 0
547 0 0 0
975 0 0 0
557 0 0 0
601 0 0 0
751 0 0 0
106 0 0 0
987 0 0 0
1055 0 0 0
399 0 0 0
1145 0 0 0
1053 0 0 0
802 0 0 0
51 0 0 0
1089 0 0 0
1119 0 0 0
549 0 0 0
793 0 0 0
939 0 0 0
58 0 0 0
1108 0 0 0
1147 0 0 0
614 0 0 0
13 0 0 0
1004 0 0 0
345 0 0 0
427 0 0 0
527 0 0 0
1020 0 0 0
1026 0 0 0
944 0 0 0
772 0 0 0
625 0 0 0
799 0 0 0
31 0 0 0
621 0 0 0
378 0 0 0
470 0 0 0
805 0 0 0
159 0 0 0
162 0 0 0
52 0 0 0
708 0 0 0
181 0 0 0
207 0 0 0
639 0 0 0
637 0 0 0
696 0 0 0
234 0 0 0
571 0 0 0
674 0 0 0
174 0 0 0
233 0 0 0
699 0 0 0
240 0 0 0
426 0 0 0
534 0 0 0
465 0 0 0
195 0 0 0
213 0 0 0
949 0 0 0
955 0 0 0
690 0 0 0
898 0 0 0
257 0 0 0
752 0 0 0
190 0 0 0
872 0 0 0
503 0 0 0
543 0 0 0
602 0 0 0
683 0 0 0
44 0 0 0
886 0 0 0
260 0 0 0
668 0 0 0
940 0 0 0
662 0 0 0
559 0 0 0
170 0 0 0
680 0 0 0
883 0 0 0
249 0 0 0
917 0 0 0
747 0 0 0
1080 0 0 0
895 0 0 0
343 0 0 0
784 0 0 0
219 0 0 0
1034 0 0 0
1116 0 0 0
229 0 0 0
75 0 0 0
1104 0 0 0
344 0 0 0
630 0 0 0
931 0 0 0
1112 0 0 0
1073 0 0 0
188 0 0 0
957 0 0 0
1128 0 0 0
617 0 0 0
330 0 0 0
6 0 0 0
1008 0 0 0
1090 0 0 0
858 0 0 0
334 0 0 0
136 0 0 0
1114 0 0 0
956 0 0 0
372 0 0 0
1123 0 0 0
876 0 0 0
158 0 0 0
88 0 0 0
951 0 0 0
431 0 0 0
800 0 0 0
719 0 0 0
61 0 0 0
823 0 0 0
980 0 0 0
248 0 0 0
166 0 0 0
450 0 0 0
890 0 0 0
414 0 0 0
339 0 0 0
702 0 0 0
806 0 0 0
903 0 0 0
18 0 0 0
160 0 0 0
143 0 0 0
521 0 0 0
741 0 0 0
609 0 0 0
150 0 0 0
179 0 0 0
87 0 0 0
771 0 0 0
1149 0 0 0
1012 0 0 0
1061 0 0 0
626 0 0 0
448 0 0 0
523 0 0 0
756 0 0 0
361 0 0 0
566 0 0 0
885 0 0 0
842 0 0 0
753 0 0 0
893 0 0 0
496 0 0 0
501 0 0 0
145 0 0 0
701 0 0 0
1001 0 0 0
483 0 0 0
493 0 0 0
812 0 0 0
316 0 0 0
763 0 0 0
1021 0 0 0
706 0 0 0
579 0 0 0
440 0 0 0
548 0 0 0
474 0 0 0
986 0 0 0
994 0 0 0
658 0 0 0
33 0 0 0
479 0 0 0
456 0 0 0
177 0 0 0
36 0 0 0
671 0 0 0
107 0 0 0
161 0 0 0
35 0 0 0
230 0 0 0
3 0 0 0
258 0 0 0
169 0 0 0
693 0 0 0
311 0 0 0
687 0 0 0
712 0 0 0
941 0 0 0
369 0 0 0
510 0 0 0
697 0 0 0
30 0 0 0
85 0 0 0
976 0 0 0
189 0 0 0
155 0 0 0
95 0 0 0
794 0 0 0
845 0 0 0
356 0 0 0
632 0 0 0
715 0 0 0
196 0 0 0
420 0 0 0
999 0 0 0
243 0 0 0
769 0 0 0
900 0 0 0
622 0 0 0
424 0 0 0
884 0 0 0
792 0 0 0
250 0 0 0
19 0 0 0
754 0 0 0
1131 0 0 0
612 0 0 0
103 0 0 0
684 0 0 0
731 0 0 0
919 0 0 0
383 0 0 0
1014 0 0 0
272 0 0 0
1043 0 0 0
1122 0 0 0
341 0 0 0
1081 0 0 0
1032 0 0 0
485 0 0 0
739 0 0 0
416 0 0 0
1067 0 0 0
512 0 0 0
139 0 0 0
1042 0 0 0
1141 0 0 0
546 0 0 0
657 0 0 0
439 0 0 0
675 0 0 0
323 0 0 0
342 0 0 0
53 0 0 0
286 0 0 0
495 0 0 0
451 0 0 0
729 0 0 0
259 0 0 0
847 0 0 0
438 0 0 0
844 0 0 0
47 0 0 0
406 0 0 0
843 0 0 0
894 0 0 0
34 0 0 0
217 0 0 0
535 0 0 0
9 0 0 0
97 0 0 0
381 0 0 0
825 0 0 0
351 0 0 0
278 0 0 0
368 0 0 0
838 0 0 0
359 0 0 0
49 0 0 0
796 0 0 0
813 0 0 0
235 0 0 0
314 0 0 0
897 0 0 0
565 0 0 0
588 0 0 0
54 0 0 0
59 0 0 0
738 0 0 0
1025 0 0 0
353 0 0 0
358 0 0 0
1041 0 0 0
2 0 0 0
1036 0 0 0
1066 0 0 0
1046 0 0 0
1002 0 0 0
1060 0 0 0
826 0 0 0
123 0 0 0
215 0 0 0
830 0 0 0
1127 0 0 0
121 0 0 0
952 0 0 0
275 0 0 0
954 0 0 0
641 0 0 0
1038 0 0 0
934 0 0 0
375 0 0 0
1094 0 0 0
46 0 0 0
965 0 0 0
1068 0 0 0
822 0 0 0
206 0 0 0
576 0 0 0
755 0 0 0
570 0 0 0
514 0 0 0
198 0 0 0
321 0 0 0
656 0 0 0
93 0 0 0
761 0 0 0
56 0 0 0
829 0 0 0
596 0 0 0
648 0 0 0
317 0 0 0
669 0 0 0
89 0 0 0
643 0 0 0
620 0 0 0
208 0 0 0
914 0 0 0
461 0 0 0
385 0 0 0
524 0 0 0
