# PART A - Energy Minimization

# 1. Initialization
units lj
dimension 3
atom_style atomic
boundary p p p

# 2. System definition
region simbox block -20 20 -20 20 -20 20
create_box 2 simbox
create_atoms 1 random 1500 34134 simbox overlap 0.3
create_atoms 2 random 100 12756 simbox overlap 0.3

# 3. Settings
mass 1 1.0
mass 2 5.0
pair_style lj/cut 4.0
pair_coeff 1 1 1.0 1.0
pair_coeff 2 2 0.5 3.0

# 4. Monitoring
thermo 10
thermo_style custom step etotal press

# 5. Run
minimize 1.0e-6 1.0e-6 1000 10000

# PART B - Molecular Dynamics
# 4. Monitoring
thermo 50
thermo_style custom step temp etotal pe ke press

dump viz all image 100 myimage-*.png type type size 600 600 zoom 1.1 shiny 0.6  fsaa no view 110 70 box no 0.0
dump_modify viz pad 9 backcolor black backcolor2 white adiam 1 0.5 adiam 2 1.5  

# 5. Run
fix mynve all nve
fix mylgv all langevin 1.0 1.0 0.1 10917
timestep 0.005
run 15000

